LAMMPS (1 Feb 2019)
OMP_NUM_THREADS environment is not set. Defaulting to 1 thread. (../comm.cpp:87)
  using 1 OpenMP thread(s) per MPI task
####################################
####	ULOOP			####
####################################
variable jbn uloop 1  # run n simulations
variable startfrom equal 0
variable jn equal ${jbn}+${startfrom}
variable jn equal 1+${startfrom}
variable jn equal 1+0
print ${jn}
print 1
1
variable seed equal (${jn}+4)*51-2*${jbn}
variable seed equal (1+4)*51-2*${jbn}
variable seed equal (1+4)*51-2*1
variable seedr equal (${jn}+2)*22
variable seedr equal (1+2)*22

#
variable N equal 2000
timestep 0.01
variable Dt equal 100000
variable Temp equal 1.0
variable Norm equal 0.88585294441338
if "${jn} <= 2" then "variable E equal 0.5"
variable E equal 0.5
if "${jn} > 2 && ${jn} <= 4" then "variable E equal 1.5"
if "${jn} > 4 && ${jn} <= 6" then "variable E equal 2.0"
if "${jn} > 6 && ${jn} <= 8" then "variable E equal 2.5"
if "${jn} > 8 && ${jn} <= 10" then "variable E equal 3.0"
if "${jn} > 10 && ${jn} <= 12" then "variable E equal 3.5"
if "${jn} > 12 && ${jn} <= 14" then "variable E equal 4.0"
if "${jn} > 14 && ${jn} <= 16" then "variable E equal 4.5"
if "${jn} > 16 && ${jn} <= 18" then "variable E equal 5.0"

#
####################################
####	DEFINTIONS 	########
####################################
#
variable N equal 500
variable folder index RW_Dt${Dt}_E${E}
variable folder index RW_Dt100000_E${E}
variable folder index RW_Dt100000_E0.5
shell mkdir ${folder}
shell mkdir RW_Dt100000_E0.5
WARNING: Shell command 'mkdir' failed with error 'File exists' (../input.cpp:1287)
variable SimOutType index RW${jn}Dt${Dt}E${E}
variable SimOutType index RW1Dt${Dt}E${E}
variable SimOutType index RW1Dt100000E${E}
variable SimOutType index RW1Dt100000E0.5
variable rname index INIT/Poly.N${N}.dat
variable rname index INIT/Poly.N500.dat
variable simname index Poly.N${N}.${SimOutType}
variable simname index Poly.N500.${SimOutType}
variable simname index Poly.N500.RW1Dt100000E0.5
#
units lj
atom_style angle
boundary        p p p
neighbor 1.3 bin
neigh_modify every 5 delay 5 check yes
#
restart 1000000 ${folder}/Restart.neutr.${simname}.
restart 1000000 RW_Dt100000_E0.5/Restart.neutr.${simname}.
restart 1000000 RW_Dt100000_E0.5/Restart.neutr.Poly.N500.RW1Dt100000E0.5.
print ${rname}
print INIT/Poly.N500.dat
INIT/Poly.N500.dat
read_data ${rname}
read_data INIT/Poly.N500.dat
  orthogonal box = (-50 -50 -50) to (50 50 50)
  1 by 1 by 1 MPI processor grid
  reading atoms ...
  500 atoms
  scanning bonds ...
  1 = max bonds/atom
  scanning angles ...
  1 = max angles/atom
  reading bonds ...
  499 bonds
  reading angles ...
  498 angles
  2 = max # of 1-2 neighbors
  2 = max # of 1-3 neighbors
  4 = max # of 1-4 neighbors
  6 = max # of special neighbors

####################################
####	GROUPS	             #######
####################################
group blue type 1
500 atoms in group blue
group red type 2
0 atoms in group red
group grey type 3
0 atoms in group grey

change_box all x final -60 60 y final -60 60 z final -60 60 boundary f f f units box
  orthogonal box = (-60 -50 -50) to (60 50 50)
  orthogonal box = (-60 -60 -50) to (60 60 50)
  orthogonal box = (-60 -60 -60) to (60 60 60)

####################################
####	ANGLE	             #######
####################################
angle_style   cosine
angle_coeff  1 3.0  #20 sigma for realistic DNA (1 bead = 2.5 nm)

####################################
####	PAIRS	             #######
####################################
pair_style  soft 2.5
pair_modify     shift yes
pair_coeff      * * 20 1.12246152962189

variable prefactor equal ramp(0,50)
fix pushapart all adapt 1 pair soft a * * v_prefactor

####################################
####	FENE	             #######
####################################
bond_style   fene
special_bonds fene#<=== I M P O R T A N T (new command)
  2 = max # of 1-2 neighbors
  6 = max # of special neighbors
bond_coeff   1  30.0   1.6  1.0  1.0

####################################
####	FIXES	             #######
####################################
fix 1 all   nve
fix 2 all  langevin   1.0 1.0   1.0   ${seed}
fix 2 all  langevin   1.0 1.0   1.0   253

####################################
####	WALL	             #######
####################################
fix WALL all wall/lj126 xhi EDGE 1.0 1.0 1.122462048 xlo EDGE 1.0 1.0 1.122462048 yhi EDGE 1.0 1.0 1.122462048 ylo EDGE 1.0 1.0 1.122462048 zhi EDGE 1.0 1.0 1.122462048 zlo EDGE 1.0 1.0 1.122462048 units box

####################################
####	RESET TIME             #######
####################################
reset_timestep 0

####################################
####	SWAP - ATOMS         #######
####################################
##HERE I USE fix atom/swap to attempt an atom swap between types
## In theory, I don't need to do a loop as the fix does it every
## N timesteps
##FIRST Dt IS NOT SWAPPING ANYWAY!
group Polymer type 1 2 3
500 atoms in group Polymer
fix Aswap Polymer atom/swap ${Dt} ${N} ${seed} ${Temp} semi-grand yes types 1 2 3 mu 0.0 0.0 0.0
fix Aswap Polymer atom/swap 100000 ${N} ${seed} ${Temp} semi-grand yes types 1 2 3 mu 0.0 0.0 0.0
fix Aswap Polymer atom/swap 100000 500 ${seed} ${Temp} semi-grand yes types 1 2 3 mu 0.0 0.0 0.0
fix Aswap Polymer atom/swap 100000 500 253 ${Temp} semi-grand yes types 1 2 3 mu 0.0 0.0 0.0
fix Aswap Polymer atom/swap 100000 500 253 1 semi-grand yes types 1 2 3 mu 0.0 0.0 0.0
variable Swaps equal f_Aswap[2]/1.0
variable Attempts equal f_Aswap[1]/1.0

####################################
####    THERMO AND INTEGRATION
####################################
timestep 0.01
thermo 10000
thermo_style   custom   step  temp  epair vol cpu v_Attempts v_Swaps

####################################
####	EQUILIBRATION        #######
####################################
#THIS IS TO TEST
#PUT LARGER NUMBER WHEN DOING ACTUAL SIMULATIONS
run 100000
Neighbor list info ...
  update every 5 steps, delay 5 steps, check yes
  max neighbors/atom: 2000, page size: 100000
  master list distance cutoff = 2.42246
  ghost atom cutoff = 2.42246
  binsize = 1.21123, bins = 100 100 100
  1 neighbor lists, perpetual/occasional/extra = 1 0 0
  (1) pair soft, perpetual
      attributes: half, newton on
      pair build: half/bin/newton
      stencil: half/bin/3d/newton
      bin: standard
Per MPI rank memory allocation (min/avg/max) = 9.234 | 9.234 | 9.234 Mbytes
Step Temp E_pair Volume CPU v_Attempts v_Swaps 
       0            0            0      1728000            0            0            0 
   10000    1.0294079 0.0064934185      1728000    1.0220709          500          500 
   20000    0.9987672   0.01265543      1728000    1.8641438          500          500 
   30000    1.0377049 0.0053002516      1728000    2.7057331          500          500 
   40000   0.96298537   0.00420477      1728000    3.5447259          500          500 
   50000   0.95514074 4.5880284e-05      1728000    4.3860219          500          500 
   60000   0.97827728 4.9670865e-05      1728000     5.237169          500          500 
   70000   0.96772811 0.00068691548      1728000    6.0719359          500          500 
   80000    1.0272917 0.0015087736      1728000    6.9156311          500          500 
   90000    1.0539828 0.0015163033      1728000     7.744458          500          500 
  100000   0.98519253 0.0023363482      1728000    8.5688419          500          500 
Loop time of 8.57082 on 1 procs for 100000 steps with 500 atoms

Performance: 10080713.378 tau/day, 11667.492 timesteps/s
99.7% CPU use with 1 MPI tasks x 1 OpenMP threads

MPI task timing breakdown:
Section |  min time  |  avg time  |  max time  |%varavg| %total
---------------------------------------------------------------
Pair    | 0.60272    | 0.60272    | 0.60272    |   0.0 |  7.03
Bond    | 2.4721     | 2.4721     | 2.4721     |   0.0 | 28.84
Neigh   | 2.4577     | 2.4577     | 2.4577     |   0.0 | 28.68
Comm    | 0.12292    | 0.12292    | 0.12292    |   0.0 |  1.43
Output  | 0.014902   | 0.014902   | 0.014902   |   0.0 |  0.17
Modify  | 2.7936     | 2.7936     | 2.7936     |   0.0 | 32.59
Other   |            | 0.1068     |            |       |  1.25

Nlocal:    500 ave 500 max 500 min
Histogram: 1 0 0 0 0 0 0 0 0 0
Nghost:    0 ave 0 max 0 min
Histogram: 1 0 0 0 0 0 0 0 0 0
Neighs:    847 ave 847 max 847 min
Histogram: 1 0 0 0 0 0 0 0 0 0

Total # of neighbors = 847
Ave neighs/atom = 1.694
Ave special neighs/atom = 1.996
Neighbor list builds = 4475
Dangerous builds = 0


unfix pushapart
unfix Aswap
reset_timestep 0

#######################################################
####	PAIRS -- REPULSIVE + REDS FERROMAGN 	#######
#######################################################
#ENERGYSCALE
variable Et equal ${E}/${Norm}
variable Et equal 0.5/${Norm}
variable Et equal 0.5/0.88585294441338

pair_style  lj/cut 1.8
pair_modify     shift yes
pair_coeff      * *  1.0 1.0 1.12246152962189

pair_coeff      1 1  ${Et} 1.0 1.8
pair_coeff      1 1  0.564427767783856 1.0 1.8
pair_coeff      1 2  1.0 1.0 1.12246152962189
pair_coeff      1 3  1.0 1.0 1.12246152962189

pair_coeff      2 2  ${Et} 1.0 1.8
pair_coeff      2 2  0.564427767783856 1.0 1.8
pair_coeff      2 3  1.0 1.0 1.12246152962189

pair_coeff      3 3  1.0 1.0 1.12246152962189
#######################################################


########################
## PER PRIMI VICINI   ##
########################
bond_style harmonic
special_bonds lj 1 1 1
  2 = max # of 1-2 neighbors
  2 = max # of 1-3 neighbors
  4 = max # of 1-4 neighbors
  6 = max # of special neighbors
bond_coeff 1 200 1.12246
#bond_style fene
#special_bonds fene
#bond_coeff 1 30 1.6 1.0 1.0

########################
## RECOLOR #############
########################
group Polymer type 1 2 3
500 atoms in group Polymer
variable smooth equal 10
variable dtsmooth equal ${Dt}/${smooth}
variable dtsmooth equal 100000/${smooth}
variable dtsmooth equal 100000/10
variable Nsmooth equal ${N}/${smooth}
variable Nsmooth equal 500/${smooth}
variable Nsmooth equal 500/10
fix Aswap Polymer atom/swap ${dtsmooth} ${Nsmooth} ${seedr} ${Temp} semi-grand yes types 1 2 3 mu 0.0 0.0 0.0
fix Aswap Polymer atom/swap 10000 ${Nsmooth} ${seedr} ${Temp} semi-grand yes types 1 2 3 mu 0.0 0.0 0.0
fix Aswap Polymer atom/swap 10000 50 ${seedr} ${Temp} semi-grand yes types 1 2 3 mu 0.0 0.0 0.0
fix Aswap Polymer atom/swap 10000 50 66 ${Temp} semi-grand yes types 1 2 3 mu 0.0 0.0 0.0
fix Aswap Polymer atom/swap 10000 50 66 1 semi-grand yes types 1 2 3 mu 0.0 0.0 0.0
variable Swaps equal f_Aswap[2]/1.0
variable Attempts equal f_Aswap[1]/1.0

####################################
####    DUMPS                 #######
####################################
##VMD
#dump 1 all custom 1000 ${folder}/${simname}.lammpstrj id mol type x y z
#dump_modify  1   format "%d %d %d %.5f %.5f %.5f"

##DAT
dump 2 all custom 100000 ${folder}/${simname}.* id type x y z ix iy iz
dump 2 all custom 100000 RW_Dt100000_E0.5/${simname}.* id type x y z ix iy iz
dump 2 all custom 100000 RW_Dt100000_E0.5/Poly.N500.RW1Dt100000E0.5.* id type x y z ix iy iz
#dump_modify   2   format "%d %d %.5f %.5f %.5f %d %d %d"

##CFG
#dump 3 all cfg 1000 ${folder}/CFG/${simname}.tot.*.cfg mass type xs ys zs id mol type
#dump_modify 3 element N C O Ca Xe

##XYZ
dump 4 all xyz 100000 XYZ_${simname}.xyz
dump 4 all xyz 100000 XYZ_Poly.N500.RW1Dt100000E0.5.xyz
dump_modify 4 element C O N Xe

###########################
thermo 10000
thermo_style   custom   step  temp  epair vol cpu v_Attempts v_Swaps
run 50000000
Neighbor list info ...
  update every 5 steps, delay 5 steps, check yes
  max neighbors/atom: 2000, page size: 100000
  master list distance cutoff = 3.1
  ghost atom cutoff = 3.1
  binsize = 1.55, bins = 78 78 78
  1 neighbor lists, perpetual/occasional/extra = 1 0 0
  (1) pair lj/cut, perpetual
      attributes: half, newton on
      pair build: half/bin/newton
      stencil: half/bin/3d/newton
      bin: standard
Per MPI rank memory allocation (min/avg/max) = 9.566 | 9.566 | 9.566 Mbytes
Step Temp E_pair Volume CPU v_Attempts v_Swaps 
       0   0.98519253    1.7889608      1728000            0            0            0 
   10000    1.0288554  -0.15222977      1728000   0.81220007           50           38 
   20000   0.98553662  -0.17506424      1728000    1.6163309          100           75 
   30000    1.0235432   -0.1508016      1728000    2.4292281          150          114 
   40000    1.0669054  -0.17500458      1728000     3.231108          200          147 
   50000    1.0328543  -0.17161313      1728000     4.030813          250          186 
   60000   0.98651435  -0.16013257      1728000    4.8436921          300          227 
   70000    1.0297345  -0.14291698      1728000    5.6562409          350          266 
   80000   0.92697735    -0.160987      1728000      6.45544          400          305 
   90000   0.97852909  -0.16436188      1728000     7.257972          450          346 
  100000    1.0071998  -0.16110378      1728000     8.067384          500          391 
  110000   0.96685064  -0.15625975      1728000     8.873558          550          429 
  120000   0.96376353  -0.16952955      1728000     9.674078          600          471 
  130000    1.0048841  -0.16464981      1728000     10.48216          650          510 
  140000    1.0156096  -0.17567851      1728000    11.278514          700          544 
  150000     1.011189  -0.16001526      1728000     12.09047          750          584 
  160000    1.0178279  -0.16919087      1728000    12.897956          800          623 
  170000    1.0400713  -0.18164883      1728000     13.69825          850          660 
  180000    0.9487544  -0.17522181      1728000    14.509914          900          693 
  190000   0.98179876  -0.16636074      1728000    15.314403          950          730 
  200000    1.0188232  -0.17987664      1728000    16.132835         1000          767 
  210000    1.0323814  -0.18682451      1728000    16.944006         1050          802 
  220000    1.0087901  -0.17569502      1728000    17.760477         1100          839 
  230000    1.0152997   -0.1497227      1728000    18.568088         1150          872 
  240000   0.94543926  -0.16782823      1728000     19.37783         1200          911 
  250000   0.96400351  -0.17915922      1728000    20.183103         1250          947 
  260000    1.0279546  -0.16823519      1728000    20.983142         1300          986 
  270000   0.96159857  -0.17163715      1728000    21.787336         1350         1025 
  280000    0.9974433  -0.17477232      1728000    22.590592         1400         1062 
  290000     1.049199  -0.17458419      1728000    23.410904         1450         1096 
  300000    1.0235382  -0.16656667      1728000    24.231546         1500         1130 
  310000     1.007005  -0.16471608      1728000    25.039775         1550         1169 
  320000    1.0447694  -0.16249918      1728000    25.853162         1600         1212 
  330000   0.98897021  -0.14880619      1728000     26.66699         1650         1245 
  340000    1.0018351  -0.16008442      1728000     27.48223         1700         1283 
  350000    1.0327313  -0.14868638      1728000    28.301742         1750         1323 
  360000   0.97674418  -0.16046873      1728000    29.105406         1800         1363 
  370000    1.0095761  -0.16428563      1728000     29.91677         1850         1399 
  380000    0.9857575   -0.1566011      1728000    30.748722         1900         1440 
  390000   0.98596161  -0.15816812      1728000    31.557904         1950         1474 
  400000    1.0647387  -0.15122396      1728000    32.370104         2000         1511 
  410000    1.0244867  -0.15604444      1728000    33.173535         2050         1550 
  420000   0.93222874   -0.1566566      1728000    33.973016         2100         1584 
  430000    1.0042652  -0.15335983      1728000    34.771142         2150         1621 
  440000     1.050682  -0.15878664      1728000    35.568966         2200         1658 
  450000    1.0204122  -0.15783175      1728000    36.387004         2250         1690 
  460000   0.99851984  -0.15193115      1728000    37.196197         2300         1728 
  470000   0.99773575  -0.15633799      1728000    37.998837         2350         1770 
  480000   0.99010371   -0.1517122      1728000    38.798327         2400         1806 
  490000   0.98397434   -0.1436398      1728000    39.589561         2450         1847 
  500000    1.0044322  -0.15499725      1728000    40.391884         2500         1882 
  510000    0.9801389  -0.15183207      1728000    41.192134         2550         1920 
  520000    1.0322406  -0.16087026      1728000     41.99634         2600         1961 
  530000   0.96937819  -0.15584025      1728000    42.794289         2650         2002 
  540000   0.99662007  -0.17570999      1728000     43.60463         2700         2037 
  550000     1.000487  -0.16361992      1728000    44.410833         2750         2067 
  560000   0.98839281  -0.17389197      1728000    45.204232         2800         2105 
  570000    1.0154256  -0.16519411      1728000    45.989147         2850         2144 
  580000   0.97749696  -0.18863791      1728000    46.795326         2900         2182 
  590000   0.99546202  -0.16304619      1728000    47.614777         2950         2217 
  600000   0.99406877  -0.15431582      1728000    48.420519         3000         2254 
  610000    1.0124198   -0.1540751      1728000    49.211071         3050         2291 
  620000    1.0248929  -0.16900947      1728000    50.003249         3100         2331 
  630000    1.1417586  -0.15466647      1728000    50.808759         3150         2373 
  640000   0.97514804  -0.15859732      1728000    51.613158         3200         2408 
  650000    0.9309874  -0.16165624      1728000    52.425096         3250         2451 
  660000   0.94912388  -0.14364579      1728000    53.235053         3300         2486 
  670000   0.99859415  -0.14806985      1728000    54.038014         3350         2524 
  680000     1.002288  -0.16043689      1728000    54.843188         3400         2559 
  690000   0.99198335  -0.15378501      1728000    55.656813         3450         2596 
  700000   0.94902555  -0.14466162      1728000    56.476043         3500         2635 
  710000    1.0510419  -0.15038496      1728000    57.282112         3550         2669 
  720000    1.0883136  -0.16565059      1728000    58.127801         3600         2707 
  730000   0.99729656  -0.16052505      1728000    58.934112         3650         2747 
  740000    1.0067953  -0.14024158      1728000    59.748347         3700         2782 
  750000    1.0392053  -0.14878503      1728000    60.547137         3750         2823 
  760000   0.91900511  -0.16316644      1728000    61.374725         3800         2865 
  770000    1.0389083  -0.15675085      1728000     62.19093         3850         2901 
  780000   0.99745642   -0.1714963      1728000     63.00197         3900         2944 
  790000   0.96971056   -0.1700849      1728000    63.809271         3950         2979 
  800000   0.87416125  -0.16879493      1728000     64.62101         4000         3016 
  810000    0.9859724  -0.18587429      1728000    65.430197         4050         3057 
  820000   0.99235373  -0.17973163      1728000    66.243076         4100         3095 
  830000    1.0192412  -0.17585789      1728000    67.041601         4150         3132 
  840000    1.0730604  -0.17119475      1728000    67.837973         4200         3166 
  850000    1.0142112  -0.17453995      1728000    68.636168         4250         3201 
  860000   0.95492576  -0.16620148      1728000    69.431865         4300         3234 
  870000    1.0092942  -0.17459357      1728000    70.221055         4350         3268 
  880000    1.0073847  -0.15816897      1728000    71.010453         4400         3306 
  890000    1.0090507   -0.1493597      1728000    71.809865         4450         3345 
  900000   0.94559311  -0.16640858      1728000    72.603107         4500         3382 
  910000    1.0539086   -0.1577844      1728000    73.398127         4550         3415 
  920000    1.0005936  -0.13596551      1728000    74.186083         4600         3455 
  930000   0.99580864  -0.15526323      1728000    74.991834         4650         3489 
  940000    1.0153447  -0.14928236      1728000    75.788246         4700         3527 
  950000    1.0467173  -0.15155167      1728000    76.587058         4750         3568 
  960000    1.0571721  -0.16049276      1728000    77.379939         4800         3605 
  970000   0.95385049  -0.13747317      1728000    78.174944         4850         3643 
  980000   0.94999919  -0.14621535      1728000    78.985118         4900         3683 
  990000    1.0025323   -0.1620162      1728000    79.795295         4950         3721 
 1000000    1.0063431  -0.15039938      1728000    80.620042         5000         3764 
 1010000   0.97982332  -0.15292053      1728000    81.436272         5050         3807 
 1020000   0.95428739  -0.13836074      1728000    82.263794         5100         3847 
 1030000    1.1256184  -0.14943392      1728000    83.108783         5150         3884 
 1040000    1.0003839  -0.15787666      1728000    83.953932         5200         3925 
 1050000    1.0241681  -0.15325172      1728000    84.783336         5250         3962 
 1060000   0.99408098  -0.13241506      1728000    85.572134         5300         4002 
 1070000    1.0047023  -0.15564474      1728000    86.398277         5350         4044 
 1080000    1.0083271  -0.14248954      1728000     87.21513         5400         4081 
 1090000   0.98343437  -0.15358477      1728000    88.020064         5450         4120 
 1100000   0.98560142  -0.16637418      1728000    88.833232         5500         4160 
 1110000   0.96943903  -0.15003489      1728000    89.632165         5550         4198 
 1120000    1.0616083  -0.15518054      1728000    90.434987         5600         4234 
 1130000    1.0072618  -0.15030098      1728000    91.240634         5650         4275 
 1140000    1.0797544  -0.17503257      1728000    92.025827         5700         4316 
 1150000    1.0284729  -0.16913078      1728000    92.811296         5750         4354 
 1160000     1.041649  -0.16854341      1728000    93.601376         5800         4395 
 1170000    1.0370312   -0.1661628      1728000    94.401194         5850         4428 
 1180000    1.0484196  -0.17215885      1728000    95.205525         5900         4464 
 1190000   0.95430309   -0.1696996      1728000    96.015828         5950         4504 
 1200000    1.0065238  -0.16782112      1728000    96.829466         6000         4542 
 1210000    1.0128635  -0.17226843      1728000    97.637928         6050         4575 
 1220000    0.9787019  -0.18387257      1728000    98.448184         6100         4609 
 1230000   0.98954901  -0.18322488      1728000    99.254346         6150         4649 
 1240000    1.0016785  -0.16214343      1728000    100.04602         6200         4680 
 1250000    1.0420956  -0.16625302      1728000    100.84437         6250         4721 
 1260000   0.99625911  -0.17758961      1728000    101.64455         6300         4759 
 1270000   0.95312573  -0.17578015      1728000    102.44488         6350         4799 
 1280000    1.0256344  -0.18026279      1728000    103.23915         6400         4840 
 1290000   0.96548478  -0.19432702      1728000     104.0341         6450         4882 
 1300000   0.96103496  -0.17571288      1728000    104.83229         6500         4922 
 1310000    1.0422458  -0.18969377      1728000    105.62561         6550         4958 
 1320000    1.0150363  -0.18427122      1728000    106.42931         6600         4989 
 1330000   0.99081299  -0.19203244      1728000    107.23684         6650         5029 
 1340000   0.99264176  -0.19609302      1728000    108.04808         6700         5067 
 1350000   0.97487874   -0.2043064      1728000    108.84921         6750         5093 
 1360000    1.0196285  -0.16166503      1728000    109.63739         6800         5137 
 1370000     1.008956  -0.17354865      1728000     110.4236         6850         5170 
 1380000   0.99736623  -0.18244704      1728000    111.22007         6900         5207 
 1390000   0.99975924  -0.18179079      1728000    112.02334         6950         5239 
 1400000   0.97276452  -0.17753425      1728000    112.82412         7000         5264 
 1410000    1.0076279  -0.17937133      1728000    113.62631         7050         5304 
 1420000    1.0061608  -0.19086003      1728000    114.41516         7100         5340 
 1430000    1.0453586  -0.18465165      1728000    115.20209         7150         5381 
 1440000   0.99288863  -0.17454704      1728000    115.98208         7200         5418 
 1450000   0.98121899  -0.15715892      1728000    116.78291         7250         5459 
 1460000    1.0077344  -0.15591625      1728000    117.57625         7300         5497 
 1470000    1.0016043  -0.14268761      1728000    118.38852         7350         5531 
 1480000    1.0058208  -0.14635589      1728000     119.1796         7400         5570 
 1490000    1.0459571  -0.15599975      1728000    119.96269         7450         5607 
 1500000   0.98445006  -0.16137065      1728000    120.76188         7500         5645 
 1510000    0.9863079  -0.15748863      1728000    121.55499         7550         5684 
 1520000   0.96385375  -0.16581144      1728000    122.36989         7600         5723 
 1530000    0.9909596  -0.15998584      1728000    123.16608         7650         5764 
 1540000    1.0137943  -0.14668534      1728000    123.97038         7700         5800 
 1550000   0.97190755   -0.1469655      1728000    124.78852         7750         5837 
 1560000   0.96446919  -0.14626534      1728000    125.59172         7800         5876 
 1570000    1.0022369  -0.14156507      1728000    126.39192         7850         5916 
 1580000   0.93505279  -0.14610183      1728000    127.22708         7900         5956 
 1590000   0.98274786  -0.13207301      1728000    128.03225         7950         5994 
 1600000   0.97808879   -0.1501521      1728000    128.83079         8000         6035 
 1610000   0.99643126  -0.13894969      1728000    129.62425         8050         6072 
 1620000    1.0218007  -0.15197032      1728000    130.40615         8100         6112 
 1630000   0.99801984  -0.15380766      1728000    131.21256         8150         6144 
 1640000    1.0068845  -0.13907558      1728000    132.02507         8200         6185 
 1650000    1.0300856  -0.13091153      1728000     132.8122         8250         6224 
 1660000    1.0322221  -0.13529733      1728000    133.59612         8300         6261 
 1670000   0.98238781  -0.15357765      1728000    134.40859         8350         6299 
 1680000    1.0008039  -0.15119556      1728000    135.21497         8400         6342 
 1690000    1.0226669  -0.15517779      1728000    136.00722         8450         6379 
 1700000    1.0256452  -0.15919696      1728000    136.81011         8500         6420 
 1710000    1.0464444  -0.15988334      1728000    137.61402         8550         6459 
 1720000   0.98810761  -0.14277726      1728000    138.40327         8600         6496 
 1730000    1.0434837  -0.14357653      1728000    139.19377         8650         6541 
 1740000   0.96662833  -0.13680402      1728000     139.9831         8700         6583 
 1750000   0.98775739  -0.14473486      1728000    140.78699         8750         6622 
 1760000    0.9949994  -0.15559754      1728000    141.59213         8800         6659 
 1770000    1.0306668  -0.14980944      1728000    142.38776         8850         6699 
 1780000    1.0659545  -0.14686185      1728000    143.19195         8900         6737 
 1790000   0.92584881  -0.14700426      1728000    143.99311         8950         6779 
 1800000   0.95775375  -0.15485518      1728000    144.80003         9000         6818 
 1810000    1.0158489  -0.14919271      1728000    145.59213         9050         6859 
 1820000   0.99267231  -0.16557288      1728000    146.37434         9100         6901 
 1830000   0.99039649  -0.17281297      1728000    147.18413         9150         6937 
 1840000    1.0564871  -0.16249574      1728000    147.97942         9200         6971 
 1850000    1.0107603  -0.14988941      1728000    148.76115         9250         7007 
 1860000    1.0168922  -0.15475071      1728000    149.54906         9300         7048 
 1870000     1.048885  -0.15544322      1728000    150.36027         9350         7088 
 1880000    1.0155536  -0.15582176      1728000    151.15556         9400         7126 
 1890000    0.9845523  -0.16506155      1728000    151.96376         9450         7160 
 1900000   0.95547454  -0.15889051      1728000    152.78214         9500         7196 
 1910000     1.023689  -0.16512388      1728000    153.58135         9550         7232 
 1920000   0.98384906  -0.16361496      1728000    154.37856         9600         7272 
 1930000    1.0236131  -0.15747153      1728000     155.1622         9650         7311 
 1940000    1.0088271  -0.15474005      1728000    155.97839         9700         7354 
 1950000    0.9605358  -0.15219369      1728000    156.78463         9750         7389 
 1960000    1.0646726  -0.15565609      1728000    157.58337         9800         7424 
 1970000   0.99272993  -0.14457908      1728000    158.37912         9850         7458 
 1980000    1.0253775  -0.13566937      1728000    159.18112         9900         7497 
 1990000    1.0919514  -0.16301601      1728000    159.97892         9950         7537 
 2000000    1.0449971  -0.14136649      1728000    160.79244        10000         7579 
 2010000   0.98610488  -0.13193212      1728000    161.58413        10050         7621 
 2020000    1.0926975  -0.12824738      1728000    162.38527        10100         7657 
 2030000   0.97658109  -0.13107833      1728000    163.17871        10150         7696 
 2040000    1.0482253  -0.14159883      1728000    163.96492        10200         7736 
 2050000    1.0093075  -0.12642541      1728000    164.76222        10250         7778 
 2060000    1.0569892  -0.13874103      1728000    165.55514        10300         7817 
 2070000    1.0607691  -0.11852449      1728000    166.34787        10350         7855 
 2080000   0.98939974  -0.12224501      1728000    167.14629        10400         7899 
 2090000   0.99902758  -0.14278573      1728000    167.92595        10450         7938 
 2100000    1.0444573  -0.13936865      1728000    168.71099        10500         7969 
 2110000    1.0718182  -0.13773753      1728000    169.50916        10550         8011 
 2120000    1.0574478  -0.14492992      1728000    170.30335        10600         8053 
 2130000    1.0503933  -0.13861299      1728000    171.15947        10650         8092 
 2140000    1.0189636  -0.15482911      1728000    171.95075        10700         8138 
 2150000   0.95641651  -0.14153065      1728000    172.73111        10750         8177 
 2160000     1.024378  -0.14121277      1728000    173.53123        10800         8218 
 2170000    1.0195401  -0.12880018      1728000    174.36078        10850         8256 
 2180000    1.0197215  -0.13747995      1728000    175.21801        10900         8294 
 2190000   0.97792155   -0.1344972      1728000    176.07025        10950         8328 
 2200000    1.0142947   -0.1499315      1728000    176.88703        11000         8364 
 2210000   0.95929351  -0.16070106      1728000    177.68415        11050         8406 
 2220000    1.0177125   -0.1628764      1728000    178.47478        11100         8439 
 2230000   0.97492056  -0.15687325      1728000    179.27916        11150         8478 
 2240000   0.96340663  -0.14942177      1728000    180.06529        11200         8514 
 2250000   0.94482655  -0.14330648      1728000    180.85117        11250         8552 
 2260000   0.96468116  -0.14945272      1728000    181.63784        11300         8593 
 2270000    1.0254088   -0.1453519      1728000    182.41914        11350         8637 
 2280000    1.0048354  -0.14988995      1728000    183.20507        11400         8679 
 2290000    0.9340624   -0.1535191      1728000     183.9991        11450         8724 
 2300000   0.94388927  -0.16192026      1728000    184.81503        11500         8763 
 2310000     1.034499  -0.15632382      1728000    185.65324        11550         8806 
 2320000    1.0077839  -0.17119226      1728000    186.55929        11600         8837 
 2330000   0.96643582  -0.17844651      1728000    187.50832        11650         8879 
 2340000   0.97075245  -0.17585716      1728000    188.41195        11700         8917 
 2350000   0.94835779  -0.15578705      1728000    189.27707        11750         8953 
 2360000    1.0847712  -0.14736208      1728000    190.09223        11800         8994 
 2370000   0.96906463  -0.16013542      1728000    190.91153        11850         9031 
 2380000    1.0006767  -0.15064429      1728000    191.71818        11900         9072 
 2390000   0.99679147  -0.15166169      1728000    192.52841        11950         9107 
 2400000   0.96152913  -0.16393354      1728000     193.3453        12000         9147 
 2410000   0.98878293  -0.16197949      1728000    194.15227        12050         9184 
 2420000   0.97295389  -0.14964278      1728000    194.96025        12100         9220 
 2430000    1.0722595  -0.15163486      1728000    195.76118        12150         9261 
 2440000    1.0097819  -0.16562425      1728000    196.58878        12200         9300 
 2450000   0.97558505  -0.16258332      1728000      197.397        12250         9342 
 2460000    1.0659611  -0.16248442      1728000    198.20715        12300         9382 
 2470000   0.97672953  -0.16180001      1728000    199.01921        12350         9420 
 2480000    1.0247308  -0.16501485      1728000    199.84507        12400         9456 
 2490000   0.94119859  -0.15725472      1728000    200.64814        12450         9498 
 2500000    1.0139618  -0.13958957      1728000    201.46511        12500         9539 
 2510000     1.022199  -0.15242106      1728000    202.27025        12550         9573 
 2520000     1.015287   -0.1508154      1728000    203.08311        12600         9613 
 2530000    1.0021149  -0.16321977      1728000    203.89034        12650         9650 
 2540000    1.0084635  -0.16265783      1728000    204.70215        12700         9688 
 2550000   0.99323553  -0.14942176      1728000    205.51014        12750         9726 
 2560000    1.0401085  -0.14855958      1728000    206.31236        12800         9765 
 2570000    1.0392404  -0.16365468      1728000    207.10828        12850         9805 
 2580000   0.99904989  -0.16052928      1728000    207.91527        12900         9843 
 2590000    1.0059059  -0.16387504      1728000    208.71804        12950         9879 
 2600000   0.95722109  -0.13902642      1728000    209.54563        13000         9918 
 2610000    1.0820113  -0.15140393      1728000    210.36979        13050         9962 
 2620000   0.97788895  -0.15682131      1728000     211.1981        13100         9998 
 2630000   0.97485617  -0.14962763      1728000    212.05188        13150        10038 
 2640000     1.006245  -0.15651946      1728000    212.88107        13200        10071 
 2650000    1.0268173  -0.13842888      1728000    213.69892        13250        10109 
 2660000   0.97993035  -0.14620084      1728000    214.51337        13300        10146 
 2670000   0.94392347  -0.13725666      1728000    215.31756        13350        10184 
 2680000    1.0354926  -0.14183614      1728000    216.13499        13400        10224 
 2690000   0.93727965  -0.14952175      1728000    216.96116        13450        10264 
 2700000    1.0137477  -0.13957864      1728000    217.81128        13500        10299 
 2710000   0.98998504  -0.13841825      1728000    218.62946        13550        10338 
 2720000   0.93486337  -0.15711845      1728000    219.44086        13600        10374 
 2730000    1.1195911  -0.13626229      1728000    220.29799        13650        10418 
 2740000    1.0175014  -0.14147565      1728000    221.09819        13700        10461 
 2750000    1.0101522  -0.13365522      1728000    221.90331        13750        10498 
 2760000    1.0036597  -0.15078311      1728000    222.71453        13800        10535 
 2770000    1.0015092  -0.14410177      1728000    223.52246        13850        10575 
 2780000    1.0391808  -0.14432928      1728000     224.3257        13900        10608 
 2790000    1.0261394  -0.12473059      1728000    225.14387        13950        10645 
 2800000   0.98893501  -0.13748016      1728000    225.96408        14000        10679 
 2810000   0.97476927  -0.14805034      1728000    226.76936        14050        10715 
 2820000   0.99606466  -0.14279157      1728000    227.56764        14100        10758 
 2830000    1.0060342  -0.15366963      1728000    228.37191        14150        10796 
 2840000   0.97948137  -0.13830289      1728000    229.18021        14200        10836 
 2850000   0.97977689  -0.13325601      1728000    229.98545        14250        10870 
 2860000    1.0126585  -0.13725418      1728000    230.78969        14300        10915 
 2870000    1.0165423  -0.13757408      1728000    231.60436        14350        10958 
 2880000    1.0155316  -0.14215635      1728000    232.40752        14400        10997 
 2890000    1.0411208  -0.16522907      1728000     233.2152        14450        11033 
 2900000   0.99415539  -0.16379671      1728000    234.02712        14500        11073 
 2910000    1.0105744  -0.15098269      1728000    234.84042        14550        11109 
 2920000    1.0001371  -0.17201344      1728000    235.65614        14600        11150 
 2930000   0.95838412   -0.1449557      1728000    236.46247        14650        11189 
 2940000   0.93015882  -0.14453488      1728000    237.28242        14700        11232 
 2950000    1.0243611  -0.15016684      1728000    238.09223        14750        11274 
 2960000   0.98602653  -0.15152922      1728000     238.9074        14800        11313 
 2970000    1.0273133  -0.14400816      1728000    239.70858        14850        11354 
 2980000    1.0056449  -0.14323749      1728000    240.51841        14900        11394 
 2990000   0.96609167  -0.15071881      1728000    241.36563        14950        11434 
 3000000    0.9705842  -0.15284693      1728000    242.19251        15000        11472 
 3010000   0.95491601  -0.13959739      1728000    243.02768        15050        11510 
 3020000    1.0116056  -0.14315112      1728000    243.83952        15100        11554 
 3030000   0.98867997  -0.14915109      1728000    244.64974        15150        11593 
 3040000    1.0178524  -0.16389735      1728000    245.46589        15200        11630 
 3050000   0.90214427  -0.16023572      1728000    246.28317        15250        11667 
 3060000   0.95877429  -0.16502782      1728000    247.10532        15300        11702 
 3070000    1.0032332  -0.16908781      1728000    247.91952        15350        11742 
 3080000   0.99217935  -0.16361913      1728000    248.73627        15400        11778 
 3090000    1.0169474  -0.14954746      1728000    249.56934        15450        11820 
 3100000     1.021166  -0.15603213      1728000    250.39944        15500        11860 
 3110000    0.9656519  -0.16119596      1728000    251.22827        15550        11896 
 3120000   0.97187156  -0.14193338      1728000    252.05849        15600        11929 
 3130000    1.0078552  -0.16395357      1728000    252.87345        15650        11970 
 3140000    1.0209931  -0.15768053      1728000    253.68403        15700        12009 
 3150000    1.0246619  -0.14659085      1728000    254.49722        15750        12049 
 3160000   0.96173256  -0.16392779      1728000    255.31037        15800        12085 
 3170000    0.9675279  -0.15478084      1728000    256.13154        15850        12121 
 3180000   0.99107196  -0.15984546      1728000     256.9387        15900        12155 
 3190000   0.95252322  -0.16753687      1728000    257.74262        15950        12195 
 3200000    0.9485662  -0.16122257      1728000    258.56734        16000        12235 
 3210000   0.99824989   -0.1482416      1728000     259.3875        16050        12273 
 3220000    1.0318011  -0.16743454      1728000    260.20866        16100        12312 
 3230000   0.99711829  -0.17553693      1728000    261.04781        16150        12347 
 3240000    1.0454445  -0.16593133      1728000    261.86697        16200        12380 
 3250000    1.0519315  -0.16437232      1728000    262.68723        16250        12413 
 3260000   0.98643779  -0.17624795      1728000    263.50252        16300        12451 
 3270000   0.95536218  -0.16082922      1728000    264.31367        16350        12489 
 3280000   0.97657048  -0.16093851      1728000      265.121        16400        12529 
 3290000     1.003096  -0.16300399      1728000    265.96876        16450        12562 
 3300000    1.0492974  -0.14315511      1728000    266.79608        16500        12603 
 3310000    1.0335935  -0.13776815      1728000    267.60542        16550        12639 
 3320000   0.91316695   -0.1236655      1728000    268.40706        16600        12680 
 3330000    1.0396224  -0.11701933      1728000    269.23028        16650        12722 
 3340000    1.0121155  -0.13697746      1728000    270.04433        16700        12762 
 3350000   0.97069541  -0.12858347      1728000    270.84973        16750        12804 
 3360000   0.96281192  -0.11871161      1728000    271.65182        16800        12846 
 3370000    1.0458246  -0.11982239      1728000    272.45809        16850        12883 
 3380000    1.0493107  -0.13204956      1728000    273.26126        16900        12921 
 3390000    1.0060953  -0.13216479      1728000    274.07542        16950        12957 
 3400000    1.0279114   -0.1325071      1728000    274.88861        17000        12997 
 3410000     1.005585  -0.13837836      1728000    275.70378        17050        13034 
 3420000    1.0131127  -0.12259749      1728000    276.50801        17100        13071 
 3430000   0.98788026  -0.13706135      1728000    277.33622        17150        13107 
 3440000   0.96357332  -0.13485751      1728000    278.19535        17200        13148 
 3450000   0.97218703  -0.14301199      1728000    279.03032        17250        13182 
 3460000    1.0740794   -0.1364572      1728000     279.8886        17300        13222 
 3470000   0.97718118  -0.13955169      1728000     280.7065        17350        13261 
 3480000   0.98160586  -0.13663849      1728000    281.52362        17400        13298 
 3490000   0.95552986  -0.14500817      1728000    282.37275        17450        13339 
 3500000   0.94658854  -0.14585402      1728000    283.21838        17500        13378 
 3510000     0.988062  -0.14476837      1728000    284.03171        17550        13416 
 3520000    0.9803481  -0.15467129      1728000    284.85086        17600        13448 
 3530000    1.0042573  -0.14594115      1728000     285.6702        17650        13483 
 3540000   0.95859238  -0.15382107      1728000    286.48266        17700        13521 
 3550000    1.0420186  -0.14721263      1728000    287.29783        17750        13551 
 3560000    1.0036698  -0.15257443      1728000    288.10909        17800        13592 
 3570000    1.0033737  -0.14101785      1728000    288.91725        17850        13637 
 3580000   0.99924825  -0.14741993      1728000    289.72931        17900        13677 
 3590000    0.9903561  -0.14699139      1728000    290.53355        17950        13717 
 3600000   0.97949713  -0.15153675      1728000    291.34826        18000        13755 
 3610000   0.94609951  -0.15412598      1728000    292.15348        18050        13795 
 3620000    1.0244029  -0.14098036      1728000    292.96069        18100        13833 
 3630000    1.0169169  -0.14793506      1728000    293.76986        18150        13868 
 3640000    1.0241184  -0.14210273      1728000    294.57907        18200        13906 
 3650000   0.96267733  -0.17121395      1728000    295.40723        18250        13947 
 3660000    1.0124606  -0.17035977      1728000    296.22168        18300        13982 
 3670000   0.97192895  -0.15824193      1728000    297.03989        18350        14019 
 3680000    0.9473817  -0.15373518      1728000    297.84246        18400        14060 
 3690000    1.0047949  -0.16087292      1728000    298.64763        18450        14098 
 3700000    1.0292119  -0.16647605      1728000     299.4829        18500        14135 
 3710000   0.96352329  -0.14538788      1728000    300.29713        18550        14174 
 3720000    1.0442123  -0.15120179      1728000    301.10099        18600        14212 
 3730000   0.94691595  -0.16420689      1728000    301.89928        18650        14253 
 3740000    1.0871183  -0.15635571      1728000    302.71761        18700        14292 
 3750000    1.0741821  -0.15334002      1728000    303.52949        18750        14328 
 3760000    1.0005064  -0.15864187      1728000    304.33861        18800        14367 
 3770000    1.0272887  -0.14526184      1728000    305.13903        18850        14404 
 3780000    0.9817527  -0.16103112      1728000    305.94321        18900        14442 
 3790000   0.99214039  -0.15580855      1728000     306.7514        18950        14476 
 3800000    1.0483631  -0.14682955      1728000    307.56454        19000        14521 
 3810000   0.98792339  -0.14569613      1728000    308.37186        19050        14560 
 3820000    1.0315938  -0.15904715      1728000    309.18578        19100        14597 
 3830000    0.9713228  -0.15375055      1728000    310.00035        19150        14636 
 3840000   0.98133268  -0.14922234      1728000     310.8098        19200        14670 
 3850000    1.0031298  -0.15321377      1728000     311.6174        19250        14708 
 3860000   0.97732283  -0.15664252      1728000    312.42899        19300        14748 
 3870000    1.0458913  -0.14749168      1728000    313.23931        19350        14785 
 3880000    0.9843296  -0.13916585      1728000    314.05947        19400        14823 
 3890000    1.0351187  -0.14320098      1728000    314.87565        19450        14861 
 3900000   0.93405857  -0.14569737      1728000    315.69601        19500        14897 
 3910000    0.9781819  -0.15163122      1728000    316.51652        19550        14940 
 3920000   0.98082773  -0.15211695      1728000     317.3247        19600        14983 
 3930000    1.0467127  -0.15221801      1728000    318.12793        19650        15020 
 3940000   0.99602899  -0.15597165      1728000    318.93071        19700        15058 
 3950000   0.93561408  -0.14740362      1728000    319.72979        19750        15097 
 3960000   0.95687559  -0.14578015      1728000    320.53614        19800        15136 
 3970000    0.9403217  -0.13393655      1728000    321.33528        19850        15179 
 3980000    1.0230031   -0.1414066      1728000    322.16246        19900        15217 
 3990000    0.9715682  -0.14512056      1728000    322.96363        19950        15257 
 4000000   0.96948576  -0.12566226      1728000    323.78394        20000        15292 
 4010000   0.99375554  -0.13857331      1728000    324.58212        20050        15332 
 4020000   0.99359646  -0.14265634      1728000    325.38988        20100        15372 
 4030000    1.0333217  -0.13484088      1728000    326.18812        20150        15408 
 4040000    1.0267713  -0.12450301      1728000    326.99775        20200        15452 
 4050000    1.0651602  -0.14885307      1728000    327.79501        20250        15493 
 4060000   0.94200474  -0.14832638      1728000    328.59033        20300        15532 
 4070000   0.99967151  -0.15686156      1728000    329.38822        20350        15563 
 4080000    0.9559434  -0.13796471      1728000    330.18963        20400        15605 
 4090000   0.95301846  -0.13052479      1728000    330.98715        20450        15646 
 4100000    1.0147335  -0.14577374      1728000    331.79538        20500        15687 
 4110000    1.0050589  -0.14005555      1728000    332.59568        20550        15722 
 4120000    1.0295631  -0.14545843      1728000    333.39891        20600        15762 
 4130000   0.98087606  -0.16218311      1728000    334.20566        20650        15802 
 4140000    1.0650705  -0.15543554      1728000    335.00148        20700        15844 
 4150000     1.019119  -0.15603271      1728000    335.80072        20750        15882 
 4160000   0.97391318  -0.14833978      1728000     336.5989        20800        15923 
 4170000    1.0613104  -0.15489913      1728000    337.40015        20850        15962 
 4180000   0.95025551  -0.16663821      1728000     338.2054        20900        16001 
 4190000   0.97605446  -0.17115071      1728000    339.00979        20950        16040 
 4200000   0.98770917  -0.14907742      1728000    339.82183        21000        16077 
 4210000    1.0123343  -0.14338987      1728000    340.62511        21050        16120 
 4220000   0.99199333  -0.15115351      1728000    341.43309        21100        16157 
 4230000    1.0127977  -0.15161222      1728000    342.25637        21150        16193 
 4240000    0.9561449  -0.15904525      1728000    343.07889        21200        16234 
 4250000   0.97138892  -0.14528843      1728000     343.9082        21250        16269 
 4260000   0.93173982  -0.15347795      1728000    344.71044        21300        16314 
 4270000   0.97328227  -0.16412159      1728000    345.51873        21350        16344 
 4280000    1.0559481  -0.16551119      1728000    346.32739        21400        16382 
 4290000   0.98529974    -0.173767      1728000    347.12858        21450        16421 
 4300000   0.98467772   -0.1774949      1728000    347.93685        21500        16452 
 4310000    0.9877732  -0.17586672      1728000    348.74155        21550        16492 
 4320000   0.94251505  -0.17470101      1728000    349.53788        21600        16529 
 4330000    1.0011403  -0.16912493      1728000    350.36624        21650        16571 
 4340000    1.0088277  -0.15321453      1728000     351.1784        21700        16606 
 4350000    0.9675083  -0.15341216      1728000    351.98081        21750        16647 
 4360000    1.0081079  -0.13844015      1728000    352.78712        21800        16685 
 4370000     1.042724  -0.13187743      1728000    353.59887        21850        16726 
 4380000   0.94384808  -0.14206831      1728000    354.41114        21900        16768 
 4390000   0.99640586  -0.14665841      1728000    355.21826        21950        16810 
 4400000   0.98187177  -0.13970771      1728000     356.0185        22000        16848 
 4410000   0.95040078  -0.13844352      1728000    356.82475        22050        16891 
 4420000    1.0100682  -0.12733927      1728000    357.63192        22100        16928 
 4430000   0.97648683  -0.13090984      1728000    358.44511        22150        16969 
 4440000    1.0632272  -0.12076266      1728000    359.25059        22200        17002 
 4450000    1.0069676  -0.12874042      1728000    360.05724        22250        17042 
 4460000   0.98537355  -0.13292477      1728000    360.86544        22300        17078 
 4470000    1.0435153   -0.1426679      1728000    361.67473        22350        17122 
 4480000   0.93495487  -0.15328579      1728000     362.4974        22400        17165 
 4490000    0.9804835  -0.16269989      1728000    363.31258        22450        17199 
 4500000   0.91763049  -0.13434319      1728000    364.12856        22500        17239 
 4510000    1.0540919  -0.14713767      1728000    364.93775        22550        17275 
 4520000   0.97723338  -0.14151781      1728000      365.741        22600        17314 
 4530000    0.9762135  -0.15118881      1728000    366.55125        22650        17352 
 4540000   0.95413086  -0.14676326      1728000    367.36345        22700        17394 
 4550000   0.99768415  -0.13300303      1728000    368.17416        22750        17436 
 4560000   0.92977267  -0.13604463      1728000    368.97837        22800        17476 
 4570000   0.98402798  -0.14983644      1728000    369.80348        22850        17512 
 4580000   0.97224844  -0.15212075      1728000    370.60171        22900        17557 
 4590000    1.0862494  -0.16367536      1728000    371.41188        22950        17594 
 4600000   0.92013341  -0.15963379      1728000    372.22457        23000        17634 
 4610000   0.99861206  -0.16013573      1728000    373.02911        23050        17675 
 4620000   0.97921433  -0.16669503      1728000    373.82738        23100        17705 
 4630000   0.99568549  -0.15848918      1728000    374.61859        23150        17751 
 4640000   0.96683071  -0.16924812      1728000     375.4148        23200        17792 
 4650000    1.0066505  -0.15886576      1728000    376.23275        23250        17830 
 4660000   0.99005986  -0.16053599      1728000    377.03692        23300        17865 
 4670000    0.9733031  -0.15358812      1728000    377.83743        23350        17908 
 4680000    1.0157379  -0.17582357      1728000    378.63961        23400        17947 
 4690000   0.99879805  -0.17048866      1728000    379.47304        23450        17982 
 4700000    1.0660475  -0.16609945      1728000    380.28819        23500        18021 
 4710000   0.95906541  -0.16896159      1728000    381.10551        23550        18057 
 4720000    1.0068622  -0.17625693      1728000    381.93672        23600        18094 
 4730000    1.0127438  -0.16176806      1728000    382.74589        23650        18135 
 4740000   0.99386845  -0.14915062      1728000    383.55107        23700        18178 
 4750000   0.99373655  -0.15319903      1728000    384.38721        23750        18214 
 4760000    1.0419679  -0.15569092      1728000     385.2254        23800        18257 
 4770000    1.0609623  -0.15072712      1728000    386.05155        23850        18294 
 4780000    1.0561645   -0.1332652      1728000    386.86379        23900        18332 
 4790000    1.0439516  -0.14593581      1728000    387.66796        23950        18373 
 4800000   0.97266837   -0.1420255      1728000    388.49902        24000        18409 
 4810000    1.0549182  -0.15075063      1728000    389.31463        24050        18448 
 4820000    1.0057583  -0.15234085      1728000    390.14778        24100        18487 
 4830000    1.0115932  -0.13101731      1728000      390.962        24150        18523 
 4840000   0.99947034  -0.14613355      1728000    391.77217        24200        18560 
 4850000   0.97335786  -0.14977542      1728000    392.58244        24250        18601 
 4860000    1.0141211  -0.14793481      1728000    393.40489        24300        18638 
 4870000    1.0413173  -0.14472351      1728000    394.24899        24350        18679 
 4880000   0.94110682  -0.14773357      1728000    395.05816        24400        18717 
 4890000    1.0481614  -0.15592373      1728000    395.89074        24450        18759 
 4900000   0.96164392  -0.15415671      1728000    396.72098        24500        18800 
 4910000   0.97547287   -0.1543637      1728000    397.53315        24550        18834 
 4920000    1.0088989  -0.16857149      1728000    398.34147        24600        18877 
 4930000    1.0335264  -0.18003829      1728000    399.14974        24650        18919 
 4940000   0.96011875  -0.17434925      1728000    399.96101        24700        18958 
 4950000    1.0217557  -0.18172918      1728000    400.77654        24750        18996 
 4960000    1.0300682  -0.17178461      1728000    401.57872        24800        19035 
 4970000    1.0226568  -0.16903619      1728000    402.37492        24850        19073 
 4980000    1.0299597  -0.16476002      1728000    403.17871        24900        19116 
 4990000   0.95066394  -0.17546787      1728000    403.98464        24950        19156 
 5000000    1.0221777  -0.13814331      1728000    404.81276        25000        19190 
 5010000     1.087936  -0.17917506      1728000    405.62195        25050        19226 
 5020000    1.0186393  -0.16296701      1728000    406.44115        25100        19264 
 5030000   0.95738666  -0.16651207      1728000    407.24643        25150        19307 
 5040000   0.99985933  -0.16569603      1728000     408.0605        25200        19343 
 5050000    1.0065689  -0.16648289      1728000    408.88338        25250        19377 
 5060000    1.0290531  -0.16648463      1728000    409.69056        25300        19416 
 5070000    1.0414256  -0.15705137      1728000    410.50063        25350        19455 
 5080000    1.0094889  -0.15826397      1728000      411.319        25400        19490 
 5090000    0.9762247  -0.15123668      1728000    412.12732        25450        19527 
 5100000    1.0445522  -0.15326508      1728000     412.9475        25500        19565 
 5110000    1.0187769  -0.15663906      1728000     413.7633        25550        19602 
 5120000   0.97536006  -0.15684911      1728000    414.56737        25600        19640 
 5130000   0.96978608   -0.1513156      1728000    415.37646        25650        19679 
 5140000   0.93276974  -0.15379104      1728000    416.18982        25700        19719 
 5150000   0.99339057  -0.14894793      1728000    417.02215        25750        19761 
 5160000   0.95611983  -0.15847682      1728000    417.82744        25800        19801 
 5170000   0.93878524   -0.1486449      1728000    418.63934        25850        19836 
 5180000   0.95459436  -0.15563742      1728000    419.45771        25900        19869 
 5190000   0.96409164  -0.17390194      1728000     420.2654        25950        19907 
 5200000   0.99960949  -0.15032097      1728000    421.08454        26000        19948 
 5210000   0.99505841  -0.17250926      1728000    421.90055        26050        19984 
 5220000     1.041978  -0.17508776      1728000     422.7075        26100        20026 
 5230000   0.99274934  -0.18035784      1728000    423.53571        26150        20060 
 5240000    1.0324283  -0.17529515      1728000    424.34947        26200        20098 
 5250000    1.0004839  -0.16418015      1728000    425.15947        26250        20133 
 5260000    1.0100361  -0.15127633      1728000     425.9706        26300        20171 
 5270000    1.0355406  -0.16179107      1728000    426.78346        26350        20214 
 5280000    1.0090351  -0.15723883      1728000    427.59128        26400        20252 
 5290000    1.0630069  -0.15428211      1728000    428.40338        26450        20286 
 5300000   0.93389208  -0.13551936      1728000    429.22822        26500        20327 
 5310000     0.979984  -0.14897353      1728000    430.04658        26550        20367 
 5320000    1.0191867  -0.14667512      1728000    430.84741        26600        20411 
 5330000   0.98400794  -0.12432872      1728000    431.65858        26650        20450 
 5340000    1.0177235  -0.13825823      1728000    432.47347        26700        20486 
 5350000   0.97948605  -0.14044285      1728000    433.28972        26750        20525 
 5360000    1.0776827  -0.14901209      1728000    434.09669        26800        20566 
 5370000    1.0006269  -0.14833081      1728000    434.90457        26850        20608 
 5380000   0.98687345  -0.15621351      1728000    435.70953        26900        20647 
 5390000   0.99022241  -0.16066611      1728000    436.54366        26950        20686 
 5400000   0.97541989  -0.15405309      1728000    437.36331        27000        20722 
 5410000   0.98892964  -0.13788122      1728000    438.17331        27050        20759 
 5420000    1.0324547  -0.16134757      1728000    438.99556        27100        20800 
 5430000   0.99675978  -0.17253905      1728000    439.81743        27150        20844 
 5440000   0.94696908  -0.15851815      1728000    440.62941        27200        20880 
 5450000    1.0164018  -0.15058353      1728000    441.43726        27250        20921 
 5460000    1.0695638  -0.15068779      1728000    442.25449        27300        20958 
 5470000   0.99526681   -0.1588316      1728000    443.07326        27350        20999 
 5480000    1.0256637  -0.15389675      1728000    443.88539        27400        21039 
 5490000    1.0296296  -0.16477137      1728000    444.70149        27450        21072 
 5500000   0.97833044  -0.16803201      1728000    445.52746        27500        21113 
 5510000   0.95319197  -0.16823725      1728000    446.34116        27550        21155 
 5520000   0.97629743  -0.16016172      1728000    447.16174        27600        21194 
 5530000    1.0128387  -0.16822647      1728000       447.97        27650        21237 
 5540000    1.0255297  -0.16531312      1728000    448.79023        27700        21272 
 5550000   0.99272102  -0.16828892      1728000    449.59848        27750        21313 
 5560000   0.99717898  -0.14861676      1728000    450.41324        27800        21354 
 5570000   0.94882312  -0.14150203      1728000     451.2275        27850        21389 
 5580000    1.0312889  -0.15137129      1728000    452.04243        27900        21426 
 5590000   0.99011366  -0.14806885      1728000    452.85836        27950        21463 
 5600000    1.0039021  -0.13495358      1728000    453.67647        28000        21508 
 5610000    1.0157488  -0.14137855      1728000    454.48645        28050        21544 
 5620000    1.0082071  -0.14179466      1728000    455.29253        28100        21585 
 5630000    1.0238041  -0.14416231      1728000     456.1215        28150        21628 
 5640000   0.99150296  -0.13686944      1728000    456.92539        28200        21672 
 5650000    1.0409706  -0.14914111      1728000    457.73243        28250        21714 
 5660000    1.0197226  -0.14321534      1728000    458.54061        28300        21756 
 5670000    1.0472928  -0.14547021      1728000    459.35876        28350        21796 
 5680000   0.95987394  -0.14101344      1728000    460.17517        28400        21833 
 5690000   0.99049933  -0.16577899      1728000    460.99652        28450        21869 
 5700000    1.0371944  -0.15282633      1728000    461.81353        28500        21907 
 5710000    0.9944244   -0.1496242      1728000    462.62062        28550        21948 
 5720000    1.0080203  -0.13636994      1728000    463.44741        28600        21990 
 5730000   0.98624968  -0.13272873      1728000    464.25852        28650        22030 
 5740000   0.93350781  -0.13036089      1728000    465.06473        28700        22069 
 5750000    1.0012754  -0.14435571      1728000    465.89148        28750        22110 
 5760000    1.0224378  -0.13444952      1728000    466.73361        28800        22149 
 5770000    1.0207232  -0.14886914      1728000    467.53882        28850        22191 
 5780000   0.99689396  -0.13585656      1728000    468.35313        28900        22232 
 5790000   0.97300429  -0.14460994      1728000     469.1595        28950        22272 
 5800000   0.98457342  -0.14304871      1728000    469.97871        29000        22315 
 5810000    1.0362969  -0.13910456      1728000    470.83267        29050        22352 
 5820000    1.0141689  -0.12810346      1728000    471.64385        29100        22388 
 5830000    1.0149056  -0.14135667      1728000    472.45417        29150        22429 
 5840000   0.98073269  -0.12977517      1728000    473.25936        29200        22469 
 5850000    1.0086325  -0.14213754      1728000    474.06602        29250        22510 
 5860000   0.97821306  -0.14254829      1728000    474.87531        29300        22552 
 5870000   0.97670325  -0.14120704      1728000    475.68245        29350        22592 
 5880000    1.0040207  -0.15047049      1728000    476.50177        29400        22629 
 5890000    1.0088334  -0.14771395      1728000    477.34113        29450        22663 
 5900000   0.99362987   -0.1507165      1728000    478.17235        29500        22708 
 5910000    1.0131254  -0.17177564      1728000    479.00853        29550        22743 
 5920000   0.98522703  -0.15920618      1728000    479.83373        29600        22778 
 5930000    1.0893557   -0.1466149      1728000    480.64999        29650        22815 
 5940000    1.0095024  -0.15942035      1728000    481.49315        29700        22853 
 5950000    1.0350786  -0.15408076      1728000     482.3303        29750        22891 
 5960000    1.0438231  -0.15653768      1728000    483.17643        29800        22932 
 5970000    1.0485409  -0.14419825      1728000     483.9886        29850        22974 
 5980000    1.0199059   -0.1398087      1728000    484.80277        29900        23015 
 5990000    1.0414041  -0.13819336      1728000     485.6154        29950        23051 
 6000000    1.0398008  -0.15385855      1728000    486.44871        30000        23085 
 6010000    1.0630925  -0.14650294      1728000    487.26689        30050        23123 
 6020000   0.97299898  -0.14660935      1728000    488.07908        30100        23160 
 6030000   0.99473126  -0.15647004      1728000    488.89327        30150        23196 
 6040000    1.0222287  -0.16067154      1728000    489.72543        30200        23235 
 6050000    1.0078579  -0.15380738      1728000    490.54358        30250        23270 
 6060000    1.0116886  -0.15505152      1728000     491.3598        30300        23308 
 6070000   0.97105225  -0.14136017      1728000    492.16498        30350        23354 
 6080000    1.0358746  -0.13023399      1728000    492.98318        30400        23384 
 6090000    1.0355727  -0.13731293      1728000    493.80227        30450        23423 
 6100000    1.0082344  -0.13950419      1728000    494.63863        30500        23464 
 6110000    1.0101725  -0.14560916      1728000    495.44879        30550        23504 
 6120000    1.0034109  -0.14402926      1728000    496.25729        30600        23542 
 6130000    1.0085228  -0.14407414      1728000    497.06805        30650        23582 
 6140000    1.0167626  -0.13649694      1728000    497.87662        30700        23618 
 6150000   0.98873374  -0.11709404      1728000    498.68384        30750        23658 
 6160000   0.93892549   -0.1130767      1728000    499.50102        30800        23699 
 6170000   0.98995988  -0.13014845      1728000    500.30525        30850        23741 
 6180000    1.0638796  -0.13781863      1728000     501.1139        30900        23780 
 6190000    1.0111897  -0.14172421      1728000    501.92408        30950        23818 
 6200000    0.9966481  -0.14644014      1728000    502.74324        31000        23860 
 6210000    1.0499067  -0.15047177      1728000     503.5624        31050        23900 
 6220000    1.0566972  -0.16633999      1728000    504.37559        31100        23938 
 6230000   0.89872393  -0.15400699      1728000    505.19774        31150        23975 
 6240000    1.0297463  -0.13755717      1728000    506.00967        31200        24014 
 6250000    1.0327239  -0.15388647      1728000    506.81335        31250        24053 
 6260000    1.0315498  -0.16406967      1728000     507.6205        31300        24090 
 6270000   0.98257773  -0.15001795      1728000    508.44096        31350        24121 
 6280000    1.0215045  -0.15044127      1728000    509.27021        31400        24164 
 6290000    1.0547363   -0.1476201      1728000    510.08246        31450        24203 
 6300000    1.0612575  -0.15248986      1728000    510.90874        31500        24242 
 6310000   0.99124889  -0.14258867      1728000    511.72691        31550        24279 
 6320000   0.97489881  -0.14723784      1728000    512.54308        31600        24317 
 6330000    1.0780155  -0.15197799      1728000    513.35843        31650        24354 
 6340000   0.94179942  -0.16853455      1728000    514.17954        31700        24398 
 6350000   0.97882113  -0.16968152      1728000    514.99058        31750        24436 
 6360000    1.0050806   -0.1749521      1728000    515.81645        31800        24474 
 6370000   0.99077695  -0.16037664      1728000    516.63655        31850        24511 
 6380000    1.0814396  -0.15905664      1728000    517.45763        31900        24548 
 6390000    1.0035179  -0.15573585      1728000    518.27734        31950        24586 
 6400000    0.9639389  -0.14788297      1728000    519.10663        32000        24625 
 6410000    1.0047614  -0.14591792      1728000     519.9326        32050        24664 
 6420000   0.98935196  -0.15841318      1728000    520.75153        32100        24703 
 6430000    1.0480856  -0.15751956      1728000    521.56962        32150        24741 
 6440000   0.95067015  -0.15734418      1728000    522.39265        32200        24779 
 6450000    0.9764734  -0.16112546      1728000    523.20964        32250        24821 
 6460000   0.99992177  -0.17456465      1728000    524.02966        32300        24860 
 6470000    1.0095774  -0.17489699      1728000    524.85064        32350        24897 
 6480000    1.0446513   -0.1583956      1728000    525.67643        32400        24935 
 6490000    1.0187338  -0.16473618      1728000     526.5177        32450        24976 
 6500000   0.96140474  -0.15843462      1728000    527.34454        32500        25017 
 6510000    1.0191328  -0.16317602      1728000     528.1735        32550        25057 
 6520000   0.97305556  -0.15961147      1728000    528.98885        32600        25094 
 6530000    1.0378112  -0.15186801      1728000    529.80365        32650        25135 
 6540000   0.97099918    -0.150266      1728000    530.62362        32700        25174 
 6550000    1.0240858  -0.14567765      1728000    531.43647        32750        25208 
 6560000    1.0289566  -0.15843171      1728000    532.24857        32800        25245 
 6570000    1.0575457  -0.14460678      1728000    533.06752        32850        25281 
 6580000    1.0298274  -0.13296161      1728000    533.87545        32900        25322 
 6590000    1.0272317  -0.13602024      1728000    534.69356        32950        25366 
 6600000    1.0187683  -0.13917057      1728000    535.52762        33000        25405 
 6610000   0.99926935  -0.13893411      1728000    536.34782        33050        25439 
 6620000    1.0102983  -0.14302705      1728000    537.15958        33100        25476 
 6630000     1.035991  -0.14590431      1728000    537.97821        33150        25519 
 6640000    1.0196843  -0.14804256      1728000    538.80043        33200        25563 
 6650000    1.0461284  -0.14053114      1728000    539.61981        33250        25602 
 6660000   0.98293643  -0.15392893      1728000    540.44296        33300        25644 
 6670000    1.0139892  -0.14732287      1728000    541.27408        33350        25677 
 6680000   0.93631861   -0.1432145      1728000    542.09964        33400        25715 
 6690000   0.99610462  -0.15203162      1728000    542.92637        33450        25755 
 6700000   0.96025549  -0.15232689      1728000    543.75765        33500        25792 
 6710000     1.001847  -0.14578385      1728000    544.59647        33550        25830 
 6720000   0.97539014  -0.13697702      1728000    545.40762        33600        25869 
 6730000    1.0559596  -0.13465631      1728000    546.21456        33650        25909 
 6740000    1.0407572  -0.13490182      1728000    547.03271        33700        25955 
 6750000    1.0246745  -0.15564611      1728000    547.85563        33750        25989 
 6760000   0.99326443  -0.12667471      1728000    548.67368        33800        26031 
 6770000    1.0167118  -0.14676257      1728000    549.49638        33850        26068 
 6780000    1.0073168  -0.14492784      1728000    550.31264        33900        26108 
 6790000    1.0046061  -0.15292041      1728000    551.13131        33950        26149 
 6800000   0.97017208  -0.14800595      1728000    551.95736        34000        26188 
 6810000    1.0858074  -0.15098993      1728000    552.77533        34050        26221 
 6820000    1.0075024  -0.15068236      1728000    553.59265        34100        26266 
 6830000    1.0145605  -0.14956438      1728000    554.42042        34150        26300 
 6840000    1.0264633  -0.17621969      1728000    555.24065        34200        26336 
 6850000   0.93037985  -0.15896983      1728000    556.07314        34250        26372 
 6860000   0.97555313  -0.14734208      1728000    556.88531        34300        26407 
 6870000   0.91555952   -0.1405936      1728000    557.70446        34350        26449 
 6880000   0.96185087  -0.13054833      1728000    558.51142        34400        26487 
 6890000   0.99076919  -0.16776743      1728000    559.31593        34450        26529 
 6900000   0.98916856  -0.15867957      1728000    560.14158        34500        26569 
 6910000    1.0266798  -0.15744604      1728000    560.94359        34550        26604 
 6920000   0.99656377  -0.16252455      1728000    561.75168        34600        26643 
 6930000    1.0077331  -0.15579006      1728000    562.56357        34650        26677 
 6940000   0.98723313  -0.15798004      1728000     563.3726        34700        26720 
 6950000    1.0432114  -0.15453409      1728000    564.17542        34750        26760 
 6960000   0.98401066  -0.16372474      1728000    565.00383        34800        26795 
 6970000   0.99542291  -0.15814348      1728000    565.82569        34850        26829 
 6980000   0.95023169  -0.16509903      1728000    566.63772        34900        26867 
 6990000    1.0541302   -0.1570324      1728000    567.45143        34950        26900 
 7000000    1.0809278  -0.15402811      1728000    568.28462        35000        26934 
 7010000    1.0021939  -0.14709708      1728000    569.09466        35050        26972 
 7020000   0.99853704  -0.16477997      1728000    569.90667        35100        27011 
 7030000    1.0464888  -0.15550577      1728000    570.70856        35150        27050 
 7040000   0.97314718  -0.16887531      1728000    571.52038        35200        27082 
 7050000    1.0586499  -0.16547137      1728000    572.33665        35250        27121 
 7060000    1.0671932  -0.15838217      1728000    573.14564        35300        27161 
 7070000   0.96427521  -0.13924677      1728000     573.9636        35350        27199 
 7080000    1.0152413  -0.14962886      1728000     574.7697        35400        27234 
 7090000    1.0053088  -0.15446406      1728000    575.59067        35450        27273 
 7100000    1.0547176  -0.16777793      1728000    576.41355        35500        27316 
 7110000    1.0174852  -0.16044402      1728000    577.23162        35550        27355 
 7120000    1.0621846  -0.16108618      1728000    578.05664        35600        27392 
 7130000    1.0442696  -0.16107314      1728000    578.87169        35650        27429 
 7140000    1.0399562   -0.1544556      1728000    579.68863        35700        27465 
 7150000   0.96182041  -0.16429224      1728000    580.50866        35750        27499 
 7160000   0.98741524  -0.16302537      1728000    581.33042        35800        27537 
 7170000   0.98195154  -0.15211328      1728000    582.14971        35850        27573 
 7180000   0.96850034  -0.14018072      1728000    582.96254        35900        27611 
 7190000   0.98077747  -0.14283352      1728000    583.78059        35950        27651 
 7200000    1.0075128  -0.14152823      1728000    584.59559        36000        27692 
 7210000   0.99555657  -0.14364163      1728000    585.40055        36050        27727 
 7220000    1.0142876  -0.13738982      1728000     586.2078        36100        27767 
 7230000    1.0012763  -0.15227394      1728000    587.01658        36150        27804 
 7240000   0.93522256  -0.14945302      1728000    587.83145        36200        27845 
 7250000    1.0703285  -0.13329812      1728000    588.64155        36250        27885 
 7260000   0.98839854  -0.13842462      1728000    589.46864        36300        27919 
 7270000   0.93632098  -0.13846589      1728000    590.27574        36350        27960 
 7280000    1.0192835  -0.13546703      1728000    591.08757        36400        27996 
 7290000    1.0083949   -0.1427042      1728000    591.89766        36450        28038 
 7300000    1.0436378   -0.1518083      1728000    592.72146        36500        28078 
 7310000    1.0109047  -0.14553968      1728000    593.54165        36550        28112 
 7320000     0.914052  -0.16854082      1728000    594.35365        36600        28150 
 7330000   0.98060414  -0.16868134      1728000    595.16457        36650        28188 
 7340000    1.0199142  -0.16639976      1728000    595.97278        36700        28229 
 7350000   0.98467179  -0.15699982      1728000    596.78138        36750        28262 
 7360000   0.99484944  -0.16487946      1728000    597.59679        36800        28302 
 7370000    1.0213058  -0.16404015      1728000    598.41274        36850        28335 
 7380000    1.0341536  -0.16417608      1728000    599.21674        36900        28373 
 7390000    1.0114824  -0.16319579      1728000    600.02879        36950        28410 
 7400000   0.97121524  -0.16442693      1728000    600.84377        37000        28446 
 7410000    1.0227464  -0.16629107      1728000    601.65262        37050        28488 
 7420000    0.9656878  -0.18130326      1728000    602.46272        37100        28528 
 7430000    1.0550948  -0.17751721      1728000     603.2847        37150        28562 
 7440000    1.0599753  -0.17613007      1728000    604.11174        37200        28598 
 7450000   0.98229657  -0.16262154      1728000    604.93653        37250        28638 
 7460000    1.0001365  -0.17076813      1728000    605.74869        37300        28679 
 7470000   0.93039023  -0.16179424      1728000    606.56161        37350        28720 
 7480000   0.98606463   -0.1607007      1728000    607.36475        37400        28761 
 7490000    1.0574446  -0.16548147      1728000    608.17072        37450        28806 
 7500000   0.99772086   -0.1535932      1728000     609.0008        37500        28842 
 7510000    1.0307836  -0.16312913      1728000    609.81282        37550        28879 
 7520000   0.96967685  -0.16759748      1728000    610.61672        37600        28922 
 7530000     1.004175  -0.17618836      1728000    611.42977        37650        28957 
 7540000   0.99592311  -0.16969659      1728000    612.24074        37700        28995 
 7550000    1.0409687  -0.16975291      1728000    613.05154        37750        29027 
 7560000   0.90890655   -0.1618942      1728000    613.87557        37800        29062 
 7570000   0.94872548  -0.15804745      1728000    614.68265        37850        29106 
 7580000   0.98429987  -0.15448897      1728000    615.48873        37900        29145 
 7590000   0.96054652  -0.16168692      1728000    616.29864        37950        29185 
 7600000   0.98267547  -0.16650234      1728000    617.11569        38000        29226 
 7610000   0.97613009  -0.15971258      1728000     617.9117        38050        29265 
 7620000   0.96553115  -0.15242769      1728000    618.71979        38100        29297 
 7630000   0.98379454  -0.16110984      1728000     619.5257        38150        29337 
 7640000   0.98644619  -0.15434741      1728000    620.33564        38200        29377 
 7650000    1.0036392  -0.14598979      1728000    621.14576        38250        29412 
 7660000   0.93279349  -0.14549253      1728000    621.94857        38300        29452 
 7670000    1.0084801  -0.16000243      1728000    622.75869        38350        29486 
 7680000   0.97787544  -0.16179608      1728000    623.57275        38400        29524 
 7690000      1.08206  -0.16643563      1728000    624.37566        38450        29562 
 7700000   0.97733345  -0.15236206      1728000    625.21376        38500        29600 
 7710000   0.99647845  -0.14868526      1728000    626.02453        38550        29644 
 7720000    1.0400296  -0.14884977      1728000     626.8347        38600        29687 
 7730000    1.0342496  -0.14373063      1728000    627.63674        38650        29728 
 7740000   0.99758156  -0.14808492      1728000     628.4427        38700        29761 
 7750000   0.97742574  -0.16000459      1728000    629.26542        38750        29800 
 7760000   0.99940247  -0.14030759      1728000     630.0667        38800        29840 
 7770000    1.0032189  -0.15387777      1728000     630.8688        38850        29882 
 7780000   0.98358546  -0.16572432      1728000    631.71438        38900        29918 
 7790000    1.0509282  -0.16414075      1728000    632.57372        38950        29952 
 7800000    0.9786986  -0.16126923      1728000    633.41676        39000        29990 
 7810000    1.0056002  -0.16936324      1728000    634.23373        39050        30029 
 7820000    1.0194582  -0.18146926      1728000    635.04878        39100        30063 
 7830000   0.93377659  -0.16657563      1728000    635.85858        39150        30095 
 7840000   0.96522124   -0.1728392      1728000    636.66875        39200        30135 
 7850000    1.0563139  -0.15613957      1728000    637.48569        39250        30174 
 7860000     1.013366  -0.15098814      1728000    638.30052        39300        30215 
 7870000   0.97323823  -0.15815902      1728000    639.11685        39350        30254 
 7880000    0.9771813   -0.1567238      1728000    639.92872        39400        30294 
 7890000    1.0147257   -0.1445604      1728000    640.75577        39450        30326 
 7900000   0.96320092  -0.15487155      1728000    641.58961        39500        30367 
 7910000    1.0833322     -0.15339      1728000    642.41356        39550        30406 
 7920000   0.99167552  -0.16692669      1728000     643.2328        39600        30443 
 7930000     1.026101   -0.1536207      1728000    644.05483        39650        30482 
 7940000   0.99965617  -0.14049355      1728000    644.87781        39700        30521 
 7950000     1.022555  -0.14569968      1728000    645.72767        39750        30558 
 7960000    1.0145532  -0.16059919      1728000    646.54073        39800        30600 
 7970000    1.0222881  -0.14168388      1728000    647.35077        39850        30641 
 7980000    1.0273887  -0.15154691      1728000    648.15573        39900        30684 
 7990000    1.0308488   -0.1489648      1728000    648.97668        39950        30719 
 8000000    1.1081155  -0.16279342      1728000    649.81872        40000        30760 
 8010000   0.97131453  -0.16917288      1728000    650.64071        40050        30794 
 8020000    1.0066097  -0.17569121      1728000    651.47058        40100        30833 
 8030000    1.0378593  -0.18927208      1728000    652.28759        40150        30872 
 8040000   0.99639254  -0.17307981      1728000    653.10067        40200        30909 
 8050000    0.9441743  -0.15581992      1728000    653.93651        40250        30950 
 8060000    1.0679471  -0.15333949      1728000    654.74871        40300        30991 
 8070000   0.96737332  -0.16250146      1728000    655.56762        40350        31021 
 8080000   0.95827348  -0.15232475      1728000    656.39272        40400        31056 
 8090000    1.0081306  -0.14614973      1728000    657.21751        40450        31095 
 8100000     1.037975  -0.13172648      1728000    658.04564        40500        31133 
 8110000   0.97396685  -0.13600287      1728000     658.8628        40550        31170 
 8120000   0.95065971  -0.14618239      1728000    659.67768        40600        31206 
 8130000   0.97566415   -0.1475408      1728000    660.49372        40650        31245 
 8140000   0.97839524  -0.13555897      1728000    661.33878        40700        31288 
 8150000   0.98504656  -0.13226493      1728000    662.15766        40750        31325 
 8160000   0.98885064  -0.14816677      1728000    662.97074        40800        31362 
 8170000   0.98719303  -0.14304697      1728000    663.77976        40850        31400 
 8180000   0.98049663   -0.1460266      1728000    664.59559        40900        31432 
 8190000    1.0031815  -0.15547788      1728000    665.41776        40950        31465 
 8200000   0.96893735  -0.14372699      1728000    666.23782        41000        31506 
 8210000    1.0376915  -0.15702825      1728000    667.04953        41050        31546 
 8220000    1.0106807  -0.16003884      1728000    667.86275        41100        31582 
 8230000   0.99997413  -0.15003077      1728000     668.6788        41150        31617 
 8240000    1.0585343  -0.15622705      1728000    669.50161        41200        31657 
 8250000   0.98858102  -0.16167418      1728000    670.31675        41250        31692 
 8260000   0.98121113  -0.14523908      1728000    671.14474        41300        31725 
 8270000   0.99674542  -0.15239724      1728000    671.97754        41350        31760 
 8280000    1.0158673  -0.15702172      1728000    672.79083        41400        31798 
 8290000    1.0393794  -0.14908741      1728000    673.59768        41450        31840 
 8300000     1.056299  -0.15104153      1728000    674.43682        41500        31876 
 8310000   0.93443255  -0.16085632      1728000    675.25775        41550        31906 
 8320000   0.99539086  -0.13476565      1728000    676.06982        41600        31943 
 8330000   0.97707184  -0.13369097      1728000    676.87351        41650        31982 
 8340000    1.0198874  -0.15539684      1728000    677.68182        41700        32018 
 8350000   0.99960505   -0.1475503      1728000    678.50279        41750        32054 
 8360000   0.95776817  -0.16041961      1728000    679.31877        41800        32096 
 8370000    1.0497402  -0.14206271      1728000    680.14066        41850        32129 
 8380000    1.0150061  -0.16236857      1728000    680.94171        41900        32172 
 8390000   0.97348609  -0.16965247      1728000    681.74582        41950        32214 
 8400000   0.95199588  -0.16612223      1728000    682.56769        42000        32256 
 8410000   0.99829922  -0.16830536      1728000    683.38851        42050        32297 
 8420000   0.93334091  -0.16107091      1728000    684.20579        42100        32327 
 8430000    1.0176911  -0.16136867      1728000     685.0236        42150        32369 
 8440000    1.0186576  -0.16022749      1728000    685.83963        42200        32407 
 8450000    1.0341661  -0.15795715      1728000    686.65749        42250        32448 
 8460000   0.98713469  -0.17122941      1728000    687.48582        42300        32488 
 8470000   0.99690522  -0.14143232      1728000    688.31578        42350        32521 
 8480000   0.99722563  -0.15412021      1728000    689.12768        42400        32559 
 8490000    1.0663773  -0.14314851      1728000    689.95078        42450        32600 
 8500000    1.0335338   -0.1274169      1728000    690.75875        42500        32639 
 8510000     1.000514  -0.13784005      1728000    691.55973        42550        32679 
 8520000    1.0079388  -0.14253264      1728000     692.3639        42600        32717 
 8530000   0.96532163  -0.14281216      1728000    693.17478        42650        32757 
 8540000    1.0742332  -0.14176474      1728000    693.98471        42700        32793 
 8550000     1.009885  -0.15680403      1728000    694.81181        42750        32831 
 8560000   0.99155554  -0.15158125      1728000    695.62581        42800        32869 
 8570000   0.95420214  -0.16246941      1728000    696.43772        42850        32904 
 8580000    1.0554006   -0.1756525      1728000    697.25399        42900        32941 
 8590000    1.0141225  -0.14825553      1728000    698.07985        42950        32975 
 8600000    1.0130101  -0.15516223      1728000    698.89978        43000        33016 
 8610000    1.0170561  -0.15984692      1728000    699.71483        43050        33051 
 8620000    1.0330126  -0.16156736      1728000    700.52464        43100        33089 
 8630000   0.93382596   -0.1534601      1728000    701.33556        43150        33128 
 8640000   0.98964806  -0.14777982      1728000    702.14482        43200        33168 
 8650000    1.0092188  -0.16641663      1728000    702.95076        43250        33208 
 8660000   0.99784847  -0.14409437      1728000    703.77276        43300        33248 
 8670000   0.96654926  -0.13928629      1728000    704.58497        43350        33288 
 8680000    1.0210612  -0.13470167      1728000    705.39381        43400        33325 
 8690000   0.98694641  -0.13717521      1728000     706.2027        43450        33362 
 8700000    1.0501723  -0.14952472      1728000    707.01996        43500        33399 
 8710000   0.98638483    -0.153691      1728000    707.83278        43550        33439 
 8720000    1.0549556   -0.1384109      1728000     708.6438        43600        33477 
 8730000    1.0283669  -0.13807741      1728000    709.45901        43650        33515 
 8740000    1.0242668  -0.14994231      1728000    710.26094        43700        33555 
 8750000   0.99387338  -0.14800208      1728000    711.08888        43750        33590 
 8760000    0.9767397  -0.14669302      1728000    711.91799        43800        33628 
 8770000    1.0236193  -0.15366388      1728000    712.71995        43850        33664 
 8780000    1.0342737  -0.17041994      1728000    713.53799        43900        33701 
 8790000    1.0634547  -0.15586928      1728000    714.37379        43950        33742 
 8800000    1.0165237  -0.16063522      1728000    715.19683        44000        33781 
 8810000   0.98550002  -0.15930113      1728000    716.01067        44050        33816 
 8820000   0.97208486  -0.17392368      1728000    716.82687        44100        33848 
 8830000    1.0143836   -0.1607344      1728000    717.63867        44150        33889 
 8840000    0.9556476  -0.15268311      1728000    718.45179        44200        33930 
 8850000    1.0164727  -0.16201664      1728000    719.26864        44250        33972 
 8860000    1.0352254  -0.15306263      1728000    720.07773        44300        34014 
 8870000    1.0362622  -0.14692506      1728000    720.89076        44350        34055 
 8880000    1.0345812  -0.17469252      1728000    721.71484        44400        34098 
 8890000   0.99398917  -0.17914832      1728000    722.53985        44450        34135 
 8900000   0.95932684  -0.18263883      1728000    723.38166        44500        34172 
 8910000   0.94096144  -0.16468824      1728000    724.19187        44550        34209 
 8920000    1.0076837  -0.17024059      1728000    725.01876        44600        34245 
 8930000    1.0195012  -0.17148109      1728000     725.8317        44650        34282 
 8940000    1.0003875  -0.17713924      1728000     726.6412        44700        34320 
 8950000   0.93892877  -0.19474241      1728000    727.45042        44750        34359 
 8960000   0.98105518  -0.18576476      1728000    728.26482        44800        34395 
 8970000    1.0327457  -0.18827216      1728000    729.07293        44850        34426 
 8980000   0.99649638  -0.17181045      1728000    729.88711        44900        34464 
 8990000   0.95540016   -0.1675338      1728000    730.69027        44950        34508 
 9000000    1.0213651  -0.16467045      1728000    731.51342        45000        34548 
 9010000   0.92508439  -0.15892629      1728000    732.34058        45050        34586 
 9020000   0.95460734  -0.16326263      1728000     733.1623        45100        34621 
 9030000     1.015145  -0.16240795      1728000    733.97867        45150        34660 
 9040000    1.0052126  -0.17534738      1728000    734.79871        45200        34700 
 9050000   0.97140862  -0.16243332      1728000    735.61988        45250        34737 
 9060000   0.94480569   -0.1637973      1728000    736.42967        45300        34775 
 9070000   0.96928108  -0.15355101      1728000    737.25952        45350        34816 
 9080000    1.0205233  -0.15180653      1728000    738.07576        45400        34853 
 9090000    1.0023747   -0.1437254      1728000    738.87998        45450        34891 
 9100000    1.0011272  -0.15382372      1728000    739.69823        45500        34933 
 9110000     1.029615  -0.15353696      1728000    740.51839        45550        34969 
 9120000    1.0341896  -0.15683194      1728000    741.33969        45600        35006 
 9130000   0.99138051  -0.13777901      1728000    742.14691        45650        35043 
 9140000    1.0045651  -0.15543121      1728000    742.96604        45700        35079 
 9150000   0.99632984  -0.15176029      1728000    743.78532        45750        35121 
 9160000   0.92922246  -0.14863638      1728000    744.59863        45800        35160 
 9170000   0.95671945  -0.15537335      1728000    745.40839        45850        35197 
 9180000   0.97159408  -0.15316262      1728000    746.21493        45900        35235 
 9190000   0.99441758  -0.15921197      1728000    747.02061        45950        35273 
 9200000    1.0028245  -0.15305648      1728000    747.83478        46000        35314 
 9210000    1.0007067  -0.16601641      1728000    748.64197        46050        35350 
 9220000    1.0118101  -0.15591794      1728000    749.44122        46100        35388 
 9230000   0.98917712  -0.15736871      1728000    750.24435        46150        35428 
 9240000   0.97170849  -0.16267782      1728000     751.0606        46200        35462 
 9250000     1.057631  -0.17247173      1728000    751.87089        46250        35496 
 9260000   0.99017677  -0.16866058      1728000    752.69313        46300        35534 
 9270000    1.0177248  -0.16649428      1728000    753.50716        46350        35565 
 9280000   0.94404677  -0.15816178      1728000    754.32974        46400        35604 
 9290000   0.95887731  -0.16762317      1728000    755.14884        46450        35642 
 9300000    1.0242331  -0.15511574      1728000    755.98489        46500        35677 
 9310000   0.97776471  -0.15621329      1728000    756.80288        46550        35713 
 9320000   0.97841543  -0.16636496      1728000     757.6267        46600        35753 
 9330000   0.97009378  -0.14760216      1728000    758.44573        46650        35795 
 9340000    1.0106782   -0.1663663      1728000    759.27076        46700        35835 
 9350000    1.0470376  -0.16953965      1728000    760.07785        46750        35869 
 9360000    1.0354958  -0.16066851      1728000    760.89992        46800        35906 
 9370000    1.0560539  -0.17213821      1728000     761.7121        46850        35948 
 9380000   0.99540751  -0.15675207      1728000    762.54218        46900        35990 
 9390000   0.91877091  -0.17244341      1728000     763.3659        46950        36031 
 9400000   0.99126951  -0.17944194      1728000    764.20849        47000        36063 
 9410000   0.94677073    -0.146215      1728000    765.03469        47050        36097 
 9420000   0.97162072   -0.1615179      1728000    765.85028        47100        36137 
 9430000    0.9845621  -0.14093246      1728000    766.65446        47150        36172 
 9440000     1.000002  -0.14755661      1728000    767.46451        47200        36212 
 9450000   0.99214009  -0.15860547      1728000    768.27387        47250        36253 
 9460000    1.0121257  -0.15491975      1728000    769.08187        47300        36292 
 9470000    0.9614562  -0.14818148      1728000    769.89683        47350        36333 
 9480000   0.97066992  -0.15696054      1728000    770.70986        47400        36374 
 9490000   0.97545277  -0.13119031      1728000     771.5256        47450        36413 
 9500000    1.0023582  -0.14308702      1728000    772.34275        47500        36453 
 9510000   0.93794213  -0.13592795      1728000    773.15287        47550        36496 
 9520000    1.0133937  -0.15338414      1728000    773.96671        47600        36536 
 9530000   0.99417135  -0.13181942      1728000    774.77975        47650        36573 
 9540000   0.98350517  -0.14245557      1728000    775.59677        47700        36615 
 9550000    1.0031779  -0.13068092      1728000    776.41187        47750        36661 
 9560000    1.0411804  -0.13726217      1728000    777.21758        47800        36703 
 9570000    1.0294765  -0.14861358      1728000    778.03673        47850        36738 
 9580000   0.96495439   -0.1441359      1728000    778.86286        47900        36776 
 9590000   0.99014413  -0.13591298      1728000    779.66493        47950        36816 
 9600000    1.0179624  -0.13743053      1728000    780.49686        48000        36854 
 9610000   0.99071399  -0.13698806      1728000    781.30279        48050        36897 
 9620000    1.0282486  -0.13537752      1728000    782.11475        48100        36929 
 9630000   0.99456588  -0.14355346      1728000    782.91985        48150        36970 
 9640000   0.95918565  -0.14203532      1728000    783.72704        48200        37007 
 9650000    1.0273061  -0.13295597      1728000    784.53323        48250        37047 
 9660000    1.0254613  -0.14996893      1728000    785.33533        48300        37088 
 9670000    1.0349095  -0.14668228      1728000    786.14879        48350        37126 
 9680000   0.98122466  -0.15666346      1728000    786.95476        48400        37164 
 9690000    1.0598648  -0.16444938      1728000    787.76879        48450        37205 
 9700000   0.98015288  -0.16542934      1728000    788.58188        48500        37248 
 9710000   0.98859561  -0.17658076      1728000    789.38879        48550        37287 
 9720000    1.0485777  -0.17578256      1728000    790.20089        48600        37323 
 9730000    1.0472815  -0.17010227      1728000    791.01895        48650        37360 
 9740000    1.0150907   -0.1802719      1728000    791.83479        48700        37397 
 9750000   0.95025108  -0.17578173      1728000    792.64889        48750        37431 
 9760000    0.9546687  -0.16342937      1728000    793.45887        48800        37471 
 9770000    1.0442616  -0.16983144      1728000     794.2686        48850        37503 
 9780000     1.025408   -0.1830574      1728000    795.07781        48900        37545 
 9790000    1.0678145  -0.17558711      1728000    795.88705        48950        37585 
 9800000   0.92735958  -0.17758874      1728000    796.69927        49000        37626 
 9810000   0.97394319  -0.16660261      1728000     797.5045        49050        37662 
 9820000   0.94172304  -0.16431217      1728000    798.30682        49100        37699 
 9830000   0.96647664  -0.16405729      1728000    799.10586        49150        37737 
 9840000    1.0639035  -0.17313467      1728000    799.91389        49200        37775 
 9850000   0.95372911  -0.14136152      1728000    800.72598        49250        37815 
 9860000   0.97354311  -0.15257093      1728000    801.53761        49300        37853 
 9870000    1.0125683  -0.15917301      1728000    802.34847        49350        37891 
 9880000    1.0265811  -0.15329793      1728000    803.15787        49400        37932 
 9890000    1.0143751  -0.15221144      1728000     803.9739        49450        37973 
 9900000   0.97865637  -0.14714875      1728000    804.80594        49500        38012 
 9910000   0.96982358   -0.1622407      1728000    805.61182        49550        38052 
 9920000    1.0390174  -0.16925826      1728000    806.42993        49600        38093 
 9930000    1.0081796  -0.15783517      1728000    807.23497        49650        38133 
 9940000   0.95980657  -0.16441403      1728000    808.04376        49700        38171 
 9950000   0.96354697  -0.17250248      1728000    808.86909        49750        38208 
 9960000    1.0513013   -0.1691982      1728000    809.67686        49800        38242 
 9970000    1.0368917  -0.16636509      1728000    810.48393        49850        38282 
 9980000   0.98223879  -0.16728125      1728000    811.30693        49900        38312 
 9990000    1.0098745  -0.16434242      1728000    812.12288        49950        38346 
10000000   0.97942864  -0.16953655      1728000    812.95364        50000        38388 
10010000   0.99363666   -0.1636569      1728000    813.78091        50050        38424 
10020000   0.97016609  -0.15829222      1728000    814.59375        50100        38465 
10030000    1.0451723   -0.1559039      1728000    815.40972        50150        38501 
10040000    1.0082336   -0.1664819      1728000     816.2388        50200        38541 
10050000    1.0462074  -0.15685207      1728000    817.07072        50250        38573 
10060000    1.0638145  -0.14967718      1728000     817.8819        50300        38609 
10070000    1.0816127  -0.16174003      1728000    818.69292        50350        38645 
10080000   0.98731016  -0.16441005      1728000    819.53276        50400        38678 
10090000    1.0291906  -0.15946322      1728000    820.33795        50450        38715 
10100000   0.99715431  -0.15130918      1728000    821.15186        50500        38754 
10110000   0.91870791  -0.14172574      1728000    821.96082        50550        38791 
10120000   0.98149698  -0.15966882      1728000    822.77495        50600        38831 
10130000    0.9653474  -0.17563056      1728000    823.59564        50650        38863 
10140000    1.0528053  -0.17520658      1728000    824.41986        50700        38895 
10150000    1.0385724  -0.17714163      1728000    825.25693        50750        38926 
10160000    0.9792153  -0.16623902      1728000    826.06273        50800        38966 
10170000   0.97205992  -0.18525376      1728000    826.87496        50850        39003 
10180000     1.002532  -0.18637248      1728000    827.68145        50900        39040 
10190000   0.98681296  -0.17757345      1728000    828.50183        50950        39071 
10200000   0.98122635  -0.17548694      1728000    829.35291        51000        39108 
10210000   0.99508692  -0.16489323      1728000    830.18849        51050        39145 
10220000   0.99756476  -0.15870524      1728000    831.00092        51100        39181 
10230000    1.0007374  -0.16233599      1728000    831.82697        51150        39223 
10240000    1.0092569  -0.16019707      1728000    832.62973        51200        39264 
10250000   0.94766333   -0.1612851      1728000    833.43487        51250        39305 
10260000    1.0423779   -0.1637279      1728000    834.23897        51300        39339 
10270000   0.89064587  -0.16490065      1728000    835.07286        51350        39368 
10280000   0.99334118  -0.15237381      1728000    835.87293        51400        39409 
10290000   0.96893455  -0.15395581      1728000    836.68794        51450        39444 
10300000   0.95633309  -0.15776943      1728000    837.50994        51500        39480 
10310000    1.0086647  -0.15398194      1728000    838.31997        51550        39521 
10320000    1.0329915  -0.16491079      1728000    839.12244        51600        39557 
10330000     1.020356  -0.14851402      1728000    839.93035        51650        39598 
10340000   0.97316034  -0.16477321      1728000    840.74095        51700        39632 
10350000    1.0350099   -0.1696787      1728000    841.59195        51750        39669 
10360000   0.96374856  -0.17356224      1728000    842.40381        51800        39704 
10370000    1.0193805  -0.17587664      1728000    843.21588        51850        39744 
10380000    1.0026024  -0.17914379      1728000    844.02468        51900        39776 
10390000    1.0014984  -0.16450684      1728000    844.84842        51950        39813 
10400000    1.0231282  -0.16623911      1728000    845.66453        52000        39847 
10410000    1.0141926  -0.15863896      1728000    846.47198        52050        39884 
10420000    1.0712842  -0.16439137      1728000    847.28076        52100        39916 
10430000   0.90250642  -0.15995709      1728000    848.09192        52150        39951 
10440000     1.000764  -0.16857569      1728000     848.9209        52200        39985 
10450000    1.0252866  -0.16343795      1728000     849.7277        52250        40024 
10460000   0.98063778  -0.15561473      1728000    850.54699        52300        40067 
10470000    1.0446364  -0.15722392      1728000    851.35686        52350        40104 
10480000   0.99954986  -0.17425786      1728000    852.18172        52400        40145 
10490000   0.98842806  -0.16426074      1728000    852.99781        52450        40182 
10500000    1.0292027  -0.17411702      1728000    853.82385        52500        40220 
10510000   0.93422697  -0.17542464      1728000      854.631        52550        40258 
10520000   0.95221944  -0.16470581      1728000    855.44378        52600        40292 
10530000    1.0245994  -0.16772487      1728000    856.26176        52650        40333 
10540000   0.92328722  -0.16642231      1728000     857.1049        52700        40376 
10550000    1.0280206  -0.15034435      1728000    857.92598        52750        40415 
10560000    1.0098629  -0.14766979      1728000    858.73895        52800        40455 
10570000    1.0312208  -0.14681315      1728000    859.54976        52850        40497 
10580000   0.97625037  -0.14502262      1728000    860.38088        52900        40536 
10590000     1.028001  -0.15684915      1728000     861.2079        52950        40577 
10600000    1.0108922  -0.16171996      1728000    862.06016        53000        40609 
10610000    1.0090741  -0.14800421      1728000    862.88133        53050        40648 
10620000    1.0063361  -0.15132644      1728000    863.71345        53100        40683 
10630000   0.97415645  -0.16203158      1728000    864.52496        53150        40721 
10640000   0.96926386  -0.15264861      1728000    865.33272        53200        40757 
10650000    1.0148306  -0.15372467      1728000    866.14378        53250        40795 
10660000    1.0304356  -0.15227679      1728000    866.98299        53300        40834 
10670000   0.99074364  -0.14378625      1728000    867.81389        53350        40875 
10680000    1.0402625  -0.15576583      1728000     868.6259        53400        40917 
10690000   0.99996181  -0.15348954      1728000    869.42901        53450        40958 
10700000    1.0088884  -0.16410007      1728000    870.27496        53500        40996 
10710000   0.96303102  -0.16307669      1728000    871.07981        53550        41034 
10720000     1.055984  -0.18206013      1728000      871.916        53600        41069 
10730000    1.0943485  -0.15296523      1728000     872.7429        53650        41102 
10740000   0.88962652  -0.15795686      1728000      873.567        53700        41141 
10750000   0.98931896  -0.15923165      1728000    874.37492        53750        41180 
10760000   0.96875613  -0.16655702      1728000    875.17901        53800        41226 
10770000    1.0407924  -0.17510059      1728000    876.00472        53850        41265 
10780000   0.99776384  -0.16008151      1728000     876.8077        53900        41308 
10790000    1.0484996  -0.16205078      1728000     877.6138        53950        41351 
10800000   0.98056102   -0.1671079      1728000    878.43372        54000        41390 
10810000   0.98563527  -0.17226263      1728000    879.24096        54050        41427 
10820000   0.97765385  -0.15884174      1728000    880.04579        54100        41466 
10830000    1.0572786  -0.16958701      1728000    880.85744        54150        41500 
10840000    1.0445212  -0.15830644      1728000     881.6696        54200        41535 
10850000   0.89426609   -0.1659003      1728000    882.48293        54250        41569 
10860000    1.0256287  -0.15599506      1728000     883.2859        54300        41612 
10870000    1.0270232  -0.15926342      1728000    884.09112        54350        41647 
10880000    1.0190756  -0.14253521      1728000      884.924        54400        41680 
10890000    1.0145012  -0.15311886      1728000    885.73405        54450        41714 
10900000    1.0059423  -0.15435558      1728000    886.55087        54500        41746 
10910000    1.0383664  -0.17042212      1728000    887.35906        54550        41788 
10920000    1.0049107  -0.15722983      1728000    888.17269        54600        41830 
10930000      1.00686  -0.16884867      1728000     888.9869        54650        41869 
10940000    1.0220196  -0.16459783      1728000    889.80604        54700        41901 
10950000    1.0356607  -0.16973411      1728000    890.62088        54750        41939 
10960000    1.0384246  -0.14736458      1728000    891.45265        54800        41981 
10970000    1.0214974  -0.15627981      1728000    892.26496        54850        42022 
10980000    0.9798606  -0.14788011      1728000    893.08376        54900        42057 
10990000    1.0151538  -0.14321183      1728000      893.895        54950        42097 
11000000   0.99472194  -0.15291867      1728000    894.71777        55000        42133 
11010000    1.0305078  -0.15473141      1728000    895.53295        55050        42170 
11020000   0.95650672   -0.1461816      1728000    896.34011        55100        42211 
11030000    1.0173704   -0.1507833      1728000    897.15189        55150        42251 
11040000    1.0042542  -0.14619886      1728000    897.97122        55200        42288 
11050000    1.0108056  -0.14048007      1728000     898.7745        55250        42323 
11060000    0.9758852  -0.13895025      1728000    899.57869        55300        42364 
11070000    1.0358528   -0.1362525      1728000    900.39386        55350        42395 
11080000   0.98616754    -0.149335      1728000     901.2051        55400        42433 
11090000    1.0243798  -0.13824201      1728000    902.03132        55450        42469 
11100000    1.0301771  -0.14028561      1728000    902.84846        55500        42506 
11110000    1.0408235  -0.15156989      1728000    903.65289        55550        42544 
11120000    1.0669928  -0.14509356      1728000    904.45409        55600        42583 
11130000    1.0405374  -0.14474612      1728000    905.25733        55650        42617 
11140000   0.96304353  -0.13319176      1728000    906.05982        55700        42659 
11150000    1.0330693  -0.14003737      1728000    906.87005        55750        42705 
11160000     1.018079  -0.14043197      1728000    907.69134        55800        42744 
11170000    1.0305035  -0.13328329      1728000    908.49755        55850        42784 
11180000   0.99652167  -0.15005897      1728000    909.30199        55900        42824 
11190000    1.0353087  -0.15872736      1728000    910.10809        55950        42862 
11200000    1.0195787  -0.14660729      1728000    910.93035        56000        42902 
11210000    1.0270359   -0.1307232      1728000    911.75389        56050        42943 
11220000    1.0135649  -0.13041478      1728000    912.55393        56100        42977 
11230000    1.0415418  -0.13822749      1728000    913.36089        56150        43021 
11240000   0.99884931   -0.1260895      1728000    914.17095        56200        43062 
11250000   0.99148236    -0.137749      1728000    914.97895        56250        43097 
11260000    1.0071287  -0.14025843      1728000    915.78707        56300        43134 
11270000    1.0497626  -0.12451458      1728000    916.59192        56350        43172 
11280000   0.99474066  -0.10681174      1728000    917.39511        56400        43212 
11290000    1.0196095  -0.10249619      1728000    918.19428        56450        43256 
11300000    1.0166504   -0.1003642      1728000    918.99748        56500        43299 
11310000     1.030063  -0.11557688      1728000    919.80359        56550        43335 
11320000   0.94672757   -0.1029349      1728000    920.60694        56600        43373 
11330000   0.92979704  -0.11812387      1728000    921.41704        56650        43418 
11340000    1.0094772  -0.10850558      1728000    922.22324        56700        43459 
11350000    1.0028186  -0.11842832      1728000    923.02744        56750        43498 
11360000   0.95483541  -0.11225564      1728000    923.85116        56800        43538 
11370000   0.97552168  -0.12385319      1728000    924.68391        56850        43581 
11380000    1.0019717  -0.10449402      1728000     925.5302        56900        43619 
11390000   0.96492378  -0.10902276      1728000    926.36295        56950        43661 
11400000    0.9605859  -0.11742832      1728000    927.18683        57000        43698 
11410000   0.99990658  -0.11595376      1728000    928.01388        57050        43744 
11420000   0.98527222  -0.12787741      1728000      928.857        57100        43781 
11430000    1.0141148  -0.14400556      1728000    929.67799        57150        43820 
11440000    1.0490892  -0.13658009      1728000    930.49071        57200        43861 
11450000    1.0263472  -0.13995176      1728000    931.29507        57250        43898 
11460000   0.91758514  -0.13063129      1728000    932.10029        57300        43939 
11470000    1.0301496  -0.12520503      1728000     932.9035        57350        43977 
11480000   0.93665179  -0.11756173      1728000     933.7058        57400        44019 
11490000    1.0667818  -0.12918967      1728000    934.50019        57450        44058 
11500000    1.0009354  -0.11500951      1728000    935.31146        57500        44101 
11510000    1.0562843  -0.12630734      1728000    936.11663        57550        44137 
11520000     1.028735  -0.13787855      1728000    936.91282        57600        44176 
11530000   0.99660908  -0.13050412      1728000    937.71407        57650        44219 
11540000   0.98679377  -0.13273513      1728000    938.51425        57700        44262 
11550000     1.047473  -0.12269051      1728000    939.32048        57750        44305 
11560000    1.0067718   -0.1422917      1728000    940.14253        57800        44347 
11570000    1.0150872   -0.1407573      1728000    940.95468        57850        44385 
11580000   0.92800934  -0.14229015      1728000    941.78267        57900        44421 
11590000    1.0435502   -0.1440471      1728000    942.58974        57950        44464 
11600000    0.9827108  -0.14385108      1728000      943.413        58000        44501 
11610000    1.0407891  -0.13680758      1728000    944.22591        58050        44541 
11620000     1.007702  -0.13575255      1728000    945.04008        58100        44579 
11630000   0.95085777  -0.14396275      1728000    945.86689        58150        44619 
11640000     1.025511  -0.12491138      1728000    946.67111        58200        44661 
11650000    1.0036529  -0.11265545      1728000     947.4718        58250        44703 
11660000    1.0079016  -0.13322182      1728000    948.27239        58300        44747 
11670000    1.0833249  -0.12896534      1728000    949.07256        58350        44785 
11680000    1.0131267  -0.11520134      1728000    949.87806        58400        44828 
11690000    1.0090324  -0.12288633      1728000     950.6834        58450        44867 
11700000    1.0287768  -0.12102507      1728000    951.50157        58500        44907 
11710000    1.0228201  -0.14237197      1728000    952.31787        58550        44946 
11720000     1.003227  -0.14227818      1728000    953.14224        58600        44982 
11730000    1.0225121  -0.15033695      1728000    953.94958        58650        45021 
11740000    1.0073388  -0.15308344      1728000    954.75276        58700        45060 
11750000   0.99399436  -0.13670703      1728000    955.56141        58750        45098 
11760000   0.93296632  -0.13925201      1728000    956.37408        58800        45136 
11770000    1.0514681  -0.13441705      1728000    957.19606        58850        45169 
11780000    1.0730531  -0.14145196      1728000    958.00895        58900        45209 
11790000   0.95309134  -0.14612657      1728000     958.8201        58950        45247 
11800000    1.0179267  -0.15959894      1728000     959.6511        59000        45282 
11810000   0.96589469   -0.1440506      1728000    960.45895        59050        45321 
11820000   0.98154008  -0.14211734      1728000    961.26499        59100        45362 
11830000    1.0440632  -0.14840584      1728000     962.0648        59150        45401 
11840000    1.0120507  -0.14514411      1728000    962.86813        59200        45443 
11850000   0.96580979  -0.14199108      1728000     963.6769        59250        45483 
11860000    1.0437622  -0.12847319      1728000     964.4789        59300        45521 
11870000    1.0020927  -0.12715783      1728000    965.28688        59350        45556 
11880000    1.0024042  -0.14214766      1728000    966.09598        59400        45595 
11890000     1.010764  -0.14206209      1728000    966.94818        59450        45632 
11900000   0.97805855   -0.1289784      1728000    967.75898        59500        45675 
11910000    1.0077278  -0.13277285      1728000    968.55609        59550        45714 
11920000   0.94153802  -0.14673764      1728000    969.36395        59600        45753 
11930000   0.99612337  -0.13321167      1728000    970.16703        59650        45792 
11940000    1.0618982  -0.14560271      1728000    970.97309        59700        45834 
11950000    1.0109579  -0.15124265      1728000    971.78145        59750        45872 
11960000    1.0204186  -0.16225371      1728000    972.59364        59800        45914 
11970000    1.0032168  -0.16323791      1728000    973.40602        59850        45949 
11980000    1.0724499  -0.16289486      1728000    974.20848        59900        45995 
11990000   0.98927364   -0.1512291      1728000    975.02222        59950        46037 
12000000   0.97112877  -0.16171287      1728000    975.91123        60000        46073 
12010000   0.97485211  -0.17004056      1728000    976.75812        60050        46110 
12020000   0.98606448  -0.18225095      1728000    977.56904        60100        46148 
12030000    1.0005017  -0.16367784      1728000    978.39295        60150        46186 
12040000   0.96012431  -0.14981319      1728000    979.20904        60200        46222 
12050000    1.0585941  -0.14481799      1728000    980.03598        60250        46261 
12060000     1.060073  -0.14640445      1728000    980.84283        60300        46299 
12070000    1.0079466  -0.16841085      1728000    981.65994        60350        46335 
12080000   0.98027355  -0.16742722      1728000    982.47108        60400        46378 
12090000   0.98711747  -0.17362941      1728000     983.2961        60450        46417 
12100000   0.98991521  -0.17035819      1728000    984.11713        60500        46459 
12110000   0.99294809  -0.17669207      1728000    984.93391        60550        46499 
12120000   0.98516506  -0.18761458      1728000    985.74815        60600        46535 
12130000      1.00327  -0.16430889      1728000    986.56006        60650        46576 
12140000    1.0203745  -0.16399962      1728000    987.39658        60700        46617 
12150000    1.0104555  -0.15799794      1728000    988.26768        60750        46656 
12160000    1.0151435  -0.16530351      1728000    989.13679        60800        46694 
12170000    1.0350564  -0.17589257      1728000    989.98876        60850        46721 
12180000    1.0233337  -0.17500998      1728000    990.83391        60900        46757 
12190000   0.99241515  -0.17557505      1728000       991.72        60950        46794 
12200000   0.89126533  -0.16628648      1728000    992.56414        61000        46834 
12210000   0.95705857  -0.17423442      1728000    993.43825        61050        46870 
12220000   0.93313913   -0.1828099      1728000    994.28538        61100        46906 
12230000   0.97396274  -0.17899665      1728000    995.12952        61150        46939 
12240000   0.99721257  -0.18287967      1728000    995.97667        61200        46975 
12250000    1.0429826  -0.17644285      1728000    996.82178        61250        47011 
12260000     1.035152  -0.17010678      1728000    997.65402        61300        47046 
12270000    1.0204574  -0.16810431      1728000    998.51006        61350        47082 
12280000    1.0419754  -0.16654401      1728000    999.33503        61400        47118 
12290000   0.99177185  -0.16661318      1728000    1000.1401        61450        47159 
12300000   0.99482836  -0.16468426      1728000     1000.977        61500        47197 
12310000    1.0094763  -0.16754686      1728000    1001.7981        61550        47236 
12320000   0.93592262  -0.17503567      1728000     1002.615        61600        47271 
12330000   0.93863556  -0.16470276      1728000    1003.4261        61650        47309 
12340000   0.96393684  -0.16876692      1728000    1004.2341        61700        47344 
12350000    0.9870372  -0.17257622      1728000    1005.0391        61750        47383 
12360000    1.0170553  -0.15035676      1728000    1005.8581        61800        47425 
12370000   0.94804731  -0.16179052      1728000    1006.6968        61850        47465 
12380000   0.96139887  -0.15399589      1728000     1007.514        61900        47509 
12390000    0.9820727  -0.15621819      1728000    1008.3229        61950        47550 
12400000   0.99522951  -0.14917575      1728000    1009.1301        62000        47588 
12410000    1.0316721   -0.1594354      1728000    1009.9746        62050        47623 
12420000    1.0024098  -0.16668476      1728000    1010.7878        62100        47667 
12430000     1.016323  -0.17345986      1728000     1011.651        62150        47703 
12440000   0.99714063  -0.17671283      1728000     1012.545        62200        47742 
12450000   0.99328746  -0.17215436      1728000    1013.4272        62250        47780 
12460000    1.0104107  -0.14653247      1728000    1014.3092        62300        47820 
12470000    1.0082351  -0.16921365      1728000    1015.1055        62350        47856 
12480000    1.0126654  -0.15487957      1728000    1015.9009        62400        47892 
12490000    1.0742816  -0.15556955      1728000    1016.7251        62450        47932 
12500000    1.0066049  -0.16795877      1728000    1017.5469        62500        47973 
12510000    1.0268114  -0.15007109      1728000    1018.3671        62550        48011 
12520000   0.97450916  -0.14331807      1728000    1019.1873        62600        48053 
12530000    1.0568042  -0.15378825      1728000     1019.987        62650        48092 
12540000   0.98976014   -0.1492799      1728000    1020.7898        62700        48131 
12550000   0.96204915  -0.15337321      1728000    1021.6461        62750        48167 
12560000    1.0058188  -0.16826579      1728000    1022.4948        62800        48207 
12570000    1.0610142  -0.16332315      1728000    1023.4348        62850        48247 
12580000    1.0319629  -0.16488047      1728000     1024.296        62900        48281 
12590000    1.0150226  -0.16583959      1728000    1025.1491        62950        48320 
12600000    1.0423103  -0.16962271      1728000    1026.0522        63000        48358 
12610000   0.96109349  -0.17157997      1728000    1026.8973        63050        48390 
12620000    1.0359327   -0.1700705      1728000    1027.7159        63100        48430 
12630000   0.95593611  -0.17339715      1728000    1028.5387        63150        48464 
12640000    1.0555516  -0.16899944      1728000    1029.3771        63200        48506 
12650000   0.99869406  -0.17100829      1728000     1030.219        63250        48540 
12660000    1.0924325  -0.17087662      1728000    1031.0668        63300        48571 
12670000    1.0258436  -0.17806501      1728000    1031.8738        63350        48606 
12680000    1.0334645  -0.18101215      1728000    1032.7248        63400        48650 
12690000   0.99609212  -0.18292045      1728000    1033.5371        63450        48691 
12700000   0.96942542  -0.16961045      1728000    1034.4112        63500        48728 
12710000   0.87386297  -0.16054106      1728000    1035.2399        63550        48765 
12720000   0.96147859  -0.16944558      1728000    1036.0712        63600        48803 
12730000     1.014379  -0.15406524      1728000    1036.8906        63650        48841 
12740000    1.0263802  -0.15734926      1728000    1037.7109        63700        48877 
12750000    1.0456165  -0.14525767      1728000    1038.4932        63750        48918 
12760000     1.017896  -0.15191754      1728000    1039.2818        63800        48953 
12770000    1.0012464  -0.14712877      1728000    1040.1011        63850        48993 
12780000   0.99073845  -0.16100448      1728000    1040.8882        63900        49027 
12790000    1.0373487   -0.1551989      1728000     1041.675        63950        49068 
12800000    1.0127303  -0.15221089      1728000    1042.4803        64000        49103 
12810000   0.97150522   -0.1619833      1728000    1043.2939        64050        49142 
12820000   0.98905123  -0.15486108      1728000    1044.1488        64100        49178 
12830000   0.97254506  -0.15384076      1728000    1044.9682        64150        49212 
12840000    1.0060625  -0.17042672      1728000    1045.8068        64200        49251 
12850000    1.0142919  -0.17726914      1728000    1046.6599        64250        49287 
12860000   0.98765076  -0.17463521      1728000    1047.4799        64300        49326 
12870000    1.0283503  -0.17249292      1728000     1048.283        64350        49361 
12880000    1.0465703  -0.16853324      1728000    1049.0842        64400        49400 
12890000    1.0282537  -0.17287685      1728000    1049.8792        64450        49436 
12900000   0.96800032  -0.16258102      1728000     1050.684        64500        49471 
12910000   0.98625681  -0.15533885      1728000    1051.4831        64550        49503 
12920000   0.98959355  -0.16156489      1728000    1052.2922        64600        49538 
12930000   0.96248539  -0.17068854      1728000    1053.0909        64650        49577 
12940000   0.94958561  -0.16756127      1728000    1053.9365        64700        49618 
12950000    1.0430547  -0.16611657      1728000    1054.7728        64750        49655 
12960000    0.9622083  -0.16899951      1728000     1055.587        64800        49692 
12970000   0.97078061  -0.17516163      1728000    1056.3912        64850        49736 
12980000    1.0401516  -0.17268351      1728000    1057.2659        64900        49774 
12990000    1.0834614  -0.15324604      1728000    1058.0768        64950        49813 
13000000    1.0290235  -0.15881863      1728000    1058.9211        65000        49853 
13010000    1.0595902  -0.15149855      1728000    1059.7539        65050        49891 
13020000    1.0111118  -0.16182194      1728000    1060.5562        65100        49931 
13030000    1.0074207  -0.16834591      1728000    1061.3691        65150        49968 
13040000    1.0203638  -0.16040293      1728000    1062.2169        65200        50006 
13050000   0.98180015   -0.1526998      1728000    1063.0667        65250        50047 
13060000    1.0359805  -0.15733111      1728000     1063.878        65300        50079 
13070000     1.003983  -0.15743844      1728000    1064.6812        65350        50116 
13080000    1.0048671   -0.1718797      1728000    1065.4914        65400        50157 
13090000    1.0486494    -0.148736      1728000    1066.2866        65450        50192 
13100000   0.97931273  -0.14644789      1728000     1067.077        65500        50227 
13110000    1.0223601  -0.14404246      1728000    1067.8573        65550        50268 
13120000    1.0886311  -0.13635933      1728000     1068.644        65600        50301 
13130000    1.0036367  -0.13798433      1728000    1069.4159        65650        50343 
13140000    1.0057974  -0.14288261      1728000    1070.1943        65700        50385 
13150000   0.99008295  -0.14010158      1728000    1070.9754        65750        50424 
13160000   0.97277825  -0.15006726      1728000    1071.7602        65800        50460 
13170000   0.98878827  -0.13394462      1728000    1072.5461        65850        50498 
13180000    1.0262569  -0.13833642      1728000    1073.3958        65900        50536 
13190000    1.0156236  -0.14110502      1728000    1074.2829        65950        50575 
13200000   0.97348559  -0.13405336      1728000     1075.158        66000        50618 
13210000    1.0255384  -0.13254386      1728000    1075.9942        66050        50658 
13220000    1.0064589  -0.13675446      1728000    1076.8544        66100        50702 
13230000   0.99769371  -0.13415926      1728000    1077.6668        66150        50741 
13240000   0.98256334   -0.1370109      1728000    1078.4732        66200        50779 
13250000   0.98030903  -0.11729333      1728000    1079.2899        66250        50815 
13260000     1.022582  -0.14549627      1728000    1080.1121        66300        50856 
13270000   0.94625686  -0.14763264      1728000    1080.9162        66350        50894 
13280000    1.0389516  -0.14869798      1728000    1081.7362        66400        50934 
13290000    1.0047441     -0.15983      1728000    1082.5372        66450        50976 
13300000    1.0010314  -0.15766553      1728000    1083.3481        66500        51019 
13310000   0.90579463  -0.16188711      1728000    1084.1708        66550        51057 
13320000    1.0067621  -0.14697109      1728000     1085.012        66600        51098 
13330000    1.0467365  -0.14261421      1728000    1085.8632        66650        51140 
13340000   0.95161545  -0.15393182      1728000    1086.7031        66700        51177 
13350000    1.0409485  -0.15489057      1728000    1087.5191        66750        51216 
13360000    1.0123662  -0.14438211      1728000    1088.3342        66800        51255 
13370000     1.029597  -0.13138732      1728000     1089.146        66850        51294 
13380000   0.98688349  -0.13743185      1728000     1089.982        66900        51337 
13390000    1.0097014  -0.15011965      1728000    1090.7831        66950        51376 
13400000   0.98737762  -0.14216406      1728000    1091.5982        67000        51415 
13410000    1.0283895   -0.1439279      1728000    1092.4022        67050        51454 
13420000    1.0331389  -0.15262662      1728000    1093.2272        67100        51490 
13430000   0.96266283  -0.16351762      1728000    1094.0421        67150        51530 
13440000   0.96198998  -0.16545403      1728000    1094.8519        67200        51564 
13450000   0.94727923   -0.1771622      1728000    1095.6682        67250        51603 
13460000    1.0388755  -0.17437763      1728000    1096.4861        67300        51642 
13470000   0.94002269  -0.17364966      1728000    1097.2991        67350        51681 
13480000   0.97851507  -0.15374786      1728000    1098.1042        67400        51712 
13490000   0.98160643  -0.16061956      1728000    1098.9021        67450        51748 
13500000   0.98350474  -0.15303017      1728000    1099.7242        67500        51784 
13510000   0.89160027  -0.14964942      1728000    1100.5431        67550        51826 
13520000   0.96850007  -0.16874624      1728000    1101.3581        67600        51868 
13530000    1.0428007  -0.16354536      1728000    1102.1792        67650        51903 
13540000    1.0386283  -0.14179527      1728000    1103.0209        67700        51941 
13550000   0.97387215  -0.15035256      1728000     1103.824        67750        51982 
13560000    1.0333822  -0.14751522      1728000    1104.6498        67800        52025 
13570000     1.007513  -0.14245797      1728000     1105.457        67850        52069 
13580000    1.0191236   -0.1661608      1728000    1106.2806        67900        52109 
13590000    1.0499861   -0.1679786      1728000    1107.0838        67950        52149 
13600000    1.0235701  -0.16268095      1728000     1107.906        68000        52184 
13610000    1.0338268  -0.15332152      1728000    1108.7171        68050        52222 
13620000    1.0000901  -0.15203278      1728000     1109.524        68100        52261 
13630000   0.98037794  -0.16043364      1728000    1110.3202        68150        52300 
13640000    1.0340746  -0.15224934      1728000    1111.1313        68200        52342 
13650000    1.0167491  -0.14766697      1728000    1111.9412        68250        52383 
13660000    1.0178168  -0.14929941      1728000    1112.7501        68300        52422 
13670000    1.0519437  -0.14829988      1728000    1113.5576        68350        52461 
13680000    1.0669459  -0.15925375      1728000    1114.3711        68400        52504 
13690000      0.99141   -0.1469857      1728000    1115.1762        68450        52535 
13700000   0.89743771  -0.14664678      1728000    1116.0091        68500        52577 
13710000   0.97871628  -0.14611644      1728000    1116.8122        68550        52620 
13720000   0.95381643  -0.15411582      1728000    1117.6152        68600        52658 
13730000   0.97701127  -0.15119304      1728000    1118.4242        68650        52694 
13740000    1.0380997  -0.14004288      1728000    1119.2252        68700        52738 
13750000   0.96059444  -0.14519592      1728000    1120.0507        68750        52780 
13760000    1.0004874  -0.15828763      1728000    1120.8589        68800        52822 
13770000    1.0108271  -0.15489079      1728000     1121.688        68850        52858 
13780000    1.0197566  -0.15867872      1728000    1122.5012        68900        52899 
13790000    1.0335583  -0.15592435      1728000    1123.3183        68950        52941 
13800000    1.0446652  -0.16272289      1728000     1124.139        69000        52979 
13810000    1.0024835  -0.16379576      1728000    1124.9611        69050        53017 
13820000    1.0275269  -0.16370767      1728000    1125.7741        69100        53053 
13830000    1.0044169  -0.16154497      1728000    1126.5782        69150        53095 
13840000   0.98293309   -0.1498233      1728000    1127.3943        69200        53135 
13850000   0.98271444  -0.16273407      1728000    1128.2044        69250        53176 
13860000    1.0082404  -0.16924309      1728000    1129.0081        69300        53212 
13870000    1.0173792  -0.15627647      1728000    1129.8123        69350        53249 
13880000   0.97822561  -0.14871783      1728000    1130.6192        69400        53288 
13890000   0.97668171  -0.14476851      1728000    1131.4272        69450        53328 
13900000    1.0336482  -0.14189817      1728000    1132.2471        69500        53366 
13910000    1.0011652  -0.15152091      1728000    1133.0532        69550        53407 
13920000    1.0123451  -0.13966569      1728000    1133.9081        69600        53444 
13930000    1.0096034  -0.14866447      1728000    1134.7173        69650        53484 
13940000    1.0017227  -0.14450876      1728000    1135.5231        69700        53525 
13950000    0.9899551  -0.13989991      1728000    1136.3271        69750        53563 
13960000   0.98772752  -0.12148316      1728000    1137.1471        69800        53602 
13970000   0.92957107  -0.13936016      1728000    1137.9551        69850        53643 
13980000   0.99568415  -0.15576081      1728000    1138.7662        69900        53680 
13990000    1.0013464  -0.15769201      1728000    1139.5693        69950        53724 
14000000    1.0423975  -0.16176589      1728000    1140.3921        70000        53759 
14010000    1.0311947  -0.15195401      1728000    1141.2122        70050        53793 
14020000   0.96483652    -0.141484      1728000    1142.0222        70100        53827 
14030000    1.0345035  -0.15174097      1728000    1142.8455        70150        53866 
14040000    1.0592968  -0.15497694      1728000    1143.6517        70200        53908 
14050000    1.0455152  -0.14022431      1728000     1144.459        70250        53945 
14060000   0.98631478   -0.1466587      1728000    1145.2632        70300        53981 
14070000    1.0056098  -0.14219229      1728000    1146.0652        70350        54021 
14080000   0.97653883   -0.1296631      1728000    1146.8671        70400        54062 
14090000    1.0009964  -0.14463945      1728000    1147.6672        70450        54104 
14100000   0.99331986   -0.1276493      1728000    1148.4992        70500        54144 
14110000    1.0198127   -0.1382723      1728000    1149.3012        70550        54185 
14120000   0.99630094  -0.14587349      1728000    1150.1083        70600        54219 
14130000    1.0169736  -0.14124908      1728000    1150.9173        70650        54259 
14140000    1.0344973   -0.1327384      1728000    1151.7301        70700        54296 
14150000    1.0334008  -0.14579712      1728000    1152.5413        70750        54331 
14160000    1.0591086  -0.14979615      1728000    1153.3564        70800        54370 
14170000    1.0121502  -0.15822837      1728000    1154.1877        70850        54412 
14180000   0.98481253   -0.1585375      1728000    1154.9997        70900        54454 
14190000   0.99552973  -0.14762793      1728000    1155.8179        70950        54495 
14200000    1.0087773  -0.14753771      1728000    1156.6813        71000        54536 
14210000   0.97514721  -0.14918813      1728000      1157.49        71050        54569 
14220000    1.0070692  -0.16340263      1728000    1158.3001        71100        54608 
14230000   0.96679394  -0.15235863      1728000    1159.1089        71150        54648 
14240000    1.0300081   -0.1550885      1728000    1159.9223        71200        54683 
14250000   0.98296864  -0.16100705      1728000    1160.7323        71250        54723 
14260000    1.0118267  -0.16397584      1728000    1161.5533        71300        54757 
14270000    0.9712651  -0.17175878      1728000    1162.3752        71350        54799 
14280000   0.95302794  -0.14634577      1728000    1163.1843        71400        54841 
14290000   0.95199534  -0.14720699      1728000    1163.9983        71450        54881 
14300000    1.0240053  -0.14865965      1728000    1164.8195        71500        54919 
14310000    1.0289961   -0.1631129      1728000    1165.6296        71550        54962 
14320000     0.994794  -0.15829945      1728000    1166.4373        71600        55000 
14330000   0.95217174  -0.16427947      1728000    1167.2851        71650        55034 
14340000    1.0101184  -0.17107289      1728000    1168.1114        71700        55070 
14350000    1.0271875  -0.16512221      1728000    1168.9168        71750        55110 
14360000   0.96642091  -0.17756117      1728000    1169.7233        71800        55152 
14370000   0.96103271  -0.15039614      1728000    1170.5342        71850        55188 
14380000    1.0301307   -0.1637748      1728000    1171.3632        71900        55224 
14390000   0.99730482  -0.15481296      1728000    1172.1791        71950        55265 
14400000   0.97424366  -0.14988629      1728000    1172.9929        72000        55304 
14410000    1.0468984  -0.15493868      1728000    1173.8123        72050        55338 
14420000    1.0184333  -0.15472793      1728000    1174.6222        72100        55373 
14430000    1.0242655  -0.15808409      1728000    1175.4263        72150        55407 
14440000   0.92369859  -0.16118824      1728000     1176.254        72200        55446 
14450000   0.97488865  -0.15817501      1728000    1177.0552        72250        55489 
14460000   0.98371039  -0.16180453      1728000    1177.8663        72300        55528 
14470000    1.0719932   -0.1633987      1728000    1178.6812        72350        55572 
14480000   0.99245461  -0.15864958      1728000    1179.4897        72400        55610 
14490000    1.0126196  -0.15201899      1728000     1180.309        72450        55648 
14500000      1.02252  -0.15873209      1728000    1181.1282        72500        55692 
14510000     1.004223  -0.15879747      1728000    1181.9433        72550        55727 
14520000    0.9757281   -0.1503437      1728000    1182.7585        72600        55770 
14530000   0.91703823  -0.15512385      1728000    1183.5757        72650        55811 
14540000   0.97661487   -0.1469738      1728000     1184.392        72700        55844 
14550000   0.96098355   -0.1394057      1728000    1185.2383        72750        55881 
14560000   0.98317387  -0.14053205      1728000     1186.051        72800        55924 
14570000    1.0157682  -0.16793238      1728000    1186.8965        72850        55962 
14580000    1.0193291  -0.14364201      1728000    1187.7077        72900        55998 
14590000   0.94028554  -0.16500682      1728000    1188.5313        72950        56037 
14600000   0.96838233  -0.16382088      1728000    1189.3502        73000        56071 
14610000    1.0276963  -0.15107223      1728000    1190.1566        73050        56106 
14620000   0.94021837  -0.13784268      1728000    1190.9613        73100        56148 
14630000   0.95371114  -0.14334375      1728000     1191.771        73150        56190 
14640000   0.95798573  -0.13391056      1728000    1192.5783        73200        56226 
14650000    1.0720704  -0.13288275      1728000    1193.3822        73250        56261 
14660000    1.0163377  -0.12845811      1728000    1194.2103        73300        56294 
14670000    1.0308073    -0.139172      1728000     1195.016        73350        56332 
14680000     1.076323  -0.15474032      1728000    1195.8223        73400        56374 
14690000   0.98498036   -0.1578747      1728000    1196.6383        73450        56413 
14700000    1.0108985  -0.14409364      1728000    1197.4631        73500        56448 
14710000   0.96525043   -0.1468601      1728000    1198.2883        73550        56488 
14720000    1.0178026   -0.1492005      1728000    1199.0989        73600        56526 
14730000     1.017212  -0.15763118      1728000    1199.9041        73650        56569 
14740000    0.9288098  -0.16074523      1728000    1200.7524        73700        56603 
14750000   0.93487232  -0.16018086      1728000    1201.5765        73750        56646 
14760000    1.0043777  -0.17902866      1728000    1202.4276        73800        56682 
14770000    1.0366995  -0.15845984      1728000    1203.2438        73850        56720 
14780000     1.007498  -0.16540436      1728000     1204.063        73900        56759 
14790000   0.95675334  -0.16954635      1728000    1204.9011        73950        56797 
14800000     1.038143  -0.17946524      1728000    1205.7212        74000        56836 
14810000   0.97916471  -0.16092988      1728000    1206.5253        74050        56879 
14820000    1.0184897  -0.17293961      1728000    1207.3385        74100        56918 
14830000    1.0422193  -0.17336462      1728000    1208.1491        74150        56960 
14840000   0.91251483   -0.1790245      1728000    1208.9554        74200        56996 
14850000   0.99096548  -0.16128742      1728000    1209.7673        74250        57029 
14860000    1.0226019  -0.17842087      1728000     1210.585        74300        57063 
14870000    1.0340363  -0.16992581      1728000    1211.4004        74350        57103 
14880000   0.99582763   -0.1733427      1728000    1212.2152        74400        57139 
14890000   0.94288106  -0.17370193      1728000    1213.0253        74450        57177 
14900000    1.0584159  -0.16822132      1728000    1213.8422        74500        57210 
14910000   0.99012024  -0.15593968      1728000    1214.6842        74550        57245 
14920000    1.0340892  -0.17007242      1728000    1215.4974        74600        57282 
14930000    1.0320126  -0.17397211      1728000    1216.3122        74650        57321 
14940000   0.99623458  -0.16594821      1728000    1217.1186        74700        57356 
14950000    1.0382563  -0.16485842      1728000    1217.9457        74750        57394 
14960000   0.98108775  -0.16146734      1728000    1218.7563        74800        57435 
14970000   0.96636788  -0.14681803      1728000    1219.5733        74850        57475 
14980000   0.96798308  -0.15568015      1728000    1220.3852        74900        57510 
14990000   0.96412987  -0.15976851      1728000    1221.2013        74950        57549 
15000000    1.0039512  -0.15831129      1728000    1222.0361        75000        57588 
15010000    1.0379899  -0.13693442      1728000    1222.8663        75050        57629 
15020000    1.0066756  -0.14513151      1728000    1223.6902        75100        57664 
15030000   0.96743152  -0.15268261      1728000    1224.5073        75150        57704 
15040000    1.0212557  -0.15455687      1728000    1225.3183        75200        57747 
15050000    1.0297683  -0.16664761      1728000    1226.1486        75250        57779 
15060000   0.91298132  -0.16040343      1728000    1226.9545        75300        57818 
15070000    1.0528085  -0.16400122      1728000    1227.7697        75350        57851 
15080000    1.0354255  -0.16686469      1728000    1228.5843        75400        57887 
15090000    1.0497902  -0.15604952      1728000    1229.3984        75450        57924 
15100000    1.0440748   -0.1579503      1728000    1230.2313        75500        57962 
15110000    1.0167144  -0.15205776      1728000    1231.0472        75550        58000 
15120000   0.96652247  -0.17059515      1728000    1231.8573        75600        58034 
15130000    1.0118983  -0.17348762      1728000    1232.7114        75650        58071 
15140000    1.0244351   -0.1781809      1728000    1233.5273        75700        58102 
15150000    1.0076756  -0.16699714      1728000    1234.3554        75750        58136 
15160000     0.953119  -0.15885452      1728000    1235.1673        75800        58172 
15170000    1.0340491  -0.17863985      1728000    1235.9834        75850        58213 
15180000    1.0591994  -0.17951061      1728000    1236.8023        75900        58245 
15190000    1.0037333  -0.18569514      1728000    1237.6174        75950        58282 
15200000   0.96740346  -0.16832687      1728000    1238.4413        76000        58319 
15210000     1.041662  -0.16186416      1728000    1239.2754        76050        58358 
15220000    1.0596164  -0.17020732      1728000    1240.0894        76100        58396 
15230000   0.94905575  -0.15995795      1728000    1240.9075        76150        58431 
15240000   0.95521669  -0.16544797      1728000    1241.7286        76200        58464 
15250000    1.0176588  -0.15506797      1728000    1242.5525        76250        58500 
15260000    1.0185429  -0.17503274      1728000    1243.3752        76300        58539 
15270000   0.94165443  -0.14711222      1728000    1244.1814        76350        58573 
15280000    1.0004343  -0.16194587      1728000    1244.9893        76400        58611 
15290000    1.0322442  -0.16532466      1728000    1245.7964        76450        58647 
15300000    1.0394944  -0.17266364      1728000    1246.6271        76500        58686 
15310000    1.0050125  -0.17127097      1728000    1247.4414        76550        58723 
15320000    1.0197256  -0.16425522      1728000    1248.2564        76600        58765 
15330000   0.95512751  -0.15489003      1728000    1249.0663        76650        58804 
15340000    1.0493488  -0.15851209      1728000    1249.8763        76700        58842 
15350000    1.0214455   -0.1695818      1728000    1250.6912        76750        58879 
15360000    1.0302371  -0.16315297      1728000    1251.5036        76800        58921 
15370000    1.0940568  -0.17810407      1728000    1252.3154        76850        58960 
15380000    1.0914308  -0.15971296      1728000    1253.1334        76900        59001 
15390000   0.99977944   -0.1652581      1728000    1253.9474        76950        59039 
15400000     1.036991  -0.17269358      1728000    1254.7725        77000        59077 
15410000    1.0279517  -0.17827302      1728000    1255.6084        77050        59117 
15420000    1.0326829  -0.17643648      1728000    1256.4172        77100        59153 
15430000    1.0320477  -0.19093969      1728000    1257.2246        77150        59191 
15440000    1.0335004  -0.18675456      1728000    1258.0411        77200        59228 
15450000   0.93724778  -0.17733157      1728000    1258.8533        77250        59266 
15460000    1.0241282  -0.17992832      1728000    1259.6635        77300        59302 
15470000   0.97487556  -0.17654748      1728000    1260.4891        77350        59343 
15480000    1.0334292  -0.17876655      1728000    1261.3016        77400        59381 
15490000    0.9888638  -0.16441617      1728000    1262.1112        77450        59417 
15500000    1.0271499  -0.16803393      1728000    1262.9534        77500        59453 
15510000    1.0190197  -0.19244096      1728000    1263.7574        77550        59488 
15520000    1.0724926  -0.18188678      1728000    1264.5703        77600        59527 
15530000   0.95055868  -0.17763946      1728000    1265.3965        77650        59563 
15540000   0.93920259  -0.16253513      1728000    1266.2144        77700        59598 
15550000    1.0442979   -0.1723382      1728000    1267.0315        77750        59629 
15560000   0.96444774  -0.15223744      1728000    1267.8434        77800        59669 
15570000    1.0108084   -0.1646914      1728000    1268.6735        77850        59703 
15580000   0.99895516  -0.17107663      1728000    1269.4884        77900        59742 
15590000   0.97499197  -0.16204315      1728000    1270.3056        77950        59777 
15600000    1.0144979  -0.17621766      1728000    1271.1234        78000        59816 
15610000   0.96599269  -0.16673647      1728000    1271.9294        78050        59853 
15620000   0.97615142  -0.15660195      1728000    1272.7346        78100        59892 
15630000   0.93303062  -0.17137459      1728000    1273.5434        78150        59924 
15640000   0.97185114  -0.17036098      1728000    1274.3533        78200        59958 
15650000   0.98974478  -0.16837166      1728000    1275.1664        78250        59999 
15660000    0.9784307  -0.16538379      1728000    1275.9826        78300        60035 
15670000    1.0065088  -0.15220728      1728000    1276.7975        78350        60072 
15680000    1.0247554  -0.14976159      1728000    1277.6122        78400        60111 
15690000    1.0285516  -0.15180779      1728000    1278.4204        78450        60147 
15700000    1.0024537  -0.15126972      1728000    1279.2456        78500        60182 
15710000   0.99736641   -0.1475814      1728000    1280.0593        78550        60218 
15720000   0.98121734  -0.14921107      1728000    1280.8713        78600        60255 
15730000   0.95729354  -0.16079189      1728000    1281.6805        78650        60296 
15740000     1.022522  -0.15095569      1728000    1282.4913        78700        60338 
15750000    1.0173374  -0.15732623      1728000    1283.2984        78750        60377 
15760000   0.94088363  -0.15842684      1728000    1284.1301        78800        60415 
15770000   0.98859897  -0.15327956      1728000    1284.9585        78850        60454 
15780000   0.99136965  -0.16696833      1728000    1285.8127        78900        60490 
15790000   0.99714678  -0.16380327      1728000    1286.6394        78950        60528 
15800000   0.97789774  -0.17032574      1728000    1287.4723        79000        60566 
15810000    1.0197493  -0.16290579      1728000    1288.3164        79050        60605 
15820000    1.0083618  -0.15295871      1728000    1289.1523        79100        60641 
15830000    1.0064421  -0.16731004      1728000    1289.9636        79150        60680 
15840000    0.9843705  -0.15550971      1728000    1290.7784        79200        60723 
15850000    1.0146168  -0.15074148      1728000    1291.6033        79250        60757 
15860000    0.9653686  -0.14956093      1728000    1292.4135        79300        60799 
15870000   0.98514601    -0.151705      1728000    1293.2285        79350        60837 
15880000    1.0194447  -0.13543698      1728000    1294.0794        79400        60874 
15890000   0.97693554  -0.13252836      1728000    1294.8984        79450        60917 
15900000   0.98698002  -0.13771028      1728000    1295.7532        79500        60958 
15910000   0.98202644  -0.15271227      1728000    1296.5725        79550        60997 
15920000    1.0233896  -0.14256207      1728000    1297.3915        79600        61033 
15930000   0.98002625  -0.13853589      1728000    1298.2097        79650        61071 
15940000    1.0116419   -0.1536976      1728000    1299.0193        79700        61111 
15950000    1.0454949  -0.14409495      1728000    1299.8324        79750        61144 
15960000   0.99542907  -0.14080229      1728000    1300.6387        79800        61186 
15970000     1.013272  -0.14983062      1728000    1301.4498        79850        61227 
15980000   0.97174862  -0.14348611      1728000    1302.2595        79900        61272 
15990000   0.96536278  -0.13500905      1728000    1303.0793        79950        61312 
16000000    1.0322229  -0.15013562      1728000    1303.9075        80000        61350 
16010000    1.0169447  -0.14093879      1728000    1304.7253        80050        61385 
16020000    0.9864976  -0.14619076      1728000    1305.5324        80100        61422 
16030000   0.99090519  -0.14907977      1728000    1306.3424        80150        61459 
16040000   0.96270803  -0.14310182      1728000    1307.1513        80200        61501 
16050000    0.9888905  -0.15322955      1728000    1307.9686        80250        61535 
16060000    0.9459091  -0.15375853      1728000    1308.7784        80300        61577 
16070000   0.96681956  -0.14854021      1728000    1309.5815        80350        61616 
16080000    1.0582068  -0.16152165      1728000    1310.3893        80400        61659 
16090000    1.0123549  -0.16064448      1728000    1311.2123        80450        61699 
16100000    1.0137026  -0.16438872      1728000    1312.0274        80500        61744 
16110000    1.0017211  -0.16147741      1728000    1312.8527        80550        61781 
16120000   0.97209388  -0.15448129      1728000    1313.6753        80600        61824 
16130000   0.99218715  -0.15100746      1728000    1314.5089        80650        61860 
16140000   0.95120763  -0.15522253      1728000    1315.3203        80700        61895 
16150000    1.0523124  -0.15204143      1728000    1316.1388        80750        61931 
16160000    1.0125556   -0.1505627      1728000    1316.9601        80800        61971 
16170000    1.0236818  -0.15941993      1728000    1317.7775        80850        62008 
16180000   0.96935295   -0.1699641      1728000    1318.5915        80900        62045 
16190000    1.0172638  -0.14112703      1728000    1319.3966        80950        62086 
16200000     1.038066  -0.14326441      1728000    1320.2208        81000        62126 
16210000    1.0435149  -0.14554256      1728000    1321.0518        81050        62163 
16220000    1.0242281   -0.1535353      1728000    1321.8619        81100        62204 
16230000   0.96503873   -0.1665513      1728000    1322.6778        81150        62248 
16240000    1.0442767   -0.1689851      1728000    1323.5115        81200        62282 
16250000    1.0961814  -0.15948788      1728000    1324.3325        81250        62321 
16260000    1.0603969  -0.15207803      1728000    1325.1555        81300        62357 
16270000    1.0211346   -0.1633252      1728000    1325.9835        81350        62392 
16280000   0.92956082  -0.16075542      1728000    1326.8055        81400        62432 
16290000   0.96511737  -0.15945319      1728000    1327.6217        81450        62468 
16300000    1.0253672  -0.15426919      1728000    1328.4454        81500        62508 
16310000    1.0607896   -0.1547828      1728000    1329.2626        81550        62545 
16320000   0.98613826  -0.14682212      1728000    1330.0826        81600        62582 
16330000    1.0077289  -0.14296051      1728000    1330.8956        81650        62621 
16340000    1.0080623  -0.14618364      1728000    1331.7054        81700        62658 
16350000   0.99290234    -0.147477      1728000    1332.5233        81750        62691 
16360000    1.0493556  -0.16878169      1728000    1333.3454        81800        62728 
16370000    1.0498205  -0.15179033      1728000    1334.1597        81850        62767 
16380000   0.97766092  -0.14928878      1728000    1334.9697        81900        62805 
16390000    1.0145162   -0.1505903      1728000    1335.8052        81950        62840 
16400000    0.9824789  -0.14750088      1728000    1336.6355        82000        62881 
16410000   0.93909815  -0.14589691      1728000    1337.4525        82050        62922 
16420000    1.0129723  -0.14140062      1728000    1338.2785        82100        62957 
16430000   0.99609303  -0.14545934      1728000    1339.0927        82150        62992 
16440000   0.97055992  -0.15640124      1728000    1339.9144        82200        63031 
16450000   0.97983127  -0.14053279      1728000    1340.7312        82250        63068 
16460000    1.0271112  -0.15722468      1728000    1341.5568        82300        63105 
16470000    1.0562964  -0.15400893      1728000     1342.391        82350        63141 
16480000   0.96791088  -0.14229775      1728000    1343.2165        82400        63189 
16490000   0.92051409  -0.14952134      1728000    1344.0454        82450        63225 
16500000    1.0409435  -0.13651843      1728000    1344.8912        82500        63266 
16510000   0.98282824  -0.13696887      1728000    1345.7196        82550        63307 
16520000   0.96694456  -0.14624254      1728000    1346.5337        82600        63350 
16530000     0.993571  -0.13145043      1728000    1347.3446        82650        63387 
16540000    1.0215424  -0.14374542      1728000    1348.1623        82700        63419 
16550000   0.97025767  -0.15272148      1728000    1348.9784        82750        63462 
16560000    1.0532503  -0.15923244      1728000    1349.7937        82800        63498 
16570000   0.97630147   -0.1581822      1728000    1350.6035        82850        63530 
16580000    1.0042342  -0.14394582      1728000    1351.4077        82900        63569 
16590000    1.0196812  -0.14442881      1728000    1352.2181        82950        63610 
16600000    1.0237183  -0.16099597      1728000    1353.0416        83000        63644 
16610000    1.0463798  -0.15266676      1728000    1353.8518        83050        63684 
16620000   0.97471717   -0.1519509      1728000     1354.672        83100        63721 
16630000    1.0623574  -0.16611202      1728000    1355.4786        83150        63763 
16640000   0.92180827  -0.17963523      1728000    1356.2817        83200        63801 
16650000    1.0036705  -0.16385706      1728000    1357.0935        83250        63836 
16660000    1.0199006  -0.13650273      1728000    1357.8996        83300        63874 
16670000   0.99016281  -0.14682847      1728000    1358.7124        83350        63911 
16680000   0.95872257  -0.13567955      1728000    1359.5135        83400        63951 
16690000   0.94852438  -0.14064059      1728000    1360.3574        83450        63989 
16700000    1.0293444  -0.13919417      1728000    1361.1772        83500        64031 
16710000   0.97813711  -0.14025136      1728000    1361.9824        83550        64075 
16720000   0.95213242  -0.14355404      1728000    1362.7895        83600        64116 
16730000     1.023472  -0.14236997      1728000    1363.5912        83650        64160 
16740000    1.0564092  -0.13270015      1728000    1364.3896        83700        64199 
16750000   0.98293541  -0.14025913      1728000    1365.1854        83750        64237 
16760000    1.0240957  -0.14109177      1728000    1365.9918        83800        64273 
16770000    1.0032267   -0.1446998      1728000    1366.8027        83850        64313 
16780000    1.0258722  -0.16261357      1728000    1367.6086        83900        64355 
16790000   0.98804658  -0.14976416      1728000    1368.4195        83950        64395 
16800000   0.97758024  -0.12134759      1728000    1369.2376        84000        64433 
16810000    1.0268928  -0.15839692      1728000    1370.0436        84050        64476 
16820000   0.94726489  -0.14762921      1728000    1370.8646        84100        64513 
16830000   0.99698736  -0.14652914      1728000    1371.6682        84150        64551 
16840000    1.0868944   -0.1416852      1728000    1372.4715        84200        64594 
16850000   0.95683045  -0.14283383      1728000    1373.2836        84250        64634 
16860000   0.97993698  -0.13904046      1728000    1374.0896        84300        64673 
16870000   0.97118398  -0.13763093      1728000    1374.9075        84350        64708 
16880000   0.99333747  -0.14756468      1728000    1375.7215        84400        64748 
16890000   0.96591385  -0.14687556      1728000    1376.5352        84450        64784 
16900000   0.97621073  -0.13548515      1728000    1377.3555        84500        64820 
16910000    1.0008435  -0.12710179      1728000    1378.1654        84550        64862 
16920000    1.0595007  -0.14892309      1728000    1378.9745        84600        64904 
16930000    1.0124516  -0.14060633      1728000    1379.7837        84650        64944 
16940000    1.0488823  -0.14804414      1728000    1380.5935        84700        64987 
16950000   0.99227652   -0.1484352      1728000    1381.4107        84750        65025 
16960000    1.0107526  -0.15539426      1728000    1382.2165        84800        65066 
16970000    0.9232566  -0.15240778      1728000    1383.0267        84850        65104 
16980000     1.026971  -0.14211689      1728000    1383.8285        84900        65142 
16990000    1.0639664  -0.14147411      1728000    1384.6512        84950        65185 
17000000    1.0367484  -0.14976361      1728000    1385.4733        85000        65227 
17010000    0.9961165  -0.15172751      1728000    1386.2818        85050        65263 
17020000   0.98500093  -0.16348392      1728000    1387.0896        85100        65299 
17030000   0.96272012  -0.14057833      1728000    1387.9085        85150        65337 
17040000     1.005334  -0.13540202      1728000    1388.7125        85200        65376 
17050000    1.0622252  -0.12667933      1728000    1389.5146        85250        65414 
17060000    1.0022186  -0.12177501      1728000    1390.3147        85300        65455 
17070000   0.95658938   -0.1252866      1728000    1391.1127        85350        65495 
17080000   0.93961134  -0.13400037      1728000    1391.9126        85400        65531 
17090000    1.0151358  -0.14192194      1728000    1392.7295        85450        65564 
17100000   0.97048909  -0.14845513      1728000    1393.5443        85500        65607 
17110000    1.0243914  -0.14849913      1728000    1394.3517        85550        65648 
17120000    1.0399764  -0.14643989      1728000    1395.1565        85600        65684 
17130000   0.95047612  -0.13593574      1728000    1395.9605        85650        65723 
17140000    1.0111565  -0.13732945      1728000    1396.7615        85700        65763 
17150000    1.0403489  -0.14100358      1728000    1397.5826        85750        65804 
17160000   0.96219797  -0.14064051      1728000    1398.3957        85800        65844 
17170000   0.92469378  -0.16013274      1728000    1399.1995        85850        65886 
17180000    1.0025442  -0.16833557      1728000    1400.0095        85900        65923 
17190000    1.0317559  -0.15466495      1728000    1400.8077        85950        65966 
17200000    1.0141992  -0.15555762      1728000    1401.6248        86000        65996 
17210000   0.91431856  -0.13923872      1728000    1402.4265        86050        66038 
17220000     1.013246  -0.13780463      1728000    1403.2266        86100        66077 
17230000   0.93287355  -0.13265735      1728000    1404.0257        86150        66121 
17240000   0.98686487  -0.13265363      1728000    1404.8316        86200        66159 
17250000   0.99908265  -0.13938785      1728000    1405.6397        86250        66199 
17260000   0.96330096  -0.13001278      1728000    1406.4467        86300        66235 
17270000    1.0385109  -0.13545212      1728000    1407.2497        86350        66276 
17280000   0.96575481  -0.12937758      1728000    1408.0504        86400        66317 
17290000    0.9772498  -0.14103812      1728000    1408.8565        86450        66353 
17300000   0.97599645  -0.14195612      1728000    1409.6587        86500        66395 
17310000    1.0145478  -0.12346115      1728000    1410.4525        86550        66434 
17320000    1.0736888  -0.12763957      1728000    1411.2764        86600        66474 
17330000   0.99994184  -0.10407881      1728000    1412.0686        86650        66514 
17340000   0.99424061  -0.10793617      1728000    1412.8595        86700        66558 
17350000    1.0035802  -0.11169887      1728000    1413.6576        86750        66595 
17360000    1.0171754  -0.11622155      1728000    1414.4514        86800        66639 
17370000    1.0093915   -0.1223942      1728000    1415.2644        86850        66683 
17380000     1.046273  -0.11993672      1728000    1416.0636        86900        66723 
17390000    1.0104149  -0.11981615      1728000    1416.8638        86950        66762 
17400000    1.0866426  -0.11190635      1728000    1417.6715        87000        66799 
17410000   0.95471567  -0.11431469      1728000    1418.4695        87050        66840 
17420000   0.97341458  -0.12283299      1728000    1419.2685        87100        66881 
17430000    1.0085003  -0.13344731      1728000    1420.0647        87150        66926 
17440000    1.0224681  -0.12737693      1728000    1420.8624        87200        66969 
17450000   0.99210713  -0.14331513      1728000    1421.6566        87250        67009 
17460000   0.98233842  -0.13478595      1728000    1422.4738        87300        67050 
17470000   0.95951189  -0.14749822      1728000    1423.2897        87350        67088 
17480000    1.0171011  -0.13530787      1728000    1424.0924        87400        67128 
17490000   0.96131071  -0.12815002      1728000    1424.8936        87450        67167 
17500000    1.0209504  -0.13620383      1728000    1425.7015        87500        67205 
17510000   0.99020182   -0.1388634      1728000    1426.5015        87550        67244 
17520000    1.0101796  -0.14244006      1728000    1427.2975        87600        67278 
17530000    1.0346875  -0.13890608      1728000    1428.1045        87650        67318 
17540000   0.98756765  -0.13498103      1728000    1428.9075        87700        67353 
17550000    1.0126747  -0.12055742      1728000    1429.7265        87750        67392 
17560000    1.0237613  -0.12431354      1728000    1430.5237        87800        67434 
17570000   0.96840584  -0.12202634      1728000    1431.3305        87850        67474 
17580000    1.0530562  -0.12425412      1728000    1432.1346        87900        67509 
17590000   0.99683799  -0.13430444      1728000    1432.9474        87950        67549 
17600000    0.9770752  -0.12385568      1728000    1433.7593        88000        67588 
17610000   0.98299324  -0.12370574      1728000    1434.5546        88050        67633 
17620000      1.04007  -0.14592303      1728000    1435.3567        88100        67672 
17630000    1.0069899  -0.15174376      1728000    1436.1596        88150        67709 
17640000    0.9802831  -0.14493849      1728000    1436.9673        88200        67742 
17650000    1.0027839  -0.15327093      1728000    1437.7684        88250        67781 
17660000    1.0108888  -0.16252824      1728000    1438.5806        88300        67821 
17670000    1.0129308  -0.16165949      1728000    1439.3875        88350        67858 
17680000   0.98824899   -0.1566531      1728000    1440.1927        88400        67897 
17690000   0.97748893  -0.14560856      1728000    1440.9905        88450        67938 
17700000   0.97624463  -0.14653255      1728000    1441.7966        88500        67971 
17710000   0.89747617   -0.1480452      1728000    1442.5946        88550        68011 
17720000   0.99682034  -0.14539829      1728000    1443.3933        88600        68046 
17730000    1.0281739  -0.14068943      1728000    1444.2135        88650        68087 
17740000    1.0350053  -0.13632387      1728000    1445.0246        88700        68125 
17750000    1.0047386  -0.13760416      1728000    1445.8273        88750        68167 
17760000   0.97990778  -0.15277414      1728000    1446.6326        88800        68205 
17770000     1.027784  -0.15673358      1728000    1447.4513        88850        68243 
17780000   0.95105535   -0.1515654      1728000    1448.2685        88900        68287 
17790000   0.93393003  -0.13615822      1728000    1449.0713        88950        68326 
17800000   0.99428992  -0.14645811      1728000    1449.8778        89000        68367 
17810000    1.0684252  -0.14425397      1728000    1450.6803        89050        68406 
17820000   0.99280407  -0.12529917      1728000    1451.4865        89100        68442 
17830000    1.0015502  -0.13640659      1728000    1452.2935        89150        68478 
17840000   0.98942861  -0.14905252      1728000    1453.1014        89200        68517 
17850000   0.99004167  -0.13919382      1728000    1453.9218        89250        68556 
17860000    1.0390956  -0.14189794      1728000    1454.7247        89300        68597 
17870000    1.0190678  -0.15041407      1728000    1455.5273        89350        68637 
17880000    0.9853656     -0.14387      1728000    1456.3455        89400        68675 
17890000   0.97660964  -0.15758777      1728000    1457.1667        89450        68718 
17900000   0.96277886   -0.1424487      1728000     1457.983        89500        68753 
17910000   0.93788058   -0.1547751      1728000    1458.8281        89550        68794 
17920000   0.99890679  -0.15087855      1728000    1459.6353        89600        68838 
17930000   0.94603421   -0.1427203      1728000    1460.4356        89650        68873 
17940000    1.0603755  -0.13994744      1728000    1461.2375        89700        68907 
17950000    1.0348515  -0.14033294      1728000    1462.0326        89750        68949 
17960000    0.9672479  -0.13847508      1728000    1462.8343        89800        68988 
17970000   0.98073545  -0.14921077      1728000    1463.6417        89850        69025 
17980000    1.0172444   -0.1434361      1728000    1464.4373        89900        69063 
17990000    1.0157837  -0.16169615      1728000    1465.2354        89950        69103 
18000000   0.98605975  -0.15019769      1728000    1466.0635        90000        69144 
18010000    1.0392613  -0.13685321      1728000    1466.8626        90050        69179 
18020000    1.0135289   -0.1468345      1728000    1467.6636        90100        69217 
18030000   0.98699315  -0.13449115      1728000    1468.4726        90150        69252 
18040000    1.0833883  -0.13000435      1728000    1469.2745        90200        69291 
18050000    1.0129204  -0.11221396      1728000    1470.0894        90250        69328 
18060000   0.99151627  -0.12500647      1728000    1470.8845        90300        69370 
18070000    1.0622978  -0.12822042      1728000    1471.6809        90350        69409 
18080000    1.0047466  -0.11831541      1728000    1472.4746        90400        69449 
18090000    1.0269299  -0.13419328      1728000    1473.2726        90450        69488 
18100000    0.9796378  -0.13917109      1728000    1474.1076        90500        69529 
18110000   0.96793411  -0.12336872      1728000    1474.9155        90550        69571 
18120000   0.99542173  -0.14472186      1728000    1475.7275        90600        69611 
18130000   0.99961208  -0.14338877      1728000    1476.5426        90650        69653 
18140000   0.98175832  -0.15424134      1728000     1477.347        90700        69695 
18150000     1.008832  -0.14500596      1728000    1478.1505        90750        69734 
18160000    1.0093857  -0.15328913      1728000    1478.9525        90800        69772 
18170000   0.98269365  -0.15099761      1728000    1479.7486        90850        69813 
18180000    1.0515456  -0.15652588      1728000    1480.5497        90900        69856 
18190000    1.0052083   -0.1689206      1728000    1481.3505        90950        69896 
18200000   0.97424251  -0.16456352      1728000    1482.1617        91000        69934 
18210000   0.97262664  -0.16272034      1728000    1482.9655        91050        69978 
18220000    1.0579357   -0.1485011      1728000    1483.7686        91100        70019 
18230000   0.97486461  -0.13828797      1728000    1484.5744        91150        70060 
18240000    0.9808227  -0.13610424      1728000    1485.3719        91200        70103 
18250000    1.0310315  -0.15472482      1728000    1486.1774        91250        70142 
18260000    1.0435872  -0.14396371      1728000    1486.9766        91300        70186 
18270000   0.99392211  -0.13101165      1728000    1487.7779        91350        70225 
18280000   0.95967902   -0.1312492      1728000    1488.5946        91400        70264 
18290000    1.0220927  -0.13490833      1728000    1489.3968        91450        70309 
18300000    1.0818031  -0.13804973      1728000    1490.2555        91500        70349 
18310000    1.0018707  -0.12590431      1728000    1491.0596        91550        70388 
18320000     1.008057   -0.1075073      1728000    1491.8545        91600        70429 
18330000   0.96840532  -0.11719879      1728000    1492.6476        91650        70471 
18340000    1.0280035  -0.11716786      1728000    1493.4466        91700        70516 
18350000   0.97807425  -0.12434024      1728000    1494.2616        91750        70557 
18360000   0.96763709  -0.11858977      1728000    1495.0673        91800        70592 
18370000   0.97801703  -0.12225188      1728000    1495.8877        91850        70636 
18380000    1.0212229  -0.12438544      1728000    1496.6935        91900        70678 
18390000   0.93639385  -0.12646159      1728000    1497.4937        91950        70715 
18400000    1.0283596  -0.13495829      1728000    1498.3031        92000        70754 
18410000    1.0006473  -0.13870997      1728000     1499.101        92050        70797 
18420000    1.0524922  -0.12579028      1728000    1499.8982        92100        70838 
18430000   0.98574074  -0.13605969      1728000    1500.7026        92150        70875 
18440000    1.0008287  -0.11834951      1728000    1501.5188        92200        70916 
18450000    1.0190015  -0.14522576      1728000    1502.3635        92250        70957 
18460000   0.97853708  -0.14174297      1728000    1503.1807        92300        70995 
18470000   0.98492863  -0.11532863      1728000    1504.0126        92350        71036 
18480000   0.99731219  -0.12550904      1728000    1504.8129        92400        71076 
18490000    1.0305249  -0.13122875      1728000    1505.6124        92450        71119 
18500000       1.0311  -0.13371507      1728000    1506.4185        92500        71159 
18510000   0.94748326  -0.11931861      1728000    1507.2177        92550        71197 
18520000    1.0772494    -0.125268      1728000    1508.0227        92600        71238 
18530000   0.95756289  -0.11899652      1728000    1508.8186        92650        71278 
18540000   0.97321692  -0.12726263      1728000    1509.6177        92700        71322 
18550000    1.0616358  -0.13486632      1728000    1510.4154        92750        71364 
18560000   0.97209703  -0.13431887      1728000    1511.2226        92800        71402 
18570000    0.9831516  -0.13601364      1728000    1512.0391        92850        71439 
18580000   0.98781638  -0.15060556      1728000    1512.8348        92900        71478 
18590000    1.0146925  -0.14946546      1728000    1513.6389        92950        71517 
18600000    1.0118366  -0.15770987      1728000    1514.4482        93000        71558 
18610000    1.0327764    -0.148529      1728000    1515.2532        93050        71598 
18620000     1.073368    -0.125402      1728000    1516.0466        93100        71640 
18630000     1.010746   -0.1288815      1728000     1516.844        93150        71678 
18640000    1.0098726   -0.1322386      1728000    1517.6446        93200        71719 
18650000   0.96992871  -0.12492763      1728000    1518.4399        93250        71758 
18660000   0.96121018  -0.13423608      1728000    1519.2307        93300        71798 
18670000   0.99026391  -0.12914199      1728000    1520.0215        93350        71838 
18680000   0.98899415  -0.14448903      1728000    1520.8206        93400        71878 
18690000    1.0346324  -0.14573821      1728000    1521.6156        93450        71911 
18700000     1.034822   -0.1415808      1728000    1522.4236        93500        71955 
18710000    1.0078096  -0.12988522      1728000    1523.2266        93550        71999 
18720000    1.0113805  -0.14239073      1728000    1524.0213        93600        72043 
18730000    1.0240726  -0.12618296      1728000    1524.8296        93650        72081 
18740000    1.0563961  -0.12052465      1728000    1525.6589        93700        72120 
18750000    1.0468162  -0.13613178      1728000    1526.4808        93750        72159 
18760000    1.0240726  -0.14730616      1728000    1527.2808        93800        72197 
18770000   0.98713711  -0.14466722      1728000    1528.0887        93850        72232 
18780000    1.0345142  -0.14766398      1728000    1528.8886        93900        72271 
18790000   0.93079676  -0.15414822      1728000    1529.6916        93950        72312 
18800000     1.016527  -0.15438399      1728000    1530.5005        94000        72348 
18810000   0.95117378  -0.14707441      1728000    1531.3006        94050        72388 
18820000   0.96143056  -0.13815066      1728000    1532.1005        94100        72430 
18830000     1.033747  -0.15570802      1728000    1532.9066        94150        72473 
18840000   0.98476482  -0.14324113      1728000    1533.7116        94200        72510 
18850000   0.97094034  -0.13752493      1728000    1534.5095        94250        72551 
18860000   0.99000892  -0.13314542      1728000    1535.3167        94300        72588 
18870000    1.0005307  -0.14275327      1728000    1536.1177        94350        72629 
18880000   0.99786359  -0.13790635      1728000    1536.9185        94400        72665 
18890000    1.0330623  -0.14262503      1728000    1537.7177        94450        72703 
18900000   0.97639135   -0.1341136      1728000    1538.5226        94500        72747 
18910000    1.0061319  -0.13540551      1728000    1539.3224        94550        72785 
18920000    1.0056344  -0.14169913      1728000    1540.1218        94600        72823 
18930000    1.0184707  -0.14120176      1728000    1540.9208        94650        72867 
18940000    1.0216124  -0.14030485      1728000    1541.7155        94700        72909 
18950000   0.98559869   -0.1345606      1728000    1542.5147        94750        72946 
18960000    1.0051387  -0.14163476      1728000    1543.3457        94800        72989 
18970000    1.0132386  -0.12800013      1728000    1544.1477        94850        73029 
18980000     1.038437  -0.15627723      1728000    1544.9515        94900        73072 
18990000    1.0367057  -0.13749181      1728000    1545.7867        94950        73111 
19000000   0.97818726  -0.14629078      1728000    1546.6097        95000        73147 
19010000     1.095941  -0.15730137      1728000    1547.4307        95050        73183 
19020000     1.020192   -0.1420556      1728000    1548.2356        95100        73224 
19030000   0.99093331  -0.16174159      1728000    1549.0369        95150        73266 
19040000    1.0252876  -0.15592324      1728000    1549.8476        95200        73302 
19050000    1.0220839  -0.14783342      1728000    1550.6535        95250        73337 
19060000    1.0546505  -0.15698756      1728000    1551.4586        95300        73374 
19070000    1.0113941  -0.15996096      1728000    1552.2577        95350        73416 
19080000    1.0419371  -0.12674718      1728000    1553.0676        95400        73457 
19090000    1.0421818  -0.13223622      1728000    1553.8695        95450        73502 
19100000    1.0356851  -0.14144289      1728000    1554.6806        95500        73538 
19110000    1.0421423  -0.15237209      1728000    1555.4895        95550        73574 
19120000   0.93721356  -0.17477489      1728000    1556.2992        95600        73616 
19130000   0.94609926   -0.1753763      1728000    1557.1116        95650        73650 
19140000     1.019667  -0.17812441      1728000    1557.9236        95700        73684 
19150000     1.055005  -0.18486614      1728000    1558.7418        95750        73717 
19160000    0.9714952  -0.17905183      1728000     1559.546        95800        73758 
19170000    1.0622085  -0.18069701      1728000    1560.3516        95850        73796 
19180000    1.0314066  -0.17457369      1728000    1561.1727        95900        73836 
19190000   0.99754725  -0.17800753      1728000    1561.9766        95950        73873 
19200000   0.99174906  -0.18321809      1728000    1562.7998        96000        73910 
19210000    1.0014102  -0.17100512      1728000    1563.5987        96050        73948 
19220000   0.96077077  -0.16010206      1728000    1564.4037        96100        73986 
19230000    1.0280356  -0.15299236      1728000    1565.2054        96150        74025 
19240000    1.0148176  -0.15762449      1728000    1566.0087        96200        74061 
19250000    1.0577502  -0.15016781      1728000    1566.8255        96250        74097 
19260000    1.0447642  -0.15278082      1728000    1567.6327        96300        74136 
19270000    1.0593055  -0.14887468      1728000    1568.4489        96350        74177 
19280000    1.0316156  -0.15962158      1728000    1569.2757        96400        74214 
19290000    0.9501764  -0.15767166      1728000    1570.0899        96450        74254 
19300000    1.0045426  -0.14703563      1728000    1570.9115        96500        74296 
19310000    1.0425934  -0.15913927      1728000    1571.7187        96550        74331 
19320000    1.0293574  -0.16839047      1728000    1572.5237        96600        74377 
19330000    1.0080992  -0.15926346      1728000    1573.3318        96650        74412 
19340000    1.0485248  -0.15824818      1728000    1574.1336        96700        74450 
19350000   0.99786738  -0.15830068      1728000    1574.9357        96750        74487 
19360000    1.0596293  -0.16390994      1728000    1575.7417        96800        74528 
19370000   0.98587473  -0.14108589      1728000    1576.5376        96850        74571 
19380000   0.98596518  -0.15283826      1728000    1577.3382        96900        74612 
19390000    1.0148652  -0.15566499      1728000    1578.1472        96950        74644 
19400000    1.0689653  -0.15636632      1728000    1578.9576        97000        74687 
19410000    1.0686505  -0.15371198      1728000     1579.757        97050        74724 
19420000    1.0007825  -0.16730768      1728000     1580.566        97100        74765 
19430000     1.048786  -0.14594418      1728000    1581.3677        97150        74798 
19440000    1.0186659  -0.15806736      1728000    1582.1723        97200        74835 
19450000    1.0164031  -0.14485147      1728000    1582.9768        97250        74874 
19460000   0.97775203  -0.14744496      1728000    1583.7922        97300        74917 
19470000    1.0413173  -0.14211792      1728000    1584.5964        97350        74954 
19480000   0.98896715  -0.14994182      1728000    1585.4043        97400        74989 
19490000   0.97466134  -0.15147237      1728000    1586.2158        97450        75027 
19500000    1.0142639  -0.15639564      1728000    1587.0308        97500        75062 
19510000   0.93217398  -0.14415674      1728000    1587.8316        97550        75100 
19520000     1.030503  -0.13875528      1728000    1588.6357        97600        75135 
19530000   0.96146551  -0.13731058      1728000    1589.4414        97650        75167 
19540000    0.9824128  -0.14616454      1728000     1590.244        97700        75205 
19550000    1.0620455  -0.14192974      1728000    1591.0622        97750        75237 
19560000   0.97011687  -0.14098183      1728000    1591.8693        97800        75277 
19570000    0.9308402  -0.14576975      1728000    1592.6748        97850        75312 
19580000   0.94862945  -0.14275194      1728000    1593.4758        97900        75351 
19590000   0.97759073  -0.15777274      1728000    1594.2781        97950        75390 
19600000   0.98648361  -0.14024793      1728000    1595.0866        98000        75429 
19610000   0.95596976  -0.12823234      1728000    1595.8936        98050        75469 
19620000    1.0458931  -0.14278649      1728000    1596.6976        98100        75506 
19630000   0.99726278  -0.15104309      1728000    1597.5135        98150        75550 
19640000   0.92282583  -0.14588458      1728000    1598.3556        98200        75588 
19650000    0.9847873  -0.14486412      1728000    1599.1786        98250        75628 
19660000   0.98700184  -0.13538819      1728000    1599.9899        98300        75672 
19670000    1.0074853  -0.13302694      1728000    1600.8287        98350        75706 
19680000    1.0198758  -0.13601581      1728000    1601.6328        98400        75748 
19690000    0.9885412  -0.13967062      1728000    1602.4388        98450        75784 
19700000    1.0153405  -0.12814218      1728000    1603.2936        98500        75819 
19710000   0.99071413  -0.14714898      1728000    1604.1108        98550        75863 
19720000   0.99836876  -0.15599673      1728000    1604.9198        98600        75903 
19730000   0.99309492  -0.15546343      1728000    1605.7227        98650        75940 
19740000    1.0101726  -0.15600492      1728000    1606.5197        98700        75977 
19750000   0.94810575  -0.16424611      1728000    1607.3307        98750        76014 
19760000   0.96771684  -0.15623789      1728000    1608.1378        98800        76052 
19770000    1.0534839  -0.16456419      1728000    1608.9385        98850        76086 
19780000    1.0322211   -0.1707251      1728000    1609.7367        98900        76124 
19790000    1.0230621  -0.15289618      1728000    1610.5588        98950        76159 
19800000   0.95613767  -0.16819042      1728000    1611.3676        99000        76203 
19810000    0.9413269  -0.15080934      1728000    1612.1824        99050        76244 
19820000    1.0663353  -0.16240444      1728000    1612.9876        99100        76286 
19830000    1.0742427  -0.16324996      1728000    1613.7936        99150        76322 
19840000   0.96751442   -0.1716726      1728000    1614.5947        99200        76360 
19850000   0.95172007   -0.1611296      1728000    1615.3989        99250        76395 
19860000   0.95517992  -0.16251898      1728000    1616.1968        99300        76437 
19870000   0.99045397  -0.13846456      1728000    1617.0046        99350        76477 
19880000    1.0164036  -0.15009843      1728000    1617.8077        99400        76519 
19890000   0.97941788  -0.14570783      1728000    1618.6135        99450        76553 
19900000   0.98407969  -0.14232047      1728000    1619.4257        99500        76590 
19910000   0.93319176  -0.14706082      1728000    1620.2495        99550        76625 
19920000    1.0009347  -0.15666137      1728000    1621.0637        99600        76663 
19930000    1.0526529   -0.1593244      1728000    1621.8636        99650        76708 
19940000   0.94946197  -0.15853923      1728000    1622.6768        99700        76745 
19950000   0.98464055  -0.16686631      1728000    1623.4828        99750        76784 
19960000   0.98249433  -0.16421452      1728000    1624.2947        99800        76818 
19970000   0.99764801  -0.16002229      1728000    1625.1017        99850        76855 
19980000   0.94138796  -0.14835403      1728000    1625.9418        99900        76894 
19990000    1.0538913  -0.14220123      1728000    1626.7628        99950        76934 
20000000   0.98822281  -0.14723439      1728000    1627.5836       100000        76977 
20010000    1.0278964  -0.15192494      1728000    1628.3796       100050        77021 
20020000   0.98720209  -0.16560226      1728000    1629.1935       100100        77064 
20030000   0.94398589  -0.14600894      1728000    1630.0028       100150        77100 
20040000    1.0172596  -0.14899386      1728000    1630.8077       100200        77141 
20050000    0.9935345  -0.16031895      1728000    1631.6208       100250        77181 
20060000    0.9811993  -0.15744021      1728000    1632.4338       100300        77217 
20070000   0.98495493  -0.16368358      1728000    1633.2279       100350        77259 
20080000    1.0167274  -0.15070508      1728000    1634.0427       100400        77300 
20090000   0.93016555  -0.14625674      1728000    1634.8676       100450        77334 
20100000    0.9413146  -0.14985752      1728000    1635.6858       100500        77369 
20110000   0.96529113  -0.15041781      1728000    1636.4955       100550        77407 
20120000     1.041225  -0.14933989      1728000    1637.2919       100600        77446 
20130000    1.0414232  -0.15503541      1728000    1638.1409       100650        77490 
20140000    1.0008418  -0.12962047      1728000    1638.9601       100700        77531 
20150000    1.0628251  -0.14360681      1728000    1639.7682       100750        77572 
20160000    1.0173479  -0.14729942      1728000    1640.5794       100800        77609 
20170000   0.97759413  -0.15469919      1728000    1641.3935       100850        77645 
20180000    0.9593801  -0.14124966      1728000    1642.2067       100900        77686 
20190000    1.0493837  -0.15316314      1728000    1643.0278       100950        77726 
20200000   0.95773327  -0.14919767      1728000    1643.8511       101000        77765 
20210000   0.98191445  -0.13929185      1728000    1644.6813       101050        77797 
20220000   0.91734151  -0.14364798      1728000    1645.4921       101100        77838 
20230000   0.97707046  -0.13594977      1728000    1646.2978       101150        77877 
20240000   0.99506673  -0.14053893      1728000    1647.1108       101200        77918 
20250000   0.98641436  -0.13369586      1728000    1647.9137       101250        77956 
20260000   0.99221251  -0.13820888      1728000    1648.7305       101300        77990 
20270000    1.0311518  -0.14306569      1728000    1649.5326       101350        78029 
20280000    1.0470104  -0.14814577      1728000    1650.3285       101400        78067 
20290000   0.98638662  -0.14380579      1728000    1651.1677       101450        78104 
20300000    1.0075703  -0.16152735      1728000    1651.9867       101500        78139 
20310000    0.9584466  -0.14035689      1728000    1652.8069       101550        78177 
20320000    1.0016111   -0.1464162      1728000    1653.6178       101600        78214 
20330000    1.0305546  -0.14562404      1728000    1654.4208       101650        78255 
20340000    1.0084515  -0.13138817      1728000    1655.2197       101700        78290 
20350000   0.94797606  -0.13692313      1728000    1656.0434       101750        78330 
20360000   0.99472633  -0.14659427      1728000     1656.847       101800        78373 
20370000   0.98900692  -0.12593216      1728000     1657.649       101850        78410 
20380000    1.0149318  -0.14084875      1728000    1658.4527       101900        78453 
20390000     0.985136  -0.14652208      1728000    1659.2528       101950        78493 
20400000    1.0015151  -0.13227153      1728000    1660.0638       102000        78534 
20410000   0.97626927   -0.1368943      1728000    1660.8637       102050        78575 
20420000    0.9832652   -0.1318817      1728000    1661.6708       102100        78613 
20430000     1.045308  -0.14358417      1728000     1662.472       102150        78654 
20440000    1.0882537  -0.14912706      1728000    1663.2841       102200        78689 
20450000    1.0179728  -0.14914672      1728000    1664.0837       102250        78732 
20460000    0.9812254  -0.14293158      1728000    1664.8929       102300        78774 
20470000    1.0378102  -0.16502363      1728000    1665.6911       102350        78816 
20480000   0.99843485  -0.15117659      1728000    1666.5232       102400        78850 
20490000   0.99312479  -0.16504043      1728000    1667.3178       102450        78891 
20500000    1.0026685  -0.16582148      1728000    1668.1298       102500        78929 
20510000    1.0522388  -0.16529361      1728000    1668.9288       102550        78968 
20520000     1.036419  -0.15967313      1728000    1669.7438       102600        79003 
20530000   0.97666738  -0.16205226      1728000    1670.5476       102650        79041 
20540000   0.94620663  -0.15803464      1728000    1671.3581       102700        79078 
20550000    1.0045961  -0.17110632      1728000    1672.1628       102750        79115 
20560000    1.0995721  -0.16986771      1728000    1672.9728       102800        79151 
20570000     1.024688  -0.17340382      1728000    1673.7828       102850        79188 
20580000    1.0164802  -0.17268646      1728000    1674.5828       102900        79227 
20590000   0.97412355  -0.17672914      1728000    1675.3828       102950        79268 
20600000    1.0452551  -0.16707957      1728000    1676.1957       103000        79308 
20610000    1.0557505  -0.15350393      1728000    1677.0178       103050        79343 
20620000   0.99793552  -0.16578263      1728000    1677.8374       103100        79377 
20630000    1.0494948  -0.16408358      1728000    1678.6391       103150        79416 
20640000    1.0389865  -0.15841334      1728000    1679.4573       103200        79453 
20650000   0.99590082  -0.16861693      1728000    1680.2687       103250        79486 
20660000    1.0136138  -0.17419781      1728000    1681.0772       103300        79526 
20670000    1.0585895  -0.16990267      1728000    1681.8784       103350        79567 
20680000    1.0287002  -0.15037719      1728000    1682.6835       103400        79608 
20690000     1.045791  -0.16300916      1728000    1683.5129       103450        79651 
20700000   0.93163959  -0.16884666      1728000    1684.3301       103500        79689 
20710000   0.95350405  -0.16858043      1728000    1685.1316       103550        79730 
20720000    1.0309131  -0.16656517      1728000    1685.9444       103600        79771 
20730000      1.04272  -0.16821787      1728000    1686.7569       103650        79811 
20740000   0.96074471  -0.15118912      1728000     1687.633       103700        79848 
20750000    1.0223299  -0.14821004      1728000    1688.4442       103750        79891 
20760000    0.9933285  -0.15843536      1728000    1689.2499       103800        79929 
20770000   0.92230455  -0.16367354      1728000    1690.0519       103850        79971 
20780000    1.0594763  -0.15785879      1728000    1690.8619       103900        80011 
20790000   0.99413957  -0.17426711      1728000    1691.6758       103950        80055 
20800000   0.95731331  -0.17229608      1728000    1692.4999       104000        80089 
20810000    0.9963785  -0.17380921      1728000    1693.3331       104050        80123 
20820000    1.0307577  -0.16844557      1728000     1694.137       104100        80160 
20830000      1.03054   -0.1622999      1728000    1694.9468       104150        80197 
20840000    1.0779409  -0.16630046      1728000    1695.7799       104200        80233 
20850000    1.0017482  -0.16157414      1728000    1696.5949       104250        80273 
20860000   0.97299024  -0.16466787      1728000     1697.407       104300        80304 
20870000    1.0285344    -0.167466      1728000    1698.2159       104350        80341 
20880000   0.97150787  -0.17244114      1728000     1699.047       104400        80376 
20890000   0.93776976  -0.18756653      1728000    1699.8587       104450        80415 
20900000    1.0419042  -0.15677148      1728000    1700.6858       104500        80449 
20910000    1.0293855  -0.14018551      1728000     1701.495       104550        80487 
20920000    1.0656152  -0.15114525      1728000    1702.2998       104600        80522 
20930000   0.98796807  -0.15276587      1728000    1703.1048       104650        80564 
20940000   0.96487685   -0.1587613      1728000    1703.9168       104700        80600 
20950000   0.93192708  -0.15506296      1728000    1704.7221       104750        80636 
20960000   0.91083729  -0.15542849      1728000      1705.52       104800        80676 
20970000   0.97397953    -0.142804      1728000    1706.3316       104850        80716 
20980000   0.99954548  -0.13743485      1728000    1707.1318       104900        80756 
20990000   0.95663731  -0.13690039      1728000    1707.9679       104950        80803 
21000000    1.0170817  -0.14703305      1728000     1708.786       105000        80844 
21010000   0.99727394  -0.14252154      1728000    1709.5858       105050        80888 
21020000    0.9994874  -0.14178427      1728000    1710.3858       105100        80930 
21030000   0.99319552   -0.1311185      1728000    1711.1919       105150        80968 
21040000    1.0100251  -0.13744046      1728000    1712.0156       105200        81011 
21050000   0.98170693  -0.13443349      1728000    1712.8282       105250        81052 
21060000    1.0332933  -0.13270566      1728000     1713.637       105300        81091 
21070000   0.94228999  -0.12084336      1728000     1714.446       105350        81123 
21080000   0.95856591  -0.12751457      1728000    1715.2438       105400        81162 
21090000    0.9913808  -0.12935318      1728000    1716.0669       105450        81203 
21100000   0.90674811  -0.13827717      1728000    1716.9029       105500        81245 
21110000    1.0163757  -0.14030811      1728000    1717.7111       105550        81283 
21120000   0.98979749  -0.13012412      1728000    1718.5138       105600        81325 
21130000   0.98613687  -0.13198632      1728000    1719.3128       105650        81362 
21140000   0.97224012  -0.13403486      1728000    1720.1106       105700        81398 
21150000   0.99462701  -0.13377127      1728000    1720.9179       105750        81434 
21160000   0.97418727  -0.14718997      1728000    1721.7318       105800        81479 
21170000    1.0509542  -0.14773042      1728000     1722.534       105850        81518 
21180000    1.0496928  -0.14490324      1728000    1723.3658       105900        81555 
21190000    1.0976654  -0.15399328      1728000    1724.1809       105950        81591 
21200000   0.93674022  -0.15076758      1728000    1725.0126       106000        81624 
21210000   0.96764895  -0.13229785      1728000    1725.8118       106050        81665 
21220000    0.9519537  -0.13497248      1728000    1726.6178       106100        81709 
21230000     1.019811  -0.14707174      1728000     1727.431       106150        81743 
21240000   0.94233376  -0.15358462      1728000    1728.2409       106200        81776 
21250000    1.0396678     -0.14672      1728000     1729.045       106250        81813 
21260000   0.96507134  -0.15009021      1728000    1729.8518       106300        81847 
21270000    1.0629189  -0.12980316      1728000    1730.6469       106350        81889 
21280000    1.0000588  -0.13517839      1728000    1731.4677       106400        81930 
21290000    1.0357823  -0.14394406      1728000    1732.2699       106450        81974 
21300000    1.0231613  -0.14381454      1728000    1733.0971       106500        82009 
21310000    1.0045916  -0.15583091      1728000     1733.905       106550        82044 
21320000   0.95940164  -0.15543573      1728000    1734.7087       106600        82082 
21330000   0.98753114  -0.14011603      1728000    1735.5039       106650        82119 
21340000    0.9863722  -0.16313169      1728000    1736.3095       106700        82157 
21350000   0.96386964  -0.15396076      1728000    1737.1128       106750        82194 
21360000    0.9879614  -0.15509864      1728000    1737.9149       106800        82232 
21370000     1.019237   -0.1560309      1728000    1738.7231       106850        82270 
21380000   0.98061114  -0.13774156      1728000    1739.5228       106900        82314 
21390000    1.0282182  -0.15807971      1728000    1740.3169       106950        82355 
21400000   0.98370971   -0.1475299      1728000    1741.1291       107000        82395 
21410000   0.94339935  -0.13762517      1728000    1741.9289       107050        82432 
21420000    1.0128349  -0.14648546      1728000     1742.724       107100        82463 
21430000    1.0052419  -0.12980755      1728000    1743.5301       107150        82504 
21440000    1.0488196   -0.1381953      1728000    1744.3249       107200        82542 
21450000    1.0128333  -0.14352734      1728000     1745.117       107250        82583 
21460000    1.0318981  -0.14856458      1728000    1745.9179       107300        82621 
21470000   0.99054303  -0.14080544      1728000    1746.7508       107350        82657 
21480000   0.96925925  -0.15155436      1728000    1747.5681       107400        82697 
21490000   0.95721947  -0.14669349      1728000      1748.37       107450        82741 
21500000    1.0261115  -0.13547603      1728000     1749.214       107500        82785 
21510000    1.0072772  -0.12156185      1728000    1750.0236       107550        82825 
21520000    1.0453376  -0.14129697      1728000    1750.8307       107600        82863 
21530000   0.93937509   -0.1377851      1728000     1751.664       107650        82903 
21540000    1.0095817  -0.13788417      1728000    1752.4704       107700        82941 
21550000    1.0068252  -0.12443882      1728000    1753.2698       107750        82983 
21560000   0.95664322  -0.12406262      1728000     1754.096       107800        83026 
21570000    1.0369203  -0.12995071      1728000    1754.8964       107850        83062 
21580000   0.99728163  -0.12643832      1728000    1755.6927       107900        83103 
21590000    0.9470621  -0.11815105      1728000    1756.4947       107950        83148 
21600000    0.9951224   -0.1268322      1728000    1757.3121       108000        83187 
21610000    1.0549642  -0.12488326      1728000    1758.1783       108050        83224 
21620000    1.0425652    -0.143765      1728000    1759.0024       108100        83268 
21630000     1.060818  -0.14776191      1728000    1759.7958       108150        83309 
21640000   0.96522386   -0.1350079      1728000     1760.598       108200        83346 
21650000    1.0048813  -0.14154245      1728000    1761.4017       108250        83386 
21660000   0.97814426  -0.13266595      1728000    1762.2023       108300        83422 
21670000    1.0503018  -0.12608103      1728000     1763.005       108350        83464 
21680000    1.0039324  -0.14823702      1728000    1763.8043       108400        83499 
21690000   0.95935257  -0.14491385      1728000    1764.6125       108450        83537 
21700000    1.0248482  -0.14525342      1728000    1765.4429       108500        83577 
21710000   0.97544299  -0.13655081      1728000    1766.2659       108550        83616 
21720000    1.0683574   -0.1230204      1728000    1767.0657       108600        83655 
21730000    1.0084524  -0.12515277      1728000    1767.8654       108650        83696 
21740000    1.0007181  -0.13819674      1728000    1768.6607       108700        83740 
21750000   0.98286128  -0.14031668      1728000     1769.491       108750        83783 
21760000    1.0155983  -0.12955948      1728000    1770.2962       108800        83822 
21770000    1.0231626  -0.13741567      1728000    1771.1034       108850        83859 
21780000    1.0957614  -0.14963154      1728000    1771.9082       108900        83900 
21790000   0.97431061    -0.149831      1728000    1772.7164       108950        83937 
21800000    0.9985801  -0.12918978      1728000    1773.5459       109000        83977 
21810000   0.99451958  -0.13852654      1728000    1774.3533       109050        84015 
21820000    1.0244075  -0.13642993      1728000    1775.1542       109100        84052 
21830000   0.98353544  -0.13138123      1728000    1775.9615       109150        84092 
21840000    1.0276116  -0.14987858      1728000    1776.7607       109200        84132 
21850000    1.0155967  -0.14582203      1728000    1777.5639       109250        84171 
21860000    1.0047407  -0.15497132      1728000     1778.407       109300        84203 
21870000    1.0041977  -0.16384499      1728000      1779.23       109350        84242 
21880000    1.0097858  -0.16627274      1728000    1780.0658       109400        84279 
21890000    1.0533312  -0.16217758      1728000    1780.8839       109450        84315 
21900000    1.0554359  -0.15271652      1728000    1781.6918       109500        84354 
21910000    1.0068149  -0.14566464      1728000    1782.4909       109550        84399 
21920000    1.0575873  -0.15735534      1728000    1783.2879       109600        84440 
21930000    1.0089828  -0.16434992      1728000    1784.1069       109650        84478 
21940000   0.98041393  -0.15538206      1728000    1784.9164       109700        84519 
21950000    1.0032603  -0.14679338      1728000    1785.7269       109750        84555 
21960000   0.99922326  -0.12705428      1728000    1786.5322       109800        84598 
21970000    1.0138147  -0.14720359      1728000    1787.3329       109850        84639 
21980000   0.99484328  -0.14736145      1728000     1788.133       109900        84683 
21990000    1.0154337  -0.14002013      1728000    1788.9488       109950        84724 
22000000    1.0150487  -0.13965602      1728000    1789.7589       110000        84764 
22010000    0.9762413  -0.14495988      1728000    1790.5618       110050        84804 
22020000    1.0622831  -0.14183984      1728000    1791.3681       110100        84839 
22030000    1.0460179  -0.14883523      1728000    1792.1656       110150        84881 
22040000   0.92925992  -0.15772401      1728000    1792.9895       110200        84919 
22050000   0.97884013  -0.15003222      1728000    1793.8129       110250        84959 
22060000    0.9703178  -0.16117612      1728000    1794.6311       110300        85000 
22070000    1.0000151  -0.16896334      1728000    1795.4374       110350        85036 
22080000   0.98038098  -0.15874993      1728000    1796.2408       110400        85074 
22090000    1.0032056  -0.15011271      1728000     1797.044       110450        85115 
22100000   0.97309689  -0.15488719      1728000    1797.8513       110500        85158 
22110000     1.036729  -0.14940629      1728000    1798.6575       110550        85197 
22120000    1.0335451  -0.15071338      1728000    1799.4626       110600        85234 
22130000    1.0765246  -0.16663534      1728000    1800.2791       110650        85267 
22140000     1.012608  -0.15467896      1728000    1801.0769       110700        85309 
22150000    1.0405887  -0.15149717      1728000    1801.8793       110750        85349 
22160000    1.0335074  -0.14895071      1728000    1802.6788       110800        85384 
22170000   0.97475364  -0.14686826      1728000    1803.4797       110850        85422 
22180000   0.98348066  -0.15516061      1728000    1804.2774       110900        85458 
22190000    1.0202648  -0.13352144      1728000    1805.0779       110950        85496 
22200000   0.92143228  -0.15047268      1728000     1805.889       111000        85535 
22210000    1.0036745  -0.15888075      1728000    1806.6968       111050        85569 
22220000    1.0137902  -0.14794765      1728000    1807.5279       111100        85607 
22230000   0.97396868  -0.14863298      1728000    1808.3479       111150        85647 
22240000    1.0084607  -0.14853559      1728000    1809.1529       111200        85681 
22250000   0.99275674  -0.14162118      1728000    1809.9649       111250        85718 
22260000    1.0200158  -0.13320275      1728000     1810.809       111300        85757 
22270000    1.0138639     -0.12362      1728000    1811.6049       111350        85797 
22280000    1.0164054  -0.10849357      1728000    1812.4039       111400        85841 
22290000    1.0022532  -0.12748997      1728000    1813.2089       111450        85880 
22300000   0.96775039  -0.13663983      1728000    1814.0199       111500        85919 
22310000    0.9960961  -0.13726521      1728000    1814.8177       111550        85955 
22320000    1.0145236  -0.13098935      1728000    1815.6209       111600        85997 
22330000    1.0357123  -0.14823207      1728000    1816.4208       111650        86039 
22340000    1.0047445  -0.11785951      1728000    1817.2189       111700        86078 
22350000    1.0160425  -0.14212227      1728000    1818.0196       111750        86120 
22360000    1.0776903  -0.14040808      1728000    1818.8218       111800        86162 
22370000    0.9782241  -0.14100458      1728000    1819.6173       111850        86206 
22380000   0.95273791  -0.14687405      1728000    1820.4126       111900        86241 
22390000    1.0036292  -0.15647895      1728000    1821.2103       111950        86278 
22400000    1.0021639  -0.14820317      1728000    1822.0144       112000        86318 
22410000    1.0216484   -0.1523171      1728000    1822.8155       112050        86355 
22420000    1.0643176  -0.15031403      1728000    1823.6228       112100        86392 
22430000     1.028696  -0.14825085      1728000    1824.4252       112150        86433 
22440000   0.96043374  -0.16963438      1728000     1825.228       112200        86473 
22450000   0.94725755  -0.15931677      1728000    1826.0592       112250        86511 
22460000     1.031289  -0.14736285      1728000    1826.8763       112300        86553 
22470000    1.0330851  -0.14887835      1728000    1827.6709       112350        86587 
22480000   0.97271259  -0.15355485      1728000    1828.4731       112400        86626 
22490000    1.0575763   -0.1466242      1728000    1829.2882       112450        86665 
22500000   0.98649605  -0.15375246      1728000    1830.1006       112500        86701 
22510000   0.98581818  -0.13972468      1728000    1830.9018       112550        86741 
22520000     1.018424  -0.13841508      1728000     1831.698       112600        86783 
22530000   0.96355512  -0.14341686      1728000    1832.4945       112650        86825 
22540000    1.0135932  -0.14327036      1728000    1833.3013       112700        86864 
22550000   0.99426838  -0.13137164      1728000    1834.0987       112750        86911 
22560000    1.0069388  -0.13648388      1728000    1834.9002       112800        86950 
22570000    1.0198243  -0.13122222      1728000     1835.703       112850        86990 
22580000   0.95241884    -0.153479      1728000    1836.5034       112900        87030 
22590000   0.96231686  -0.15413832      1728000    1837.3039       112950        87071 
22600000   0.93213822  -0.14658461      1728000    1838.1137       113000        87110 
22610000   0.99915839  -0.14570237      1728000    1838.9319       113050        87144 
22620000    1.0127591  -0.15739236      1728000    1839.7348       113100        87181 
22630000   0.98784886  -0.14223498      1728000     1840.561       113150        87224 
22640000   0.94322626  -0.14664805      1728000    1841.3629       113200        87268 
22650000   0.95427237  -0.15060835      1728000     1842.181       113250        87306 
22660000    1.0041866  -0.15160689      1728000     1842.985       113300        87340 
22670000   0.93133843  -0.16426082      1728000    1843.7819       113350        87374 
22680000   0.98059843  -0.15112859      1728000    1844.5797       113400        87414 
22690000    1.0663496  -0.13213294      1728000    1845.3932       113450        87455 
22700000   0.94150561   -0.1413911      1728000    1846.2039       113500        87501 
22710000   0.96969356  -0.14155665      1728000    1847.0191       113550        87537 
22720000   0.97392822   -0.1413681      1728000    1847.8411       113600        87573 
22730000    1.0259531  -0.14864263      1728000     1848.647       113650        87606 
22740000   0.94342601  -0.13909979      1728000    1849.4412       113700        87647 
22750000    1.0318847  -0.14423424      1728000    1850.2708       113750        87690 
22760000   0.97826898  -0.13976627      1728000    1851.0719       113800        87736 
22770000    1.0456572  -0.14998666      1728000    1851.8709       113850        87775 
22780000   0.94006608  -0.15793637      1728000    1852.6761       113900        87809 
22790000   0.98469049  -0.14027671      1728000    1853.4818       113950        87848 
22800000    1.0466104  -0.13668862      1728000    1854.2959       114000        87887 
22810000   0.97258696  -0.14664385      1728000    1855.0958       114050        87929 
22820000    1.0164799  -0.13875747      1728000    1855.8972       114100        87970 
22830000   0.96789316  -0.15292123      1728000    1856.6989       114150        88009 
22840000    0.9707247  -0.15027781      1728000     1857.522       114200        88041 
22850000   0.98078775  -0.13808633      1728000    1858.3298       114250        88080 
22860000   0.93714144   -0.1388623      1728000    1859.1339       114300        88124 
22870000    1.0643017  -0.14791162      1728000    1859.9387       114350        88163 
22880000    1.0285692  -0.13353656      1728000     1860.747       114400        88203 
22890000   0.96797077  -0.14072863      1728000     1861.551       114450        88246 
22900000    1.0303536  -0.14115816      1728000     1862.363       114500        88291 
22910000    1.0598832   -0.1535591      1728000    1863.1678       114550        88329 
22920000   0.98516517  -0.15385868      1728000    1863.9731       114600        88364 
22930000    1.0128146  -0.15513109      1728000    1864.7699       114650        88395 
22940000   0.96965819  -0.15209538      1728000     1865.588       114700        88434 
22950000    1.0293312   -0.1662489      1728000    1866.3919       114750        88475 
22960000   0.98878942  -0.16898677      1728000    1867.1988       114800        88515 
22970000    1.0630148  -0.16392551      1728000     1868.005       114850        88543 
22980000   0.98075958   -0.1587561      1728000     1868.811       114900        88581 
22990000    1.0888024  -0.13893703      1728000    1869.6119       114950        88623 
23000000   0.92134555  -0.15139287      1728000     1870.426       115000        88667 
23010000    1.0482347  -0.14773897      1728000     1871.222       115050        88708 
23020000    1.0326413  -0.14632266      1728000    1872.0256       115100        88746 
23030000   0.98882271  -0.15640865      1728000    1872.8256       115150        88788 
23040000   0.98640995   -0.1455485      1728000    1873.6251       115200        88825 
23050000    1.0053119  -0.13579629      1728000    1874.4462       115250        88864 
23060000    1.0316877  -0.13905655      1728000    1875.2552       115300        88903 
23070000     0.955198  -0.15417843      1728000    1876.0657       115350        88942 
23080000   0.95092657  -0.16135468      1728000    1876.8709       115400        88983 
23090000   0.99277865  -0.15853088      1728000    1877.6759       115450        89024 
23100000    1.0480736   -0.1523763      1728000      1878.49       115500        89059 
23110000    1.0580553  -0.13315069      1728000    1879.2939       115550        89096 
23120000    1.0048049  -0.15165304      1728000    1880.1029       115600        89138 
23130000    1.0081368  -0.14379316      1728000    1880.9052       115650        89182 
23140000    1.0416438  -0.15260228      1728000    1881.7049       115700        89221 
23150000    1.0079373  -0.16433979      1728000    1882.5091       115750        89259 
23160000   0.96297923  -0.15247252      1728000    1883.3472       115800        89297 
23170000    1.0428222  -0.15856722      1728000    1884.1496       115850        89335 
23180000   0.97773466  -0.15022465      1728000    1884.9527       115900        89373 
23190000    1.0365353  -0.15553266      1728000    1885.7532       115950        89413 
23200000    1.0098427   -0.1537054      1728000    1886.5641       116000        89453 
23210000   0.98557202  -0.14342616      1728000    1887.3651       116050        89488 
23220000   0.97384246  -0.15113512      1728000     1888.175       116100        89524 
23230000    1.0244688   -0.1625375      1728000     1888.984       116150        89562 
23240000   0.99066462  -0.16994567      1728000    1889.7791       116200        89597 
23250000    1.0304193  -0.15957883      1728000     1890.581       116250        89632 
23260000    1.0050336  -0.15772678      1728000     1891.386       116300        89669 
23270000   0.96773176  -0.15992492      1728000     1892.183       116350        89714 
23280000    1.0246497   -0.1491273      1728000    1892.9939       116400        89752 
23290000    1.0410344  -0.13665356      1728000     1893.798       116450        89793 
23300000    1.0311873  -0.15537085      1728000    1894.6081       116500        89835 
23310000   0.98357112  -0.16199349      1728000    1895.4381       116550        89874 
23320000    0.9955034  -0.15517004      1728000    1896.2503       116600        89909 
23330000    0.9727266  -0.15312712      1728000    1897.0629       116650        89951 
23340000    1.0167986   -0.1589523      1728000    1897.8689       116700        89986 
23350000   0.99404488  -0.16324957      1728000     1898.685       116750        90021 
23360000   0.92910475  -0.15567763      1728000    1899.4838       116800        90054 
23370000   0.99832089  -0.16235172      1728000     1900.287       116850        90093 
23380000    1.0237885  -0.17728179      1728000    1901.0967       116900        90138 
23390000   0.97721646  -0.16693531      1728000    1901.9038       116950        90173 
23400000   0.97889566   -0.1521337      1728000     1902.721       117000        90205 
23410000    1.0180313  -0.16353796      1728000    1903.5342       117050        90247 
23420000    1.0660721  -0.15820975      1728000    1904.3385       117100        90286 
23430000    1.0368971  -0.16495345      1728000    1905.1437       117150        90326 
23440000   0.98090878  -0.15597408      1728000    1905.9491       117200        90360 
23450000   0.99269424   -0.1601013      1728000    1906.7641       117250        90397 
23460000    1.0307991  -0.15299742      1728000    1907.5771       117300        90438 
23470000   0.99615973  -0.14426931      1728000    1908.3849       117350        90480 
23480000   0.95079478  -0.15304579      1728000     1909.197       117400        90517 
23490000    1.0109701  -0.14484026      1728000     1910.009       117450        90553 
23500000   0.98553685   -0.1695091      1728000    1910.8271       117500        90590 
23510000   0.99773516  -0.16052935      1728000    1911.6291       117550        90629 
23520000    1.0240958  -0.14964871      1728000      1912.43       117600        90663 
23530000   0.96414878  -0.15349193      1728000    1913.2478       117650        90704 
23540000    0.9942168  -0.15220426      1728000    1914.0571       117700        90738 
23550000    1.0328077  -0.15526458      1728000    1914.8657       117750        90779 
23560000   0.97836751  -0.14365418      1728000    1915.6762       117800        90814 
23570000    1.0069493  -0.15156094      1728000    1916.4779       117850        90850 
23580000   0.94894065  -0.14688381      1728000    1917.3161       117900        90882 
23590000   0.99978558  -0.15102229      1728000    1918.1173       117950        90921 
23600000    1.0305488  -0.15016091      1728000    1918.9442       118000        90961 
23610000   0.97819777  -0.15631014      1728000    1919.7503       118050        90993 
23620000     1.062211  -0.14568953      1728000    1920.5601       118100        91038 
23630000    1.0034959  -0.14495919      1728000    1921.3631       118150        91077 
23640000    1.0220098  -0.14423217      1728000     1922.166       118200        91117 
23650000   0.97944103  -0.13624968      1728000    1922.9652       118250        91156 
23660000    1.0432822  -0.13194538      1728000    1923.7666       118300        91191 
23670000   0.93691323  -0.13111968      1728000    1924.5568       118350        91231 
23680000     0.951058  -0.13907847      1728000     1925.371       118400        91272 
23690000    1.0313412  -0.13768056      1728000    1926.1751       118450        91311 
23700000   0.94733006  -0.14773091      1728000    1926.9843       118500        91352 
23710000   0.92125598   -0.1303661      1728000    1927.8045       118550        91389 
23720000   0.98178254  -0.13085694      1728000    1928.6017       118600        91431 
23730000    1.0086726   -0.1364686      1728000     1929.405       118650        91472 
23740000   0.97968871  -0.13534721      1728000    1930.2041       118700        91513 
23750000    1.0377559  -0.14644053      1728000    1931.0001       118750        91544 
23760000   0.98092364  -0.14783125      1728000     1931.799       118800        91580 
23770000   0.97070654  -0.14179428      1728000    1932.6141       118850        91618 
23780000   0.98733569  -0.13994628      1728000    1933.4265       118900        91657 
23790000    1.0177085  -0.14200506      1728000    1934.2281       118950        91696 
23800000    0.9793056  -0.14405246      1728000    1935.0419       119000        91733 
23810000    1.0316768  -0.14092711      1728000    1935.8439       119050        91773 
23820000     1.017372  -0.15415642      1728000    1936.6419       119100        91810 
23830000    1.0113338  -0.14289793      1728000    1937.4589       119150        91852 
23840000    1.0636076   -0.1540168      1728000    1938.2519       119200        91891 
23850000    0.9725641  -0.15867126      1728000    1939.0589       119250        91931 
23860000    1.0649672  -0.15032754      1728000     1939.858       119300        91972 
23870000   0.96302296  -0.13533093      1728000    1940.6541       119350        92011 
23880000   0.94793698  -0.13938029      1728000    1941.4449       119400        92050 
23890000    1.0202071  -0.13232899      1728000     1942.249       119450        92084 
23900000   0.99095635  -0.14616266      1728000    1943.0981       119500        92120 
23910000   0.97999935  -0.14802225      1728000    1943.9051       119550        92154 
23920000   0.95338687  -0.14917575      1728000    1944.7119       119600        92193 
23930000    1.0502847  -0.14456023      1728000    1945.5201       119650        92230 
23940000     1.040832   -0.1371783      1728000     1946.321       119700        92269 
23950000    1.0208525  -0.13127075      1728000    1947.1182       119750        92307 
23960000   0.95662022  -0.12614239      1728000    1947.9211       119800        92347 
23970000    1.0240436  -0.13642728      1728000    1948.7178       119850        92386 
23980000   0.99707062  -0.13902978      1728000    1949.5179       119900        92426 
23990000    1.0109381  -0.13315488      1728000    1950.3171       119950        92464 
24000000    0.9661245  -0.13430988      1728000    1951.1358       120000        92505 
24010000    1.0270873  -0.12465039      1728000    1951.9362       120050        92545 
24020000   0.98011711    -0.124355      1728000    1952.7361       120100        92582 
24030000    1.0366059  -0.13541155      1728000    1953.5341       120150        92618 
24040000    1.0160966  -0.13342916      1728000    1954.3409       120200        92655 
24050000    1.0051159   -0.1430252      1728000    1955.1637       120250        92696 
24060000   0.94669207  -0.14824567      1728000    1955.9651       120300        92734 
24070000   0.94085936  -0.14214366      1728000    1956.7861       120350        92777 
24080000   0.95968425  -0.14953818      1728000    1957.6016       120400        92818 
24090000   0.98949466   -0.1614683      1728000     1958.402       120450        92862 
24100000   0.97597427  -0.15445726      1728000    1959.2163       120500        92899 
24110000   0.96639288  -0.16947933      1728000     1960.017       120550        92940 
24120000    1.0416468   -0.1595348      1728000    1960.8364       120600        92978 
24130000    1.0379611  -0.15659196      1728000     1961.636       120650        93019 
24140000   0.98674923   -0.1460775      1728000    1962.4383       120700        93061 
24150000   0.96545892  -0.14093834      1728000    1963.2454       120750        93098 
24160000   0.95050601  -0.13683927      1728000    1964.0726       120800        93135 
24170000     1.023956  -0.15078198      1728000    1964.9049       120850        93171 
24180000    1.0638256  -0.16398574      1728000    1965.7235       120900        93211 
24190000    1.0394235  -0.14437969      1728000    1966.5301       120950        93251 
24200000    1.0188525  -0.13537063      1728000    1967.3409       121000        93290 
24210000    1.0004397  -0.14807753      1728000    1968.1412       121050        93331 
24220000     0.978872   -0.1417812      1728000    1968.9441       121100        93369 
24230000    1.0243153  -0.14412023      1728000    1969.7401       121150        93413 
24240000    1.0034386  -0.14344253      1728000    1970.5358       121200        93454 
24250000    1.0512929  -0.15702227      1728000    1971.3527       121250        93494 
24260000    1.0569782  -0.15201299      1728000     1972.165       121300        93531 
24270000    1.0213965  -0.15168721      1728000    1972.9711       121350        93569 
24280000     1.018513  -0.14241182      1728000    1973.7812       121400        93605 
24290000   0.97986285  -0.14789815      1728000    1974.5841       121450        93639 
24300000   0.97144554   -0.1412095      1728000    1975.3982       121500        93679 
24310000   0.99409268  -0.14968314      1728000    1976.2073       121550        93713 
24320000    1.0131194  -0.15825107      1728000    1977.0048       121600        93758 
24330000   0.98848538  -0.15982761      1728000    1977.8051       121650        93796 
24340000   0.99307758  -0.17220023      1728000     1978.615       121700        93828 
24350000    1.0410259  -0.16714724      1728000     1979.422       121750        93862 
24360000   0.95152015  -0.16413031      1728000      1980.23       121800        93893 
24370000   0.94720083  -0.17247547      1728000    1981.0753       121850        93928 
24380000   0.98969321  -0.15399982      1728000      1981.88       121900        93965 
24390000    1.0441111  -0.17771639      1728000    1982.7099       121950        94004 
24400000    1.0032744  -0.18306036      1728000    1983.5332       122000        94041 
24410000    1.0473234  -0.17338356      1728000    1984.3441       122050        94076 
24420000    1.0252058  -0.17709497      1728000    1985.1502       122100        94114 
24430000   0.95336155  -0.17154001      1728000    1985.9623       122150        94150 
24440000    1.0184813  -0.17234683      1728000    1986.7753       122200        94188 
24450000     1.007744  -0.16223673      1728000     1987.583       122250        94225 
24460000   0.99038422  -0.15608637      1728000    1988.4011       122300        94264 
24470000   0.97012533  -0.15053607      1728000    1989.2022       122350        94302 
24480000    1.0551395  -0.15971624      1728000    1990.0069       122400        94338 
24490000    0.9961139  -0.15761601      1728000    1990.8209       122450        94374 
24500000    1.0168488  -0.15914808      1728000    1991.6279       122500        94412 
24510000   0.99309569  -0.14035995      1728000    1992.4291       122550        94454 
24520000   0.98264939  -0.14085512      1728000    1993.2343       122600        94495 
24530000   0.96573297  -0.12962687      1728000    1994.0362       122650        94537 
24540000    1.0442484   -0.1351971      1728000    1994.8322       122700        94578 
24550000   0.98378869  -0.12649114      1728000    1995.6361       122750        94620 
24560000     1.075419  -0.12645016      1728000    1996.4433       122800        94658 
24570000   0.98322953   -0.1313891      1728000    1997.2682       122850        94702 
24580000   0.89982827  -0.12431344      1728000    1998.0934       122900        94742 
24590000    1.0047881  -0.12213085      1728000    1998.8896       122950        94784 
24600000    1.0184225  -0.11943505      1728000    1999.7094       123000        94824 
24610000     1.022471  -0.13416463      1728000    2000.5131       123050        94863 
24620000    1.0765585  -0.12048128      1728000    2001.3189       123100        94903 
24630000    1.0221159  -0.12865377      1728000     2002.124       123150        94946 
24640000    1.0636233  -0.14142835      1728000    2002.9242       123200        94986 
24650000    1.0131119  -0.15233216      1728000    2003.7203       123250        95026 
24660000   0.98351878  -0.13876891      1728000    2004.5187       123300        95062 
24670000    1.0725336  -0.15522587      1728000    2005.3249       123350        95101 
24680000    0.9874551  -0.16213092      1728000    2006.1431       123400        95145 
24690000    1.0188104  -0.17028069      1728000    2006.9471       123450        95184 
24700000   0.96318548  -0.17197064      1728000     2007.763       123500        95221 
24710000    1.0586415  -0.16020114      1728000    2008.5661       123550        95257 
24720000    1.0512412  -0.15223969      1728000     2009.364       123600        95293 
24730000    1.0414293  -0.14602156      1728000    2010.1612       123650        95331 
24740000   0.98606055  -0.15653985      1728000    2010.9571       123700        95371 
24750000   0.94470108  -0.16872792      1728000    2011.7693       123750        95409 
24760000    1.0049531  -0.16052754      1728000    2012.5719       123800        95445 
24770000   0.95851541  -0.16472454      1728000     2013.383       123850        95483 
24780000   0.97038154  -0.16947713      1728000    2014.2202       123900        95519 
24790000   0.92331252  -0.14838105      1728000    2015.0243       123950        95564 
24800000   0.97675053  -0.14934195      1728000    2015.8271       124000        95599 
24810000    1.0340349  -0.16128097      1728000    2016.6272       124050        95639 
24820000    1.0201662  -0.15097592      1728000     2017.431       124100        95678 
24830000   0.96850952  -0.14626753      1728000    2018.2332       124150        95723 
24840000    1.0390914  -0.14242734      1728000    2019.0412       124200        95759 
24850000    1.0006536  -0.15099423      1728000    2019.8461       124250        95801 
24860000    1.0438162    -0.161439      1728000    2020.6492       124300        95842 
24870000   0.95518052  -0.16124745      1728000     2021.463       124350        95882 
24880000    1.0140052  -0.16661506      1728000    2022.2735       124400        95915 
24890000   0.93596239  -0.15983554      1728000    2023.0877       124450        95953 
24900000    1.0266742  -0.16300418      1728000    2023.9083       124500        95991 
24910000    1.0223464  -0.14490609      1728000    2024.7135       124550        96024 
24920000   0.94516452   -0.1535476      1728000    2025.5147       124600        96063 
24930000   0.98752566  -0.16099628      1728000    2026.3351       124650        96098 
24940000    1.0462833  -0.16178636      1728000    2027.1423       124700        96136 
24950000   0.95770694  -0.15070317      1728000    2027.9481       124750        96177 
24960000   0.98195402   -0.1523198      1728000    2028.7584       124800        96216 
24970000    1.0386801  -0.15837887      1728000    2029.5608       124850        96254 
24980000   0.99036845  -0.16780712      1728000    2030.3603       124900        96288 
24990000   0.98534918  -0.16736106      1728000    2031.1635       124950        96328 
25000000    1.0420058   -0.1627671      1728000    2032.0051       125000        96371 
25010000   0.99387217  -0.15415394      1728000    2032.8251       125050        96404 
25020000   0.97224617  -0.16732998      1728000    2033.6382       125100        96440 
25030000   0.97262372  -0.15800888      1728000     2034.435       125150        96475 
25040000    1.0177245   -0.1545075      1728000    2035.2393       125200        96517 
25050000    1.0190542  -0.15750221      1728000    2036.0695       125250        96551 
25060000   0.98900288  -0.16786752      1728000    2036.8741       125300        96590 
25070000    1.0410063  -0.15999441      1728000    2037.6953       125350        96628 
25080000    1.0130575  -0.16907403      1728000    2038.4992       125400        96664 
25090000    1.0189561  -0.15088922      1728000    2039.3155       125450        96704 
25100000    1.0448003  -0.16173341      1728000    2040.1266       125500        96744 
25110000   0.94105319  -0.15645369      1728000    2040.9423       125550        96782 
25120000    1.0039351  -0.15122068      1728000    2041.7555       125600        96815 
25130000    1.0087977  -0.15373807      1728000     2042.565       125650        96853 
25140000    1.0006224   -0.1541022      1728000    2043.3662       125700        96893 
25150000    1.0211023  -0.15843011      1728000    2044.1698       125750        96928 
25160000    1.0594737  -0.16162402      1728000    2044.9821       125800        96964 
25170000   0.98183774  -0.14184194      1728000    2045.7941       125850        97004 
25180000    1.0027475  -0.13713909      1728000    2046.6031       125900        97042 
25190000    1.0302223  -0.13272484      1728000    2047.4238       125950        97081 
25200000   0.97915281  -0.15263661      1728000    2048.2532       126000        97119 
25210000    1.0137145  -0.14183702      1728000    2049.0551       126050        97155 
25220000    1.0033466   -0.1394501      1728000    2049.8521       126100        97195 
25230000   0.98308655  -0.13550381      1728000    2050.6551       126150        97232 
25240000   0.94725541  -0.14235315      1728000    2051.4751       126200        97275 
25250000   0.98836457  -0.14216423      1728000    2052.2803       126250        97315 
25260000    1.0073587  -0.14339223      1728000    2053.0816       126300        97353 
25270000    1.0129583  -0.15096213      1728000    2053.9065       126350        97389 
25280000    1.0813747  -0.12703816      1728000    2054.7012       126400        97432 
25290000    0.9885952  -0.15366124      1728000       2055.5       126450        97468 
25300000    1.0138423  -0.15527879      1728000     2056.314       126500        97503 
25310000    1.0524443  -0.15303791      1728000    2057.1162       126550        97544 
25320000    1.0407279  -0.16305195      1728000    2057.9163       126600        97586 
25330000    1.0241104  -0.16462709      1728000     2058.752       126650        97618 
25340000    0.9950103  -0.16356782      1728000    2059.5871       126700        97656 
25350000    1.0209782  -0.16533533      1728000    2060.3972       126750        97694 
25360000   0.99453548  -0.16107629      1728000    2061.2081       126800        97732 
25370000    1.0041253  -0.16261032      1728000    2062.0186       126850        97770 
25380000    1.0069528  -0.15415335      1728000     2062.819       126900        97808 
25390000     1.031438  -0.15259365      1728000    2063.6232       126950        97850 
25400000   0.97948663  -0.15328903      1728000    2064.4355       127000        97885 
25410000    1.0497758  -0.15382947      1728000    2065.2441       127050        97924 
25420000    1.0068083  -0.14286318      1728000    2066.0422       127100        97963 
25430000    1.0178378  -0.14338867      1728000    2066.8427       127150        98000 
25440000    1.0158121  -0.15850553      1728000    2067.6336       127200        98045 
25450000    1.0308875  -0.14767473      1728000    2068.4368       127250        98080 
25460000    1.0697552  -0.15854404      1728000    2069.2424       127300        98118 
25470000   0.99167441  -0.15901894      1728000    2070.0431       127350        98159 
25480000   0.98233078  -0.16232975      1728000    2070.8513       127400        98195 
25490000   0.97693834  -0.15144185      1728000    2071.6742       127450        98233 
25500000   0.93889872  -0.14768559      1728000    2072.4821       127500        98270 
25510000   0.96489784  -0.14214524      1728000    2073.2843       127550        98308 
25520000     1.032876  -0.15037357      1728000    2074.0952       127600        98344 
25530000    1.0366953  -0.14321306      1728000     2074.905       127650        98380 
25540000    1.0077237  -0.15269627      1728000    2075.7117       127700        98418 
25550000    1.0095733  -0.16319697      1728000    2076.5233       127750        98455 
25560000    1.0711005  -0.16439582      1728000    2077.3353       127800        98491 
25570000    1.0396548  -0.16250211      1728000    2078.1524       127850        98532 
25580000    1.0412666  -0.15602389      1728000    2078.9512       127900        98569 
25590000   0.99436582  -0.16664652      1728000    2079.7526       127950        98608 
25600000    0.9749252  -0.16531934      1728000    2080.5661       128000        98644 
25610000   0.97986011  -0.15817438      1728000    2081.3752       128050        98679 
25620000     1.026234  -0.15001191      1728000     2082.181       128100        98718 
25630000   0.95224007   -0.1566374      1728000    2082.9932       128150        98757 
25640000    1.0106014   -0.1511098      1728000    2083.8042       128200        98797 
25650000    1.0042864  -0.15200873      1728000    2084.6144       128250        98831 
25660000    1.0056567  -0.15825904      1728000    2085.4213       128300        98867 
25670000    1.0084523  -0.14656069      1728000    2086.2181       128350        98908 
25680000    1.0392495   -0.1555557      1728000    2087.0334       128400        98949 
25690000   0.93384159  -0.16107239      1728000    2087.8346       128450        98994 
25700000   0.98865961  -0.14139606      1728000    2088.6725       128500        99025 
25710000     1.008175  -0.13939321      1728000    2089.5096       128550        99062 
25720000   0.97067742  -0.14036602      1728000     2090.322       128600        99101 
25730000     0.960246   -0.1460517      1728000    2091.1232       128650        99141 
25740000   0.94536084  -0.13155189      1728000    2091.9605       128700        99181 
25750000   0.96964181  -0.13763248      1728000     2092.758       128750        99224 
25760000   0.96352216  -0.13879891      1728000    2093.5692       128800        99263 
25770000    1.0696285  -0.13091652      1728000    2094.3686       128850        99302 
25780000     1.029958  -0.13058639      1728000    2095.1796       128900        99342 
25790000   0.98307561  -0.14313946      1728000    2095.9819       128950        99379 
25800000    1.0049779  -0.14296451      1728000     2096.795       129000        99418 
25810000    1.0157233  -0.14238309      1728000    2097.5953       129050        99455 
25820000    0.9514989  -0.15042062      1728000    2098.4145       129100        99493 
25830000    1.0450622  -0.15780228      1728000    2099.2156       129150        99535 
25840000   0.96195007  -0.14747071      1728000    2100.0225       129200        99577 
25850000   0.98792175  -0.14747299      1728000    2100.8259       129250        99617 
25860000   0.99506052  -0.13907333      1728000    2101.6311       129300        99655 
25870000    1.0082511  -0.15781604      1728000    2102.4354       129350        99695 
25880000   0.96525758  -0.13715006      1728000    2103.2415       129400        99735 
25890000   0.97810283  -0.13912076      1728000    2104.0436       129450        99771 
25900000   0.97726904  -0.13727031      1728000    2104.8627       129500        99808 
25910000    1.0375127  -0.14752919      1728000    2105.6599       129550        99849 
25920000    1.0219613  -0.13603349      1728000    2106.4641       129600        99890 
25930000    1.0502719  -0.14721063      1728000    2107.2803       129650        99932 
25940000     1.001051  -0.13152097      1728000    2108.1214       129700        99974 
25950000    1.0098612  -0.12452185      1728000    2108.9765       129750       100016 
25960000    1.0499049  -0.14434432      1728000    2109.8496       129800       100055 
25970000    1.0224855  -0.14699474      1728000    2110.7608       129850       100096 
25980000   0.97644663  -0.14826234      1728000    2111.5919       129900       100138 
25990000    1.0301786  -0.14279556      1728000     2112.451       129950       100181 
26000000    1.0079889  -0.15238989      1728000    2113.3071       130000       100228 
26010000    1.0051104  -0.13976792      1728000    2114.1503       130050       100267 
26020000    1.0568296  -0.13478979      1728000    2115.0054       130100       100306 
26030000    1.0992848  -0.12402734      1728000    2115.8865       130150       100349 
26040000   0.99269251  -0.13468301      1728000    2116.7326       130200       100388 
26050000    1.0105881  -0.13835605      1728000    2117.5477       130250       100422 
26060000   0.98381701  -0.13440346      1728000    2118.3781       130300       100460 
26070000    1.0250157  -0.13832246      1728000    2119.2076       130350       100502 
26080000   0.94747932  -0.14218565      1728000    2120.0517       130400       100538 
26090000     1.054525   -0.1508413      1728000     2120.865       130450       100579 
26100000    1.0671403   -0.1409662      1728000    2121.6846       130500       100620 
26110000   0.99993033  -0.14856047      1728000    2122.5009       130550       100658 
26120000   0.99232586  -0.15500302      1728000    2123.3224       130600       100696 
26130000    1.0349474  -0.15055082      1728000    2124.1338       130650       100733 
26140000    1.0510461   -0.1447284      1728000    2124.9624       130700       100773 
26150000    1.0021859  -0.14639299      1728000    2125.7975       130750       100805 
26160000   0.99154584  -0.15699958      1728000    2126.6278       130800       100843 
26170000    1.0784387  -0.15869009      1728000    2127.4499       130850       100876 
26180000   0.96848012    -0.150998      1728000     2128.336       130900       100913 
26190000   0.97745292  -0.13471621      1728000     2129.214       130950       100952 
26200000    1.0347793  -0.14371764      1728000    2130.0365       131000       100989 
26210000   0.96037494    -0.143021      1728000    2130.8453       131050       101024 
26220000    1.0874915  -0.13103927      1728000    2131.6989       131100       101064 
26230000    1.0372339  -0.13390957      1728000    2132.5602       131150       101101 
26240000     1.077282  -0.14097777      1728000    2133.4115       131200       101144 
26250000    1.0170339  -0.14400218      1728000    2134.2407       131250       101188 
26260000   0.99445121  -0.14239034      1728000    2135.0623       131300       101227 
26270000     1.020595  -0.13647605      1728000     2135.878       131350       101268 
26280000   0.94992055  -0.14942136      1728000    2136.6983       131400       101305 
26290000   0.98226862  -0.13886621      1728000    2137.5382       131450       101347 
26300000   0.98592438   -0.1369729      1728000    2138.3623       131500       101387 
26310000   0.94668821  -0.13880513      1728000    2139.1823       131550       101428 
26320000   0.98088321  -0.14970861      1728000    2140.0202       131600       101468 
26330000    1.0161501  -0.15275085      1728000    2140.8343       131650       101507 
26340000   0.99144361  -0.16832733      1728000    2141.6442       131700       101545 
26350000   0.94547137  -0.15304823      1728000    2142.4501       131750       101579 
26360000   0.91901526  -0.15210169      1728000    2143.2562       131800       101616 
26370000   0.98411955  -0.16513048      1728000    2144.0682       131850       101656 
26380000   0.95689397  -0.16845243      1728000     2144.879       131900       101692 
26390000    1.0249399  -0.16906919      1728000    2145.6942       131950       101732 
26400000   0.98504315  -0.15231278      1728000    2146.5183       132000       101768 
26410000   0.99624464  -0.16216755      1728000     2147.317       132050       101810 
26420000    1.0636428  -0.14823636      1728000    2148.1272       132100       101851 
26430000   0.97109246  -0.14967372      1728000    2148.9355       132150       101889 
26440000    1.0225388  -0.15527278      1728000    2149.7443       132200       101929 
26450000    0.9632853  -0.14322517      1728000    2150.5619       132250       101970 
26460000   0.99161406  -0.15969344      1728000     2151.372       132300       102011 
26470000   0.91062429  -0.15512227      1728000    2152.1833       132350       102050 
26480000    1.0402756  -0.15693972      1728000    2153.0045       132400       102088 
26490000    1.0057699  -0.16008447      1728000    2153.8383       132450       102126 
26500000   0.96161956  -0.15832958      1728000    2154.6596       132500       102163 
26510000    1.0273269  -0.14624429      1728000    2155.4673       132550       102200 
26520000    1.0215199  -0.14528834      1728000    2156.2855       132600       102239 
26530000    1.0124512  -0.15176304      1728000    2157.1007       132650       102272 
26540000    1.0057324  -0.13150649      1728000    2157.9309       132700       102314 
26550000    1.0192272  -0.13371833      1728000     2158.771       132750       102355 
26560000   0.98132757  -0.13228263      1728000    2159.6511       132800       102391 
26570000   0.97491259  -0.13359613      1728000    2160.4904       132850       102431 
26580000   0.98104884  -0.13067277      1728000    2161.4024       132900       102473 
26590000    1.0258309  -0.14594774      1728000    2162.2905       132950       102517 
26600000      1.08653  -0.13665945      1728000    2163.1306       133000       102559 
26610000   0.94451555   -0.1372197      1728000    2163.9667       133050       102599 
26620000    1.0036183  -0.12334538      1728000    2164.7949       133100       102638 
26630000   0.98455214  -0.12372506      1728000    2165.6451       133150       102678 
26640000   0.98067716  -0.14647131      1728000    2166.4792       133200       102717 
26650000    1.0339138  -0.15183456      1728000    2167.3044       133250       102760 
26660000   0.96008558  -0.14921567      1728000    2168.1266       133300       102795 
26670000    1.0246574  -0.16402352      1728000    2168.9402       133350       102830 
26680000    1.0240324  -0.15709316      1728000    2169.7494       133400       102869 
26690000   0.96515757  -0.15971154      1728000    2170.5615       133450       102908 
26700000   0.94973994   -0.1572274      1728000    2171.3763       133500       102944 
26710000     1.025761  -0.15568471      1728000    2172.1911       133550       102978 
26720000   0.98203212  -0.16012834      1728000    2173.0024       133600       103013 
26730000    1.0075115   -0.1627945      1728000    2173.8154       133650       103052 
26740000    1.0054684  -0.16205651      1728000    2174.6302       133700       103088 
26750000    1.0041878  -0.15430676      1728000    2175.4413       133750       103126 
26760000   0.98909868  -0.16813979      1728000    2176.2493       133800       103163 
26770000    1.0343557  -0.17595158      1728000    2177.0674       133850       103196 
26780000    1.0374442      -0.1698      1728000    2177.8793       133900       103235 
26790000   0.98716918   -0.1654828      1728000    2178.7181       133950       103271 
26800000    0.9828787  -0.16369408      1728000    2179.5465       134000       103306 
26810000   0.93903918  -0.16781589      1728000    2180.3603       134050       103349 
26820000   0.94288096  -0.16218547      1728000    2181.1713       134100       103386 
26830000    1.0468478  -0.15552648      1728000    2181.9851       134150       103427 
26840000    1.0029085  -0.15655443      1728000    2182.8022       134200       103466 
26850000   0.97388563  -0.16499858      1728000    2183.6302       134250       103506 
26860000   0.97509494  -0.16650328      1728000    2184.4523       134300       103546 
26870000     1.004291  -0.17123109      1728000    2185.2779       134350       103583 
26880000    1.0223292  -0.16301082      1728000    2186.0984       134400       103619 
26890000    1.0371724  -0.13968887      1728000    2186.9123       134450       103660 
26900000    1.0162904   -0.1547846      1728000    2187.7282       134500       103697 
26910000   0.96781811  -0.14853616      1728000    2188.5373       134550       103735 
26920000    1.0216301  -0.15272637      1728000    2189.3443       134600       103776 
26930000    1.0206486  -0.14863622      1728000    2190.1494       134650       103811 
26940000    1.0335018  -0.15573255      1728000    2190.9591       134700       103852 
26950000   0.98867227  -0.14479324      1728000    2191.7722       134750       103892 
26960000    1.0088087  -0.17063396      1728000    2192.6023       134800       103934 
26970000   0.91480319    -0.167255      1728000    2193.4302       134850       103972 
26980000   0.98104276  -0.15858647      1728000    2194.2704       134900       104015 
26990000   0.97258989  -0.16574658      1728000    2195.0787       134950       104053 
27000000   0.96615159  -0.15608552      1728000    2195.9058       135000       104093 
27010000    1.0016249  -0.16267471      1728000     2196.717       135050       104131 
27020000    1.0410766  -0.15299444      1728000    2197.5558       135100       104168 
27030000   0.99516578  -0.15706941      1728000    2198.3823       135150       104212 
27040000    1.0493348  -0.15318303      1728000    2199.1884       135200       104250 
27050000   0.96776023  -0.14840985      1728000    2200.0304       135250       104290 
27060000    1.0354919  -0.16412589      1728000    2200.8424       135300       104330 
27070000   0.98692333  -0.16386898      1728000    2201.6714       135350       104369 
27080000   0.97127844  -0.17814837      1728000    2202.4783       135400       104406 
27090000    1.0076356  -0.17872112      1728000    2203.2892       135450       104441 
27100000    1.0545695  -0.16885547      1728000    2204.1362       135500       104480 
27110000   0.95752351  -0.16878692      1728000    2204.9803       135550       104515 
27120000    0.9603664  -0.14974171      1728000    2205.7863       135600       104553 
27130000    1.0029605  -0.15210467      1728000    2206.6053       135650       104594 
27140000    1.0293559  -0.14960799      1728000    2207.4194       135700       104631 
27150000     1.020613   -0.1536882      1728000    2208.2423       135750       104669 
27160000    1.0080807  -0.15863604      1728000    2209.0504       135800       104704 
27170000   0.97285132  -0.15860749      1728000    2209.8684       135850       104739 
27180000    1.0228874  -0.16814568      1728000    2210.6794       135900       104774 
27190000     0.944397  -0.15458054      1728000    2211.5182       135950       104812 
27200000    1.0325296  -0.17813087      1728000    2212.3451       136000       104852 
27210000   0.99049749  -0.17360513      1728000    2213.1571       136050       104887 
27220000     1.033412  -0.16383135      1728000    2213.9797       136100       104930 
27230000   0.98071173  -0.15927861      1728000    2214.7921       136150       104967 
27240000    1.0288904   -0.1539911      1728000    2215.6072       136200       105010 
27250000    1.0082279  -0.14499542      1728000    2216.4256       136250       105050 
27260000    1.0385125  -0.14104056      1728000    2217.2397       136300       105093 
27270000   0.98329975  -0.13813275      1728000    2218.0533       136350       105135 
27280000   0.93142916  -0.13622081      1728000    2218.8704       136400       105173 
27290000     1.056261  -0.14056677      1728000    2219.6794       136450       105213 
27300000    1.0372379   -0.1498099      1728000    2220.4974       136500       105252 
27310000    1.0091509  -0.14843806      1728000    2221.3001       136550       105288 
27320000    1.0386141  -0.14759341      1728000    2222.1025       136600       105326 
27330000    1.0283699   -0.1397328      1728000    2222.9053       136650       105366 
27340000   0.95704067  -0.15459392      1728000    2223.7116       136700       105411 
27350000   0.94439602  -0.15199892      1728000    2224.5168       136750       105447 
27360000    1.0273545  -0.14263142      1728000    2225.3193       136800       105492 
27370000   0.96797443  -0.15529057      1728000    2226.1202       136850       105534 
27380000   0.96718137  -0.13930023      1728000    2226.9272       136900       105573 
27390000   0.96969106  -0.14933949      1728000    2227.7334       136950       105616 
27400000   0.99933201  -0.14801193      1728000    2228.5964       137000       105652 
27410000    1.1035648  -0.14102791      1728000    2229.4054       137050       105692 
27420000    1.0044514  -0.13462917      1728000    2230.2193       137100       105734 
27430000    1.0079162  -0.13906501      1728000    2231.0362       137150       105777 
27440000    1.0408378   -0.1344175      1728000    2231.8513       137200       105818 
27450000    1.0290295  -0.13542101      1728000    2232.6742       137250       105859 
27460000   0.99204114  -0.14501331      1728000    2233.4893       137300       105898 
27470000   0.97865859  -0.13087928      1728000    2234.3158       137350       105941 
27480000    1.0349322  -0.13389456      1728000    2235.1442       137400       105981 
27490000    0.9823169  -0.13398844      1728000    2235.9964       137450       106018 
27500000   0.97687418  -0.14155805      1728000    2236.8148       137500       106058 
27510000    1.0505412  -0.14311112      1728000    2237.6443       137550       106098 
27520000    1.0230501  -0.13861552      1728000    2238.4584       137600       106138 
27530000    1.0208006  -0.14947342      1728000    2239.2684       137650       106176 
27540000   0.98934435  -0.14559093      1728000    2240.0944       137700       106213 
27550000   0.98502315   -0.1422932      1728000    2240.9184       137750       106252 
27560000   0.99858038  -0.14894392      1728000    2241.7314       137800       106291 
27570000    1.0089017  -0.14457353      1728000    2242.5473       137850       106327 
27580000     1.017514  -0.12645627      1728000    2243.3537       137900       106372 
27590000    1.0231164  -0.13715268      1728000    2244.1642       137950       106412 
27600000   0.96092089  -0.13087778      1728000    2244.9804       138000       106449 
27610000    1.0031302  -0.14146464      1728000    2245.8314       138050       106486 
27620000   0.97434668  -0.14521446      1728000    2246.6592       138100       106520 
27630000    1.0020757  -0.15383646      1728000    2247.4873       138150       106560 
27640000    0.9679751  -0.15804569      1728000    2248.3453       138200       106603 
27650000    0.9059766  -0.14116885      1728000    2249.1924       138250       106642 
27660000    1.0821767  -0.13327971      1728000    2250.0304       138300       106680 
27670000    1.0055472  -0.13896341      1728000    2250.8384       138350       106721 
27680000    1.0524676   -0.1493722      1728000    2251.6633       138400       106761 
27690000    1.0242718   -0.1612783      1728000    2252.5282       138450       106796 
27700000    1.0426623  -0.15612608      1728000    2253.3714       138500       106837 
27710000    1.0313895  -0.15179725      1728000    2254.2093       138550       106878 
27720000   0.95609966  -0.15249963      1728000    2255.0143       138600       106913 
27730000   0.95772482  -0.15459938      1728000    2255.8314       138650       106944 
27740000    1.0890758  -0.15569854      1728000    2256.6404       138700       106983 
27750000     1.029465  -0.13493492      1728000    2257.4514       138750       107019 
27760000   0.98705507  -0.15787782      1728000    2258.2624       138800       107061 
27770000   0.98487311  -0.16164209      1728000    2259.0663       138850       107103 
27780000   0.98930562  -0.13788369      1728000    2259.8794       138900       107139 
27790000   0.97473024  -0.13242093      1728000    2260.6914       138950       107182 
27800000   0.98118144  -0.13606199      1728000    2261.5064       139000       107225 
27810000    1.0275693  -0.13617102      1728000    2262.3094       139050       107260 
27820000   0.94847779  -0.13363568      1728000    2263.1354       139100       107305 
27830000    1.0383049  -0.13426373      1728000    2263.9494       139150       107340 
27840000   0.93682026  -0.13417658      1728000    2264.7524       139200       107379 
27850000   0.97357728  -0.13451627      1728000    2265.5493       139250       107421 
27860000    1.0293414  -0.13702556      1728000    2266.3483       139300       107461 
27870000   0.99095144   -0.1257712      1728000    2267.1544       139350       107502 
27880000   0.94457841  -0.14351562      1728000    2267.9614       139400       107539 
27890000   0.99718446  -0.14194507      1728000    2268.7663       139450       107576 
27900000    1.0156383  -0.14116422      1728000    2269.6074       139500       107612 
27910000    0.9427942  -0.13645179      1728000    2270.4386       139550       107649 
27920000    1.0258377  -0.13669443      1728000    2271.2442       139600       107687 
27930000    1.0591539  -0.13312492      1728000    2272.0495       139650       107726 
27940000    1.0071782    -0.131675      1728000    2272.8535       139700       107761 
27950000   0.99630471   -0.1400381      1728000    2273.6573       139750       107797 
27960000    1.0735784  -0.13190058      1728000    2274.4581       139800       107838 
27970000    1.0064956  -0.12640948      1728000    2275.2654       139850       107881 
27980000    1.0037445  -0.13045069      1728000    2276.0965       139900       107918 
27990000     1.035076  -0.12323288      1728000     2276.907       139950       107956 
28000000    1.0042373  -0.12416128      1728000    2277.7474       140000       107992 
28010000    0.9758183  -0.11166884      1728000    2278.5463       140050       108031 
28020000    1.0307208  -0.12456767      1728000    2279.3485       140100       108072 
28030000    1.0012453  -0.11784002      1728000    2280.1493       140150       108109 
28040000    1.0671634  -0.12689303      1728000    2280.9651       140200       108146 
28050000    1.0364832  -0.13873264      1728000    2281.7723       140250       108180 
28060000     1.029534  -0.14223113      1728000    2282.5824       140300       108217 
28070000    1.0385201   -0.1478728      1728000    2283.3864       140350       108259 
28080000   0.95528797   -0.1478198      1728000    2284.1934       140400       108297 
28090000    1.0356274  -0.15048741      1728000    2284.9995       140450       108333 
28100000    1.0707133  -0.14997384      1728000    2285.8164       140500       108370 
28110000     1.027675  -0.13870825      1728000    2286.6174       140550       108410 
28120000   0.93521378  -0.14123243      1728000    2287.4203       140600       108447 
28130000   0.97873158  -0.13176763      1728000    2288.2271       140650       108486 
28140000     1.048847  -0.13528393      1728000    2289.0303       140700       108521 
28150000     1.107139  -0.13657987      1728000    2289.8376       140750       108560 
28160000    1.0255846   -0.1308156      1728000    2290.6414       140800       108602 
28170000    1.0373578  -0.13647554      1728000    2291.4484       140850       108645 
28180000   0.99476264  -0.14710152      1728000    2292.2556       140900       108685 
28190000    1.0214636  -0.13119471      1728000    2293.0664       140950       108724 
28200000    1.0449234  -0.13252072      1728000    2293.8845       141000       108763 
28210000   0.97709157  -0.14090697      1728000    2294.6964       141050       108802 
28220000   0.96577673  -0.13712929      1728000    2295.5045       141100       108836 
28230000   0.98953914  -0.13177689      1728000    2296.3094       141150       108879 
28240000    1.0941927  -0.13630549      1728000    2297.1225       141200       108917 
28250000    1.0023805  -0.13927703      1728000    2297.9264       141250       108955 
28260000    1.0075937  -0.14363221      1728000    2298.7512       141300       108991 
28270000    1.0623604  -0.12609783      1728000    2299.5693       141350       109034 
28280000    1.0550635  -0.13635488      1728000    2300.3774       141400       109074 
28290000   0.98698292  -0.13397675      1728000    2301.2163       141450       109115 
28300000   0.97701748  -0.12288111      1728000    2302.0353       141500       109155 
28310000    1.0339593  -0.12436636      1728000    2302.8432       141550       109196 
28320000    0.9774174   -0.1320179      1728000    2303.6433       141600       109235 
28330000   0.98572802  -0.14175783      1728000    2304.4425       141650       109274 
28340000    1.0078782  -0.11701275      1728000    2305.2682       141700       109315 
28350000    1.0135249   -0.1298479      1728000    2306.0915       141750       109357 
28360000   0.94157163  -0.11578031      1728000    2306.9263       141800       109397 
28370000    1.0366449  -0.13958717      1728000    2307.7363       141850       109439 
28380000   0.93646485  -0.14859308      1728000    2308.5483       141900       109477 
28390000   0.93700191  -0.15266891      1728000    2309.3693       141950       109515 
28400000    1.0340664  -0.14379129      1728000    2310.1954       142000       109554 
28410000    1.0513428  -0.14311256      1728000    2311.0056       142050       109594 
28420000    1.0853651  -0.13869287      1728000    2311.8104       142100       109635 
28430000   0.98752661  -0.14133395      1728000    2312.6383       142150       109673 
28440000    1.0199897  -0.14942126      1728000    2313.4535       142200       109711 
28450000    0.9958239  -0.14953808      1728000    2314.2645       142250       109756 
28460000   0.98250265  -0.14415314      1728000    2315.0714       142300       109799 
28470000    1.0208979  -0.14833702      1728000    2315.8744       142350       109839 
28480000   0.97872843  -0.14990247      1728000    2316.6774       142400       109876 
28490000    1.0334433  -0.15275925      1728000    2317.5055       142450       109919 
28500000    1.0087839   -0.1586676      1728000    2318.3355       142500       109958 
28510000   0.99226424  -0.15963146      1728000    2319.1443       142550       109996 
28520000   0.99922161  -0.17739098      1728000    2319.9515       142600       110035 
28530000   0.97288328   -0.1700268      1728000    2320.7595       142650       110076 
28540000    1.0283084  -0.16363792      1728000    2321.5714       142700       110110 
28550000   0.96103179  -0.16501775      1728000    2322.3825       142750       110149 
28560000   0.98975606  -0.16076708      1728000    2323.2004       142800       110186 
28570000   0.98601152  -0.17201874      1728000    2324.0203       142850       110224 
28580000    1.0387932  -0.16290066      1728000    2324.8375       142900       110261 
28590000   0.98577745  -0.14628375      1728000    2325.6454       142950       110302 
28600000    1.0436321  -0.15211893      1728000    2326.4615       143000       110343 
28610000   0.98068295  -0.13966538      1728000    2327.2673       143050       110385 
28620000    1.0199316  -0.13990715      1728000    2328.0665       143100       110426 
28630000   0.99172969  -0.14622998      1728000    2328.8725       143150       110461 
28640000    1.0264363  -0.15196866      1728000    2329.7125       143200       110499 
28650000     1.045553   -0.1511357      1728000    2330.5364       143250       110538 
28660000   0.95277985  -0.15757132      1728000    2331.3434       143300       110582 
28670000   0.99554384  -0.14332519      1728000    2332.1596       143350       110621 
28680000    1.0085474   -0.1258526      1728000    2332.9937       143400       110660 
28690000    1.0345892  -0.13739804      1728000    2333.8069       143450       110698 
28700000    1.0024863  -0.14262564      1728000    2334.6215       143500       110736 
28710000    1.0008615  -0.14997232      1728000    2335.4315       143550       110777 
28720000    1.0297243  -0.14106896      1728000    2336.2495       143600       110818 
28730000    1.0068456  -0.14578699      1728000    2337.0695       143650       110854 
28740000    1.0437672  -0.13668911      1728000    2337.8845       143700       110888 
28750000    1.0031403  -0.15063171      1728000    2338.6975       143750       110929 
28760000    1.0373645  -0.14578275      1728000    2339.5304       143800       110965 
28770000    1.0148238  -0.16167808      1728000    2340.3485       143850       111002 
28780000    1.0474501  -0.15140257      1728000    2341.1675       143900       111042 
28790000   0.93253874  -0.16293274      1728000    2341.9825       143950       111082 
28800000   0.99006929  -0.16106145      1728000    2342.8104       144000       111122 
28810000   0.98167497  -0.15895615      1728000    2343.6185       144050       111162 
28820000    1.0177978   -0.1642739      1728000    2344.4305       144100       111200 
28830000    1.0824133  -0.16003754      1728000    2345.2445       144150       111244 
28840000    1.0525333  -0.16128913      1728000    2346.0905       144200       111282 
28850000    1.0475726  -0.15243447      1728000    2346.8944       144250       111325 
28860000   0.96700544  -0.15353062      1728000    2347.7063       144300       111361 
28870000    1.0464803  -0.14089811      1728000    2348.5215       144350       111399 
28880000   0.99887772  -0.14522282      1728000    2349.3287       144400       111440 
28890000    1.0403342  -0.14845477      1728000    2350.1445       144450       111481 
28900000   0.93470831  -0.15391069      1728000    2350.9654       144500       111519 
28910000     1.040428  -0.12980239      1728000    2351.7881       144550       111563 
28920000    0.9777484  -0.13937586      1728000    2352.5955       144600       111602 
28930000    0.9914358  -0.15121702      1728000    2353.3984       144650       111638 
28940000    1.0578506   -0.1340011      1728000    2354.2075       144700       111675 
28950000    1.0297447  -0.15879373      1728000    2355.0205       144750       111709 
28960000     1.020954  -0.14168219      1728000    2355.8603       144800       111744 
28970000    0.9555062   -0.1372512      1728000    2356.6985       144850       111787 
28980000    1.0235193  -0.14634575      1728000    2357.5095       144900       111826 
28990000    1.0349296  -0.14884205      1728000    2358.3195       144950       111865 
29000000   0.97691962  -0.14681306      1728000    2359.2145       145000       111900 
29010000    1.0556261  -0.14195363      1728000    2360.0974       145050       111939 
29020000    1.0988269  -0.14207123      1728000    2361.0444       145100       111979 
29030000   0.97620656  -0.13821095      1728000    2361.9295       145150       112024 
29040000     1.016116    -0.138865      1728000    2362.7465       145200       112060 
29050000    1.0147639  -0.13855696      1728000    2363.5586       145250       112096 
29060000     1.018663  -0.13665318      1728000    2364.3654       145300       112137 
29070000    1.0560682   -0.1287763      1728000    2365.1754       145350       112174 
29080000   0.97835362  -0.12903006      1728000    2365.9806       145400       112213 
29090000    1.0023418  -0.12401097      1728000    2366.7805       145450       112252 
29100000    1.0041972  -0.13324062      1728000    2367.6105       145500       112297 
29110000    1.0328183  -0.14875433      1728000    2368.4295       145550       112335 
29120000   0.97217333  -0.13115589      1728000    2369.2364       145600       112374 
29130000    1.0169439  -0.13099918      1728000    2370.0535       145650       112411 
29140000    1.0273824  -0.13906062      1728000    2370.8715       145700       112449 
29150000    1.0026106  -0.14689804      1728000    2371.6885       145750       112488 
29160000    1.0586454  -0.14402749      1728000    2372.5155       145800       112526 
29170000    1.0108496   -0.1445436      1728000    2373.3205       145850       112563 
29180000   0.98380343  -0.14838009      1728000    2374.1516       145900       112603 
29190000   0.96010772  -0.15013912      1728000    2374.9606       145950       112639 
29200000    1.0650928  -0.13323916      1728000    2375.7829       146000       112679 
29210000   0.99342271  -0.13647023      1728000    2376.5944       146050       112720 
29220000   0.96510833  -0.14952035      1728000    2377.4035       146100       112763 
29230000    1.0508518  -0.16536795      1728000    2378.2157       146150       112797 
29240000   0.96230673  -0.14658494      1728000    2379.0304       146200       112833 
29250000   0.96664824  -0.14174314      1728000    2379.8476       146250       112871 
29260000   0.98590065  -0.14759579      1728000    2380.6545       146300       112906 
29270000   0.99048851  -0.14913209      1728000    2381.4686       146350       112939 
29280000    1.0365237  -0.15864049      1728000    2382.2764       146400       112973 
29290000     1.024269  -0.14016537      1728000    2383.0905       146450       113011 
29300000    1.0565678  -0.16244337      1728000    2383.9045       146500       113051 
29310000    1.0412907  -0.16102066      1728000    2384.7142       146550       113095 
29320000   0.97400053  -0.15089538      1728000    2385.5285       146600       113135 
29330000    1.0506927  -0.14503766      1728000    2386.3465       146650       113172 
29340000    1.0508208  -0.14165404      1728000    2387.1815       146700       113211 
29350000    1.0452198  -0.15496302      1728000    2388.0025       146750       113242 
29360000    1.0517759  -0.15691652      1728000    2388.8134       146800       113285 
29370000    1.0097924  -0.13743604      1728000    2389.6294       146850       113322 
29380000   0.95982141  -0.15204279      1728000    2390.4415       146900       113356 
29390000   0.99983594  -0.15329346      1728000    2391.2546       146950       113395 
29400000    1.0370562  -0.15776098      1728000    2392.0895       147000       113433 
29410000   0.98947007  -0.15299103      1728000    2392.8964       147050       113473 
29420000   0.97384976  -0.14152679      1728000    2393.7115       147100       113513 
29430000   0.98631836  -0.15157019      1728000    2394.5243       147150       113554 
29440000   0.93232966  -0.13613321      1728000    2395.3346       147200       113593 
29450000    1.0008558  -0.14620703      1728000    2396.1484       147250       113630 
29460000    0.9889106  -0.13568974      1728000    2396.9755       147300       113669 
29470000   0.95752258  -0.13128277      1728000    2397.7953       147350       113710 
29480000    1.1256037   -0.1197213      1728000    2398.6065       147400       113750 
29490000   0.95690554  -0.13482787      1728000    2399.4315       147450       113791 
29500000   0.95364444  -0.15407216      1728000    2400.2775       147500       113833 
29510000   0.95296857  -0.15231103      1728000    2401.0995       147550       113872 
29520000    1.0304719  -0.15273213      1728000    2401.9104       147600       113915 
29530000   0.97685844  -0.14175107      1728000    2402.7146       147650       113955 
29540000    1.0096918  -0.15362194      1728000    2403.5343       147700       113994 
29550000    1.0330308  -0.14352881      1728000    2404.3495       147750       114033 
29560000    1.0581396  -0.15855814      1728000    2405.1636       147800       114075 
29570000    1.0180495  -0.15597139      1728000    2405.9905       147850       114111 
29580000   0.98077276  -0.15473892      1728000    2406.8004       147900       114147 
29590000    1.0356434  -0.16259185      1728000    2407.6237       147950       114175 
29600000   0.99337965  -0.17647544      1728000    2408.4605       148000       114212 
29610000    1.0441325  -0.18417529      1728000    2409.2797       148050       114250 
29620000    1.0142348  -0.18971924      1728000    2410.0904       148100       114287 
29630000    1.0072406   -0.1913138      1728000    2410.9006       148150       114328 
29640000    1.0249343  -0.18953312      1728000    2411.7173       148200       114371 
29650000    1.0273531  -0.17100278      1728000    2412.5135       148250       114409 
29660000    1.0010945  -0.17288027      1728000    2413.3215       148300       114443 
29670000    1.0396761  -0.18318503      1728000    2414.1296       148350       114484 
29680000   0.94245063  -0.19151527      1728000    2414.9366       148400       114518 
29690000   0.96728611  -0.17574227      1728000    2415.7486       148450       114559 
29700000    1.0238904  -0.17732106      1728000    2416.5615       148500       114597 
29710000    1.0283382  -0.18838003      1728000    2417.3718       148550       114628 
29720000    1.0527226  -0.18975267      1728000    2418.1857       148600       114670 
29730000    1.0395034  -0.17529878      1728000    2419.0125       148650       114709 
29740000   0.98759721  -0.17910767      1728000    2419.8475       148700       114746 
29750000    1.0092648  -0.18310715      1728000    2420.6715       148750       114782 
29760000    0.9694946  -0.16715201      1728000    2421.4845       148800       114818 
29770000    1.0261147  -0.17167167      1728000    2422.2975       148850       114856 
29780000    0.9734337  -0.18652995      1728000    2423.1156       148900       114893 
29790000    1.0065762  -0.15874644      1728000    2423.9243       148950       114936 
29800000    1.0460301  -0.14528263      1728000    2424.7455       149000       114971 
29810000    0.9964948  -0.16822628      1728000    2425.5575       149050       115013 
29820000   0.93876647  -0.15725625      1728000    2426.3644       149100       115053 
29830000   0.99059524    -0.146495      1728000    2427.1687       149150       115092 
29840000   0.99298869  -0.16412328      1728000    2427.9775       149200       115127 
29850000   0.99499283  -0.17047298      1728000    2428.7886       149250       115163 
29860000    1.0223161   -0.1547935      1728000    2429.6196       149300       115202 
29870000   0.98055329   -0.1516058      1728000    2430.4267       149350       115239 
29880000    1.0571489  -0.15477861      1728000    2431.2625       149400       115275 
29890000   0.97081326  -0.14737172      1728000    2432.0736       149450       115316 
29900000   0.99460225  -0.14469503      1728000    2432.8925       149500       115354 
29910000    1.0518431   -0.1418848      1728000    2433.7086       149550       115398 
29920000   0.96671494  -0.16025873      1728000    2434.5284       149600       115434 
29930000   0.95492446  -0.14732086      1728000    2435.3436       149650       115470 
29940000    1.0174052  -0.13943452      1728000    2436.1555       149700       115509 
29950000   0.98779186  -0.15918763      1728000    2436.9826       149750       115548 
29960000   0.98813073  -0.14245028      1728000    2437.7965       149800       115584 
29970000   0.94299648  -0.13879872      1728000    2438.6016       149850       115624 
29980000   0.98850885  -0.13441789      1728000    2439.4106       149900       115662 
29990000    1.0293684  -0.12745724      1728000    2440.2143       149950       115701 
30000000   0.98105126  -0.13525554      1728000    2441.0365       150000       115734 
30010000    1.0207618  -0.14356728      1728000    2441.8527       150050       115775 
30020000   0.98395772  -0.13341594      1728000    2442.6807       150100       115816 
30030000    1.0359987  -0.14186018      1728000    2443.4924       150150       115855 
30040000    1.0272228  -0.15587582      1728000    2444.3016       150200       115896 
30050000    1.0140189  -0.15150727      1728000    2445.1086       150250       115938 
30060000    1.0023694  -0.14372233      1728000    2445.9107       150300       115977 
30070000   0.99027735  -0.14119313      1728000    2446.7137       150350       116021 
30080000    1.0364748  -0.14593766      1728000    2447.5237       150400       116063 
30090000    1.0296093  -0.14890106      1728000    2448.3416       150450       116101 
30100000    1.0079598  -0.14235122      1728000    2449.1595       150500       116135 
30110000   0.99151022  -0.15175786      1728000    2449.9676       150550       116172 
30120000    1.0114789   -0.1580406      1728000    2450.7877       150600       116210 
30130000    1.0200829  -0.15995316      1728000    2451.6114       150650       116245 
30140000    1.0122689  -0.14154649      1728000    2452.4256       150700       116282 
30150000    1.0590244  -0.14617674      1728000    2453.2385       150750       116319 
30160000   0.96577757  -0.13925829      1728000    2454.0437       150800       116361 
30170000    1.0046881  -0.14939944      1728000    2454.8605       150850       116401 
30180000   0.93665057   -0.1513364      1728000    2455.6674       150900       116434 
30190000    1.0174697  -0.14796469      1728000    2456.4756       150950       116471 
30200000      1.04782  -0.14679253      1728000    2457.3094       151000       116510 
30210000   0.98001715  -0.15127481      1728000    2458.1188       151050       116544 
30220000   0.98042704  -0.15490372      1728000    2458.9416       151100       116574 
30230000   0.99850742  -0.14825525      1728000    2459.7596       151150       116609 
30240000    1.0365209   -0.1555976      1728000    2460.5668       151200       116645 
30250000    1.0082415  -0.14891417      1728000     2461.395       151250       116684 
30260000   0.94739364  -0.13221815      1728000    2462.1966       151300       116725 
30270000    1.0183546  -0.13353694      1728000    2463.0136       151350       116768 
30280000    1.0441977  -0.13324603      1728000    2463.8248       151400       116805 
30290000    1.0658041  -0.13442525      1728000    2464.6216       151450       116844 
30300000    1.0201649  -0.14277688      1728000    2465.4428       151500       116886 
30310000     0.948571  -0.13920583      1728000    2466.2558       151550       116929 
30320000   0.95302594  -0.13200162      1728000    2467.0667       151600       116968 
30330000    1.0167411  -0.13669497      1728000    2467.8937       151650       117006 
30340000    1.0242502  -0.14743033      1728000    2468.6977       151700       117045 
30350000    1.0289585  -0.15112644      1728000    2469.5036       151750       117084 
30360000   0.95361541   -0.1353235      1728000    2470.3106       151800       117120 
30370000   0.99819297  -0.13756958      1728000    2471.1168       151850       117162 
30380000   0.99049965  -0.15417119      1728000    2471.9306       151900       117201 
30390000   0.99163714  -0.15590364      1728000    2472.7436       151950       117240 
30400000    1.0370774   -0.1591862      1728000    2473.5596       152000       117280 
30410000    0.9878553  -0.15791845      1728000    2474.3687       152050       117318 
30420000    1.0153808  -0.15980379      1728000    2475.1749       152100       117356 
30430000   0.98635537  -0.15018569      1728000    2475.9786       152150       117395 
30440000    1.0324924  -0.13879016      1728000    2476.7818       152200       117429 
30450000   0.99062649  -0.17067172      1728000    2477.5867       152250       117470 
30460000     1.038996  -0.14885651      1728000    2478.3948       152300       117505 
30470000    0.9412936  -0.14697868      1728000    2479.2106       152350       117541 
30480000    1.0053634  -0.13787522      1728000    2480.0297       152400       117580 
30490000   0.96673293  -0.14572931      1728000    2480.8438       152450       117617 
30500000    1.0280245  -0.13352905      1728000    2481.6664       152500       117656 
30510000   0.99432701  -0.13247695      1728000    2482.4706       152550       117702 
30520000   0.97935957  -0.12356924      1728000    2483.2833       152600       117746 
30530000   0.96596351  -0.13826878      1728000    2484.0948       152650       117784 
30540000   0.95263535  -0.12233047      1728000    2484.9186       152700       117821 
30550000    0.9730835  -0.11883476      1728000    2485.7257       152750       117863 
30560000   0.93349713   -0.1266622      1728000    2486.5268       152800       117904 
30570000   0.99338748  -0.12929624      1728000    2487.3297       152850       117945 
30580000   0.99687302  -0.14176355      1728000    2488.1327       152900       117986 
30590000   0.97158975  -0.14430752      1728000    2488.9326       152950       118027 
30600000    1.0585859  -0.14278085      1728000    2489.7437       153000       118067 
30610000    1.0554753  -0.15093407      1728000    2490.5747       153050       118105 
30620000   0.96719469  -0.15309721      1728000    2491.3846       153100       118142 
30630000    1.0793628   -0.1558859      1728000    2492.1936       153150       118181 
30640000     0.984608  -0.16894209      1728000    2493.0042       153200       118224 
30650000    1.0025898  -0.15480341      1728000    2493.8152       153250       118261 
30660000    1.0215109  -0.16178938      1728000    2494.6288       153300       118301 
30670000    1.0056867  -0.17572697      1728000    2495.4406       153350       118348 
30680000   0.96104184  -0.17374128      1728000    2496.2596       153400       118385 
30690000    1.0299148  -0.17761644      1728000    2497.0677       153450       118418 
30700000    1.0811623  -0.16683976      1728000    2497.8807       153500       118458 
30710000   0.98015591  -0.17702112      1728000    2498.6927       153550       118498 
30720000    1.0289636  -0.17201348      1728000    2499.5229       153600       118535 
30730000    1.0186101  -0.17203238      1728000    2500.3345       153650       118575 
30740000    1.0136628  -0.15845585      1728000    2501.1339       153700       118609 
30750000    1.0545472  -0.16826089      1728000    2501.9457       153750       118649 
30760000   0.95438894  -0.16604648      1728000    2502.7506       153800       118692 
30770000   0.94308674  -0.17041589      1728000    2503.5616       153850       118728 
30780000    1.0309903  -0.16459951      1728000    2504.3669       153900       118763 
30790000    1.0176392  -0.15076865      1728000    2505.1676       153950       118808 
30800000   0.98504671  -0.15804487      1728000    2505.9798       154000       118848 
30810000   0.98346578  -0.16070044      1728000    2506.7947       154050       118890 
30820000    1.0341004  -0.15708124      1728000    2507.5987       154100       118931 
30830000   0.98410439  -0.16410946      1728000    2508.4159       154150       118968 
30840000    0.9519637  -0.14475802      1728000    2509.2306       154200       119005 
30850000   0.94996517  -0.15471434      1728000    2510.0414       154250       119047 
30860000   0.96973419  -0.15133543      1728000    2510.8734       154300       119087 
30870000   0.98222751  -0.14265005      1728000    2511.6901       154350       119126 
30880000    1.0203067  -0.14845741      1728000    2512.5071       154400       119157 
30890000    1.0148902  -0.15515961      1728000    2513.3164       154450       119197 
30900000   0.99761938  -0.14913931      1728000    2514.1543       154500       119236 
30910000    0.9811601  -0.15525724      1728000    2514.9741       154550       119281 
30920000   0.92797319  -0.15347922      1728000    2515.7866       154600       119315 
30930000    0.9887873  -0.16304607      1728000    2516.6007       154650       119346 
30940000   0.95691722  -0.16202278      1728000    2517.4257       154700       119381 
30950000   0.98593175  -0.15270929      1728000     2518.239       154750       119420 
30960000   0.95604422  -0.14591233      1728000    2519.0487       154800       119458 
30970000    1.0217497   -0.1548487      1728000    2519.8614       154850       119495 
30980000   0.99635192  -0.17495037      1728000    2520.6707       154900       119533 
30990000   0.98221818  -0.17662203      1728000    2521.4823       154950       119573 
31000000   0.89995516  -0.16772646      1728000    2522.3103       155000       119612 
31010000    1.0050824  -0.16533706      1728000     2523.129       155050       119644 
31020000    1.0029965   -0.1578242      1728000    2523.9597       155100       119681 
31030000   0.97252515  -0.14369245      1728000    2524.7689       155150       119722 
31040000    1.0416764  -0.15426579      1728000    2525.5806       155200       119760 
31050000   0.99367276  -0.15406291      1728000    2526.4106       155250       119800 
31060000    1.0177387  -0.14742641      1728000    2527.2407       155300       119840 
31070000   0.99906763  -0.14621789      1728000     2528.065       155350       119878 
31080000   0.98061179  -0.15087105      1728000    2528.8757       155400       119916 
31090000    0.9833962  -0.17210396      1728000    2529.6917       155450       119949 
31100000   0.99595911  -0.15259033      1728000    2530.5128       155500       119991 
31110000   0.99349764  -0.14774988      1728000    2531.3288       155550       120032 
31120000   0.99324128  -0.15612155      1728000    2532.1377       155600       120072 
31130000    1.0339984  -0.15582814      1728000    2532.9507       155650       120108 
31140000   0.95529687  -0.14101831      1728000    2533.7649       155700       120146 
31150000     1.021295  -0.16017431      1728000    2534.5788       155750       120187 
31160000    1.0051105  -0.18142144      1728000    2535.3914       155800       120227 
31170000    1.0140755  -0.16211184      1728000    2536.2067       155850       120266 
31180000   0.98231962  -0.16173825      1728000    2537.0427       155900       120306 
31190000     1.042314  -0.15037135      1728000    2537.8696       155950       120339 
31200000    1.0919787  -0.14510582      1728000    2538.6929       156000       120378 
31210000   0.91170063  -0.14257706      1728000    2539.4969       156050       120416 
31220000   0.98448909  -0.13642559      1728000    2540.3021       156100       120452 
31230000    1.0253217  -0.13385965      1728000    2541.1053       156150       120489 
31240000     1.027393  -0.12469295      1728000    2541.9108       156200       120524 
31250000    1.0010429  -0.13663724      1728000    2542.7121       156250       120563 
31260000   0.98554681  -0.12396647      1728000    2543.5193       156300       120598 
31270000   0.99024838  -0.12237058      1728000    2544.3265       156350       120635 
31280000    1.0083051  -0.12279793      1728000    2545.1186       156400       120673 
31290000    1.0571957  -0.12791291      1728000    2545.9097       156450       120718 
31300000    1.0061011   -0.1289342      1728000    2546.7155       156500       120756 
31310000    1.0408909  -0.13811607      1728000    2547.5187       156550       120792 
31320000   0.97203779  -0.11230506      1728000    2548.3258       156600       120828 
31330000    1.0404136  -0.13791347      1728000    2549.1368       156650       120868 
31340000    1.0113498  -0.13622656      1728000    2549.9488       156700       120907 
31350000   0.98245045   -0.1364493      1728000    2550.7536       156750       120946 
31360000   0.99050705  -0.14402988      1728000    2551.5677       156800       120984 
31370000    1.0772182  -0.14500592      1728000    2552.3807       156850       121018 
31380000   0.96471535  -0.13580471      1728000    2553.2018       156900       121060 
31390000     1.066537  -0.12844399      1728000    2554.0008       156950       121102 
31400000    1.0206723  -0.14221572      1728000    2554.8127       157000       121143 
31410000    1.0100474  -0.14792238      1728000    2555.6485       157050       121187 
31420000    0.9466932  -0.15081889      1728000    2556.4791       157100       121225 
31430000    1.0029297  -0.16029768      1728000    2557.2808       157150       121262 
31440000    1.0502936  -0.15469713      1728000    2558.0968       157200       121299 
31450000   0.94561979  -0.14196045      1728000    2558.8959       157250       121332 
31460000    1.0071822  -0.14514407      1728000    2559.6978       157300       121373 
31470000   0.97504417  -0.15024158      1728000    2560.4988       157350       121409 
31480000    1.0648396  -0.14632779      1728000    2561.3007       157400       121440 
31490000    1.0470489  -0.15118682      1728000    2562.1047       157450       121479 
31500000    1.0898189  -0.15091838      1728000     2562.926       157500       121515 
31510000   0.98278121  -0.15964125      1728000    2563.7429       157550       121547 
31520000    1.0039872  -0.14441937      1728000    2564.5486       157600       121589 
31530000    1.1028495  -0.14073815      1728000    2565.3759       157650       121629 
31540000    1.1203649  -0.14105482      1728000    2566.1928       157700       121669 
31550000   0.96953567  -0.14465972      1728000    2567.0029       157750       121706 
31560000    1.0351019  -0.14162633      1728000     2567.814       157800       121747 
31570000    1.0085656  -0.16122302      1728000    2568.6265       157850       121786 
31580000    1.0066654  -0.15544525      1728000    2569.4555       157900       121825 
31590000   0.98631515  -0.13558368      1728000    2570.2697       157950       121862 
31600000    1.0251006  -0.15209542      1728000    2571.0868       158000       121897 
31610000   0.98625281  -0.13567642      1728000     2571.901       158050       121930 
31620000   0.94007631  -0.13842278      1728000    2572.7149       158100       121973 
31630000   0.95251541  -0.14219923      1728000    2573.5198       158150       122009 
31640000   0.97382607  -0.14039708      1728000    2574.3225       158200       122046 
31650000    1.0284677  -0.13420989      1728000    2575.1287       158250       122087 
31660000   0.97178699  -0.14156912      1728000    2575.9347       158300       122127 
31670000   0.96915243  -0.12533813      1728000    2576.7532       158350       122170 
31680000   0.93494319  -0.12626874      1728000    2577.5529       158400       122210 
31690000   0.98369696  -0.13158752      1728000    2578.3646       158450       122248 
31700000    1.0606261   -0.1370889      1728000    2579.1788       158500       122282 
31710000   0.97183024  -0.11847708      1728000    2580.0115       158550       122325 
31720000   0.92169827    -0.122327      1728000    2580.8299       158600       122364 
31730000   0.99689376   -0.1231412      1728000    2581.6358       158650       122400 
31740000    1.0060932  -0.13035923      1728000     2582.439       158700       122439 
31750000    1.0463137  -0.13129229      1728000    2583.2508       158750       122482 
31760000    0.9485929   -0.1408762      1728000    2584.0588       158800       122521 
31770000   0.99606921  -0.14664178      1728000    2584.8667       158850       122561 
31780000   0.96380588  -0.13629455      1728000    2585.6699       158900       122599 
31790000    1.0085043  -0.12250022      1728000    2586.4668       158950       122639 
31800000   0.97155863   -0.1238373      1728000    2587.2909       159000       122680 
31810000   0.99516298  -0.12032154      1728000    2588.1038       159050       122720 
31820000    1.0325251  -0.12025089      1728000    2588.9079       159100       122752 
31830000    1.0301601  -0.11875664      1728000    2589.7108       159150       122793 
31840000    1.0122441  -0.11190491      1728000    2590.5188       159200       122829 
31850000   0.97221527  -0.12526082      1728000    2591.3358       159250       122873 
31860000   0.99307721  -0.13335223      1728000    2592.1407       159300       122912 
31870000    1.0346333  -0.13404451      1728000    2592.9657       159350       122952 
31880000   0.93825371  -0.14117902      1728000    2593.7705       159400       122993 
31890000    0.9533848  -0.14575942      1728000     2594.572       159450       123036 
31900000    1.0244044  -0.14944754      1728000    2595.3807       159500       123074 
31910000    1.0002301  -0.17464551      1728000    2596.1898       159550       123113 
31920000    0.9753898  -0.15080917      1728000    2596.9941       159600       123159 
31930000   0.99881377  -0.15908777      1728000    2597.8007       159650       123196 
31940000    1.0236675  -0.16675423      1728000    2598.6097       159700       123232 
31950000    1.0352332  -0.16526249      1728000    2599.4146       159750       123270 
31960000    1.0452475   -0.1630906      1728000    2600.2138       159800       123315 
31970000   0.99873127  -0.15849473      1728000    2601.0159       159850       123353 
31980000    1.0597973  -0.16148115      1728000    2601.8298       159900       123387 
31990000    1.0020895   -0.1573482      1728000    2602.6427       159950       123424 
32000000    1.0335273  -0.14500115      1728000    2603.4653       160000       123455 
32010000   0.98142058  -0.15393109      1728000    2604.2686       160050       123490 
32020000    1.0389578  -0.15080069      1728000    2605.0708       160100       123530 
32030000   0.97252054  -0.15307607      1728000    2605.8758       160150       123569 
32040000   0.97356596  -0.16502004      1728000    2606.6859       160200       123607 
32050000    1.0143465  -0.15106122      1728000    2607.4988       160250       123647 
32060000   0.98039867  -0.16399113      1728000    2608.3117       160300       123683 
32070000   0.94835476  -0.15651773      1728000    2609.1187       160350       123722 
32080000   0.96593325  -0.14255484      1728000    2609.9218       160400       123765 
32090000    1.0160553  -0.14494196      1728000    2610.7368       160450       123805 
32100000   0.99668943   -0.1484357      1728000    2611.5518       160500       123845 
32110000   0.98020714   -0.1631065      1728000      2612.36       160550       123881 
32120000    0.9821751  -0.15181842      1728000    2613.1717       160600       123919 
32130000   0.96613332  -0.14319192      1728000    2613.9808       160650       123963 
32140000   0.96918138  -0.12581686      1728000    2614.7768       160700       124000 
32150000   0.95578647  -0.14269675      1728000    2615.5762       160750       124038 
32160000    1.0060919  -0.13979327      1728000    2616.4217       160800       124076 
32170000   0.99644744  -0.13611789      1728000    2617.2298       160850       124110 
32180000    1.0077457  -0.13819774      1728000    2618.0347       160900       124153 
32190000    1.0047626  -0.13294593      1728000    2618.8358       160950       124194 
32200000   0.97550034  -0.14056099      1728000    2619.6628       161000       124232 
32210000    1.0211909  -0.13937832      1728000    2620.4781       161050       124270 
32220000   0.99500661  -0.13520168      1728000    2621.2979       161100       124313 
32230000    1.0405088  -0.12613206      1728000    2622.1215       161150       124351 
32240000    1.0226744  -0.11808747      1728000     2622.924       161200       124391 
32250000    1.0344652  -0.12089996      1728000    2623.7718       161250       124429 
32260000   0.99323875  -0.11896726      1728000    2624.5759       161300       124468 
32270000   0.98923545  -0.10613403      1728000    2625.3818       161350       124507 
32280000   0.97473949  -0.12682616      1728000    2626.1826       161400       124552 
32290000    0.9747354  -0.12467283      1728000    2626.9739       161450       124595 
32300000    1.0644783  -0.12888462      1728000    2627.7828       161500       124639 
32310000    1.0497081  -0.14049157      1728000    2628.6078       161550       124679 
32320000    1.0083237  -0.14544649      1728000    2629.4338       161600       124716 
32330000    1.0444334  -0.13034588      1728000    2630.2508       161650       124754 
32340000    1.0332103    -0.153265      1728000    2631.0648       161700       124793 
32350000     1.038442  -0.15511239      1728000    2631.8945       161750       124829 
32360000   0.99859226  -0.17080084      1728000    2632.7988       161800       124869 
32370000    1.0230076  -0.15914612      1728000     2633.653       161850       124905 
32380000    1.0169542    -0.154332      1728000    2634.4668       161900       124940 
32390000    1.0536562  -0.16023809      1728000    2635.2679       161950       124980 
32400000   0.95115682  -0.16128636      1728000    2636.0769       162000       125023 
32410000    1.0175482  -0.16819409      1728000    2636.8828       162050       125055 
32420000   0.98451666  -0.17105356      1728000    2637.6988       162100       125090 
32430000    1.0401176  -0.16494265      1728000    2638.5038       162150       125124 
32440000   0.96292819  -0.16273706      1728000    2639.3107       162200       125163 
32450000    1.0446714   -0.1503791      1728000    2640.1207       162250       125201 
32460000    0.9916544  -0.16189098      1728000    2640.9299       162300       125241 
32470000    1.0483466  -0.15735925      1728000    2641.7347       162350       125279 
32480000   0.95295195  -0.16089948      1728000    2642.5447       162400       125319 
32490000   0.95283185  -0.15644228      1728000    2643.3538       162450       125356 
32500000    1.0454474  -0.15567949      1728000    2644.1727       162500       125396 
32510000   0.94144101  -0.14781213      1728000     2644.979       162550       125428 
32520000   0.99209638  -0.15432262      1728000    2645.7839       162600       125467 
32530000   0.98348892  -0.15237311      1728000     2646.583       162650       125506 
32540000   0.99982865  -0.15865836      1728000    2647.4049       162700       125547 
32550000    1.0440967   -0.1649515      1728000    2648.2299       162750       125591 
32560000    1.0397142   -0.1686497      1728000    2649.0333       162800       125634 
32570000    1.0036619  -0.16253655      1728000    2649.8477       162850       125672 
32580000   0.98989743  -0.15165857      1728000    2650.6519       162900       125714 
32590000    1.0565718  -0.13574004      1728000    2651.4538       162950       125749 
32600000   0.97596165  -0.13075542      1728000    2652.2648       163000       125790 
32610000   0.98164889  -0.12404715      1728000    2653.0699       163050       125829 
32620000   0.98133114  -0.13211456      1728000     2653.879       163100       125865 
32630000    1.0253961  -0.12608161      1728000    2654.7158       163150       125906 
32640000   0.93582826  -0.13136031      1728000    2655.5248       163200       125941 
32650000    1.0018652  -0.12847867      1728000      2656.33       163250       125982 
32660000    1.0239054   -0.1338834      1728000    2657.1347       163300       126024 
32670000   0.99135373  -0.14117645      1728000    2657.9399       163350       126062 
32680000    1.0325345  -0.13155702      1728000    2658.7448       163400       126104 
32690000    1.0555364  -0.14384774      1728000    2659.5698       163450       126142 
32700000     1.046475  -0.14192406      1728000    2660.3958       163500       126185 
32710000   0.99667966  -0.15335153      1728000    2661.2137       163550       126220 
32720000    0.9936311  -0.15996542      1728000    2662.0348       163600       126264 
32730000   0.91906471  -0.15490203      1728000    2662.8438       163650       126302 
32740000   0.99868795  -0.16944548      1728000    2663.6615       163700       126341 
32750000   0.94080234  -0.17381001      1728000     2664.477       163750       126374 
32760000   0.95448783  -0.17098504      1728000    2665.2849       163800       126416 
32770000    1.0795309  -0.17384969      1728000    2666.0896       163850       126452 
32780000    1.0494773   -0.1695938      1728000    2666.8898       163900       126494 
32790000   0.94513111  -0.17065705      1728000     2667.694       163950       126529 
32800000   0.99007158  -0.17588958      1728000     2668.518       164000       126566 
32810000    1.0748051  -0.15686155      1728000    2669.3221       164050       126598 
32820000    1.0558995  -0.16320923      1728000    2670.1218       164100       126637 
32830000   0.97639236   -0.1499809      1728000      2670.94       164150       126675 
32840000    0.9639593  -0.14773428      1728000     2671.764       164200       126711 
32850000   0.98324172   -0.1560897      1728000    2672.5659       164250       126743 
32860000    1.0490974  -0.15187292      1728000    2673.3829       164300       126774 
32870000   0.96920372   -0.1551022      1728000     2674.197       164350       126809 
32880000    1.0397503  -0.15678886      1728000    2675.0028       164400       126847 
32890000   0.99012177  -0.14677267      1728000    2675.8091       164450       126886 
32900000    1.0231029  -0.14200554      1728000    2676.6339       164500       126930 
32910000   0.99281191  -0.15102126      1728000    2677.4427       164550       126969 
32920000    1.0082296  -0.15414015      1728000    2678.2587       164600       127003 
32930000   0.98182011  -0.14909662      1728000     2679.065       164650       127040 
32940000   0.97180483  -0.15491353      1728000    2679.8821       164700       127080 
32950000    1.0520441  -0.13861141      1728000    2680.7008       164750       127118 
32960000   0.98464086  -0.13420024      1728000    2681.5028       164800       127154 
32970000    1.0113418  -0.13602741      1728000    2682.3018       164850       127193 
32980000   0.98378364  -0.14104287      1728000    2683.1119       164900       127233 
32990000   0.95391437  -0.14094945      1728000    2683.9008       164950       127273 
33000000   0.99973838  -0.14707972      1728000     2684.722       165000       127310 
33010000   0.99795572  -0.13628144      1728000    2685.5305       165050       127349 
33020000    1.0063223  -0.15801958      1728000    2686.3448       165100       127390 
33030000   0.97303757  -0.15149018      1728000    2687.1521       165150       127428 
33040000    1.0024104  -0.14484375      1728000    2687.9571       165200       127464 
33050000    1.0098995  -0.13792772      1728000    2688.7612       165250       127504 
33060000    1.0090966  -0.15262154      1728000     2689.577       165300       127542 
33070000    1.0046502  -0.15186885      1728000    2690.3832       165350       127581 
33080000   0.98929713  -0.13903392      1728000    2691.1859       165400       127619 
33090000    1.0759718  -0.12915643      1728000    2692.0041       165450       127659 
33100000    1.0192506  -0.13208802      1728000    2692.8115       165500       127702 
33110000   0.97091885  -0.13543608      1728000      2693.61       165550       127741 
33120000   0.96663983  -0.14481231      1728000    2694.4121       165600       127781 
33130000   0.98272921  -0.14435949      1728000     2695.211       165650       127820 
33140000   0.94180408  -0.13705529      1728000    2696.0099       165700       127865 
33150000    1.0354944  -0.15090051      1728000     2696.807       165750       127904 
33160000    1.0019282  -0.14447426      1728000    2697.6077       165800       127940 
33170000   0.98825049  -0.13435216      1728000     2698.421       165850       127973 
33180000   0.98359766  -0.15560266      1728000    2699.2231       165900       128017 
33190000   0.99047682   -0.1511831      1728000    2700.0293       165950       128056 
33200000    1.0271197  -0.16007069      1728000     2700.851       166000       128086 
33210000   0.98798972  -0.16280245      1728000    2701.7207       166050       128113 
33220000     1.039797  -0.15891979      1728000     2702.534       166100       128143 
33230000     1.028205  -0.15115793      1728000     2703.355       166150       128179 
33240000   0.99284948  -0.15668839      1728000    2704.1582       166200       128217 
33250000    0.9445694  -0.14712421      1728000    2704.9861       166250       128253 
33260000    1.0134346  -0.12812676      1728000      2705.79       166300       128293 
33270000   0.97519778  -0.14420236      1728000    2706.5928       166350       128333 
33280000    1.0210673  -0.16897329      1728000    2707.3991       166400       128370 
33290000   0.95318976  -0.15798567      1728000    2708.2168       166450       128411 
33300000   0.99105775  -0.14879625      1728000     2709.027       166500       128448 
33310000   0.96009841  -0.15849046      1728000    2709.8246       166550       128487 
33320000   0.95562238  -0.15603259      1728000    2710.6702       166600       128527 
33330000   0.95537984   -0.1696251      1728000    2711.4949       166650       128562 
33340000   0.99785448  -0.15262299      1728000    2712.3001       166700       128599 
33350000    1.0357163  -0.16696809      1728000    2713.1271       166750       128636 
33360000    1.0212108  -0.16038208      1728000    2713.9288       166800       128674 
33370000    1.0354859  -0.16249658      1728000    2714.7291       166850       128713 
33380000   0.93625228  -0.15325704      1728000    2715.5249       166900       128754 
33390000   0.98865382  -0.16506901      1728000    2716.3683       166950       128792 
33400000    1.0686227  -0.15734212      1728000    2717.1871       167000       128825 
33410000   0.93708612  -0.14734749      1728000    2717.9913       167050       128862 
33420000   0.91017438  -0.16006782      1728000    2718.7928       167100       128902 
33430000    1.0062161  -0.15203949      1728000    2719.5944       167150       128941 
33440000    1.0151185  -0.15723765      1728000     2720.399       167200       128983 
33450000    1.0345918  -0.17212321      1728000    2721.2018       167250       129025 
33460000    1.0189026  -0.17695701      1728000    2722.0181       167300       129061 
33470000   0.96492593  -0.16444309      1728000    2722.8297       167350       129097 
33480000    1.0443317  -0.15723798      1728000    2723.6739       167400       129138 
33490000    1.0112965  -0.16095444      1728000    2724.4741       167450       129179 
33500000    1.0335984  -0.16607705      1728000     2725.295       167500       129219 
33510000    1.0487165  -0.15883706      1728000    2726.0951       167550       129258 
33520000    1.0488828  -0.17890462      1728000     2726.905       167600       129293 
33530000   0.93600633  -0.17014119      1728000    2727.7119       167650       129327 
33540000   0.99588755  -0.14534443      1728000    2728.5149       167700       129368 
33550000    0.9285871  -0.17202462      1728000    2729.3169       167750       129410 
33560000    1.0305424  -0.16953256      1728000    2730.1208       167800       129444 
33570000    1.0641556  -0.15516888      1728000     2730.928       167850       129477 
33580000     1.008485  -0.15949443      1728000    2731.7451       167900       129515 
33590000   0.96114691  -0.16547304      1728000      2732.54       167950       129555 
33600000   0.93695232  -0.17036574      1728000    2733.3606       168000       129592 
33610000    1.0438468   -0.1784664      1728000    2734.1711       168050       129634 
33620000   0.98243455  -0.15893032      1728000     2734.981       168100       129671 
33630000   0.98856855  -0.16334435      1728000     2735.781       168150       129713 
33640000   0.98342419  -0.15103259      1728000     2736.582       168200       129754 
33650000   0.99171754  -0.15550604      1728000    2737.3922       168250       129788 
33660000   0.97149106  -0.16787308      1728000    2738.2002       168300       129829 
33670000   0.99707347  -0.15463202      1728000    2738.9981       168350       129867 
33680000    1.0563184  -0.15682697      1728000     2739.804       168400       129907 
33690000   0.97179253  -0.13860022      1728000    2740.6142       168450       129942 
33700000   0.99884135  -0.13242533      1728000    2741.4279       168500       129985 
33710000    1.0088039  -0.12884753      1728000    2742.2298       168550       130028 
33720000    1.0074039  -0.13419952      1728000    2743.0299       168600       130067 
33730000    1.0047452  -0.15790298      1728000    2743.8357       168650       130106 
33740000   0.95663112  -0.16565371      1728000    2744.6541       168700       130142 
33750000   0.99953779  -0.14209634      1728000     2745.519       168750       130180 
33760000    1.0052301  -0.14693186      1728000    2746.3602       168800       130216 
33770000   0.96663219   -0.1496267      1728000    2747.1691       168850       130254 
33780000   0.99628336  -0.13502334      1728000    2747.9929       168900       130295 
33790000    1.0015058  -0.13750324      1728000    2748.7961       168950       130337 
33800000    1.0501574  -0.14469375      1728000    2749.6061       169000       130377 
33810000   0.93649535   -0.1467013      1728000    2750.4089       169050       130421 
33820000     1.032547  -0.16419089      1728000    2751.2333       169100       130460 
33830000    1.0316453  -0.15513585      1728000    2752.0405       169150       130496 
33840000   0.98775988  -0.15480962      1728000    2752.8435       169200       130533 
33850000    1.0145068  -0.14849772      1728000    2753.6548       169250       130566 
33860000   0.98965866  -0.14831767      1728000    2754.4559       169300       130604 
33870000   0.93181125  -0.14271744      1728000    2755.2491       169350       130645 
33880000   0.99066426  -0.13848874      1728000    2756.0488       169400       130681 
33890000   0.96571209  -0.13531307      1728000    2756.8447       169450       130723 
33900000    1.0437557  -0.13986605      1728000    2757.6502       169500       130766 
33910000    0.9278738  -0.13598144      1728000    2758.4631       169550       130801 
33920000    1.0233188  -0.13447906      1728000    2759.2639       169600       130838 
33930000   0.98022637  -0.13510756      1728000    2760.0641       169650       130874 
33940000    1.0472969  -0.12536938      1728000    2760.8679       169700       130913 
33950000   0.95236291  -0.12338405      1728000    2761.6843       169750       130957 
33960000    0.9791424  -0.13028408      1728000    2762.4888       169800       130994 
33970000    1.0321792  -0.12544838      1728000    2763.2943       169850       131037 
33980000    0.9193786  -0.13364828      1728000    2764.0992       169900       131078 
33990000    1.0284606  -0.13622479      1728000    2764.9011       169950       131120 
34000000    1.0439375  -0.13859924      1728000    2765.7332       170000       131163 
34010000   0.96733747  -0.13142349      1728000    2766.5421       170050       131205 
34020000    1.0237523  -0.14164944      1728000    2767.3456       170100       131241 
34030000    0.9295805  -0.15032576      1728000    2768.1601       170150       131281 
34040000   0.98126534   -0.1443318      1728000    2768.9728       170200       131314 
34050000    1.0376884  -0.14291483      1728000     2769.785       170250       131352 
34060000    1.0135842  -0.14457391      1728000    2770.5941       170300       131389 
34070000   0.98442916  -0.14598454      1728000     2771.396       170350       131425 
34080000    1.0597796  -0.14069996      1728000    2772.2001       170400       131465 
34090000   0.96013986  -0.13874482      1728000     2773.046       170450       131504 
34100000   0.97768001   -0.1495456      1728000    2773.8602       170500       131547 
34110000    1.0570321  -0.15224883      1728000    2774.6819       170550       131590 
34120000   0.98270869  -0.13545533      1728000    2775.4991       170600       131632 
34130000   0.87650588  -0.15182409      1728000    2776.3111       170650       131674 
34140000   0.99554061   -0.1390772      1728000    2777.1272       170700       131714 
34150000    1.0212682  -0.12379957      1728000    2777.9322       170750       131754 
34160000    1.0346686  -0.13366483      1728000     2778.741       170800       131792 
34170000    1.0178608  -0.14008206      1728000    2779.5452       170850       131831 
34180000    1.0609861  -0.13421542      1728000    2780.3515       170900       131870 
34190000    1.0126005  -0.13139608      1728000    2781.1673       170950       131909 
34200000   0.98793344  -0.14168114      1728000    2781.9911       171000       131952 
34210000    1.0540857  -0.15218245      1728000    2782.7877       171050       131996 
34220000    1.0428556  -0.14946478      1728000     2783.617       171100       132030 
34230000   0.91883316  -0.16645296      1728000    2784.4222       171150       132069 
34240000   0.96748107  -0.15680292      1728000     2785.232       171200       132103 
34250000   0.96949282  -0.14917863      1728000    2786.0392       171250       132145 
34260000    1.0182384  -0.14362838      1728000     2786.843       171300       132187 
34270000    1.0144662  -0.15545819      1728000    2787.6811       171350       132225 
34280000   0.97344439  -0.15280175      1728000    2788.4912       171400       132263 
34290000    0.9802026  -0.13952638      1728000    2789.2959       171450       132303 
34300000    1.0051106  -0.14213886      1728000    2790.1071       171500       132342 
34310000    1.0260613  -0.13360992      1728000    2790.9181       171550       132380 
34320000   0.96313204  -0.14105036      1728000    2791.7322       171600       132417 
34330000   0.94914763  -0.14931299      1728000     2792.546       171650       132454 
34340000   0.97824958  -0.15660342      1728000    2793.3651       171700       132493 
34350000    1.0444786  -0.16796512      1728000    2794.2342       171750       132527 
34360000    1.0486095   -0.1659911      1728000    2795.1063       171800       132571 
34370000   0.96471923   -0.1524596      1728000    2795.9735       171850       132615 
34380000    1.0034375  -0.15744465      1728000    2796.8805       171900       132655 
34390000    1.0097917  -0.16143515      1728000    2797.7486       171950       132691 
34400000   0.96978787  -0.15307439      1728000    2798.5878       172000       132724 
34410000   0.96677871  -0.15969587      1728000    2799.4153       172050       132760 
34420000    1.0109037  -0.15062581      1728000    2800.2474       172100       132802 
34430000   0.99211816  -0.14387651      1728000    2801.0789       172150       132845 
34440000    1.0385986   -0.1487465      1728000    2801.8813       172200       132885 
34450000    1.0493981  -0.14121849      1728000    2802.6838       172250       132924 
34460000   0.98720563  -0.14083261      1728000     2803.504       172300       132959 
34470000    1.0095359  -0.12780866      1728000    2804.3211       172350       132995 
34480000   0.99274906  -0.13960338      1728000    2805.1739       172400       133031 
34490000   0.98950993  -0.12801549      1728000    2805.9882       172450       133074 
34500000    1.0437619   -0.1172314      1728000    2806.8231       172500       133115 
34510000    1.0261232  -0.12235786      1728000    2807.6443       172550       133152 
34520000   0.99637036  -0.13129724      1728000    2808.4405       172600       133192 
34530000    1.0629563  -0.13781349      1728000    2809.2621       172650       133231 
34540000   0.99257128  -0.11883926      1728000    2810.0681       172700       133275 
34550000   0.97344455  -0.14141737      1728000     2810.872       172750       133318 
34560000   0.98373495  -0.14961556      1728000    2811.6782       172800       133357 
34570000   0.95970897  -0.13895282      1728000    2812.5021       172850       133398 
34580000    1.0170161  -0.15726574      1728000    2813.3201       172900       133440 
34590000   0.92165696  -0.15390983      1728000    2814.1199       172950       133479 
34600000    1.0152695  -0.15888781      1728000    2814.9342       173000       133515 
34610000    0.9729246  -0.16214255      1728000    2815.7362       173050       133555 
34620000    0.9997491  -0.14247812      1728000    2816.5441       173100       133591 
34630000    1.0357392  -0.14262523      1728000     2817.353       173150       133631 
34640000   0.94703288  -0.15705481      1728000    2818.1662       173200       133670 
34650000   0.99693666  -0.13843505      1728000    2818.9731       173250       133711 
34660000    1.0404757  -0.13464018      1728000    2819.7721       173300       133753 
34670000   0.96279161  -0.14410602      1728000     2820.571       173350       133792 
34680000   0.99801663   -0.1430422      1728000    2821.3843       173400       133831 
34690000    1.0459157  -0.14971694      1728000    2822.1898       173450       133874 
34700000   0.98274317  -0.13821185      1728000     2823.019       173500       133910 
34710000    1.0072002  -0.16348076      1728000     2823.824       173550       133950 
34720000   0.99974743  -0.15000047      1728000    2824.6291       173600       133985 
34730000    1.0160078  -0.14609375      1728000    2825.4369       173650       134027 
34740000   0.97743201  -0.12932458      1728000    2826.2383       173700       134065 
34750000    0.9929831  -0.14127117      1728000    2827.0452       173750       134106 
34760000   0.99559187  -0.13463878      1728000     2827.856       173800       134145 
34770000   0.98716478  -0.14910299      1728000    2828.6634       173850       134184 
34780000    1.0179956  -0.15517242      1728000    2829.4796       173900       134227 
34790000    1.0133107   -0.1618921      1728000    2830.2937       173950       134267 
34800000    1.0672426  -0.16520421      1728000    2831.1055       174000       134312 
34810000    0.9331069  -0.17416642      1728000    2831.9162       174050       134350 
34820000   0.97470683  -0.17504965      1728000    2832.7294       174100       134387 
34830000   0.96054004  -0.16290487      1728000     2833.542       174150       134425 
34840000    1.0860808  -0.17225365      1728000    2834.3461       174200       134461 
34850000    0.9705927  -0.15955736      1728000    2835.1557       174250       134501 
34860000   0.96476286  -0.14369472      1728000     2835.989       174300       134534 
34870000    1.0115876   -0.1536818      1728000    2836.8031       174350       134574 
34880000   0.99740766  -0.14575965      1728000    2837.6262       174400       134610 
34890000    1.0004613  -0.15718293      1728000    2838.4312       174450       134654 
34900000    1.0259257  -0.15396466      1728000    2839.4731       174500       134691 
34910000    1.0285948  -0.14904589      1728000    2840.2816       174550       134732 
34920000   0.95602332  -0.16450415      1728000     2841.105       174600       134769 
34930000    1.0439857  -0.15433225      1728000     2841.918       174650       134804 
34940000    0.9922245  -0.15748372      1728000     2842.748       174700       134838 
34950000   0.98686755  -0.15850797      1728000     2843.571       174750       134876 
34960000    1.0165543  -0.14890801      1728000    2844.3931       174800       134913 
34970000   0.98620481  -0.16355081      1728000    2845.1989       174850       134949 
34980000    1.0110567  -0.15372081      1728000    2846.0079       174900       134988 
34990000     1.051503  -0.15273604      1728000    2846.8458       174950       135021 
35000000    1.0253752   -0.1434249      1728000    2847.6795       175000       135059 
35010000    1.0657527  -0.14084081      1728000    2848.5046       175050       135098 
35020000    1.0080756  -0.14548716      1728000    2849.3071       175100       135140 
35030000   0.94258552  -0.13331087      1728000    2850.1079       175150       135185 
35040000    1.0646438   -0.1371681      1728000    2850.9181       175200       135226 
35050000   0.97943134  -0.15661093      1728000    2851.7284       175250       135263 
35060000    1.0406279  -0.15973458      1728000    2852.5256       175300       135306 
35070000   0.99975382   -0.1581267      1728000    2853.3328       175350       135347 
35080000    0.9622615  -0.15597402      1728000    2854.1657       175400       135383 
35090000   0.96512643  -0.14483586      1728000    2854.9762       175450       135421 
35100000    0.9986822  -0.16672802      1728000     2855.793       175500       135462 
35110000    1.0117318  -0.15900556      1728000     2856.605       175550       135503 
35120000   0.98266479  -0.14848378      1728000    2857.4111       175600       135549 
35130000     1.045685  -0.14967989      1728000     2858.216       175650       135588 
35140000   0.93347892  -0.17070582      1728000    2859.0378       175700       135626 
35150000   0.94604429  -0.16434688      1728000    2859.9049       175750       135663 
35160000     1.030447  -0.15659235      1728000     2860.741       175800       135699 
35170000   0.95665969  -0.16105269      1728000    2861.5584       175850       135741 
35180000    1.0701151  -0.13739286      1728000    2862.3988       175900       135777 
35190000    1.0789569  -0.15291021      1728000     2863.238       175950       135811 
35200000   0.98201295   -0.1509794      1728000    2864.0562       176000       135852 
35210000    0.9681191  -0.15312484      1728000    2864.8733       176050       135896 
35220000    1.0214891  -0.15980759      1728000    2865.6916       176100       135935 
35230000   0.93348659   -0.1548533      1728000    2866.5068       176150       135977 
35240000    1.0191031  -0.16262509      1728000    2867.3144       176200       136015 
35250000    1.0153627  -0.15357615      1728000    2868.1286       176250       136052 
35260000    1.0049738  -0.14759028      1728000    2868.9309       176300       136090 
35270000   0.96850641   -0.1551072      1728000    2869.7371       176350       136127 
35280000    1.0044318  -0.15653833      1728000    2870.5459       176400       136166 
35290000    1.0641519  -0.14698666      1728000    2871.3504       176450       136206 
35300000    1.0313781  -0.14798375      1728000    2872.1596       176500       136244 
35310000    1.0072612   -0.1574587      1728000    2872.9674       176550       136278 
35320000    1.0370438  -0.14576406      1728000    2873.7726       176600       136315 
35330000     1.009172  -0.15587411      1728000     2874.575       176650       136358 
35340000   0.99344331  -0.14904871      1728000    2875.3764       176700       136395 
35350000    1.0233793  -0.14577911      1728000    2876.1806       176750       136434 
35360000   0.99519841  -0.16547663      1728000    2876.9849       176800       136472 
35370000    1.0177453  -0.15578417      1728000    2877.7881       176850       136512 
35380000    0.9728063  -0.15511654      1728000    2878.5963       176900       136550 
35390000    1.0751875  -0.13188071      1728000    2879.3884       176950       136591 
35400000   0.98441313  -0.13205334      1728000    2880.2136       177000       136628 
35410000   0.95216087  -0.14000108      1728000    2881.0212       177050       136669 
35420000    1.0725589  -0.14452106      1728000    2881.8264       177100       136711 
35430000   0.99609068  -0.13814188      1728000    2882.6261       177150       136745 
35440000   0.94055883  -0.14170713      1728000    2883.4356       177200       136784 
35450000    1.0092616  -0.13515771      1728000     2884.256       177250       136825 
35460000   0.97888122  -0.13291275      1728000    2885.0885       177300       136864 
35470000    1.0117412  -0.12731407      1728000    2885.9115       177350       136901 
35480000    1.0549484  -0.13891237      1728000     2886.718       177400       136945 
35490000   0.96628383  -0.14009216      1728000    2887.5281       177450       136989 
35500000    1.0170568    -0.132972      1728000    2888.3481       177500       137030 
35510000    1.0369406  -0.14705954      1728000     2889.181       177550       137063 
35520000   0.96817767  -0.15480142      1728000     2889.991       177600       137104 
35530000     1.006238  -0.14236462      1728000    2890.7979       177650       137147 
35540000   0.99745024  -0.15223715      1728000    2891.6149       177700       137182 
35550000    1.0015705  -0.14906299      1728000    2892.4299       177750       137218 
35560000    1.0117738  -0.15622235      1728000     2893.248       177800       137255 
35570000    1.0163609  -0.14974969      1728000    2894.0694       177850       137291 
35580000     1.009664  -0.15001827      1728000    2894.8702       177900       137331 
35590000   0.97335025  -0.13678168      1728000    2895.6869       177950       137370 
35600000    1.0427776  -0.14202124      1728000    2896.5061       178000       137413 
35610000    1.0012436  -0.12524067      1728000     2897.314       178050       137455 
35620000    1.0565651  -0.12163737      1728000    2898.1399       178100       137492 
35630000   0.95820719  -0.13376772      1728000    2898.9458       178150       137533 
35640000     1.027275  -0.12505451      1728000    2899.7793       178200       137573 
35650000   0.95059866  -0.14096842      1728000    2900.5877       178250       137615 
35660000   0.97663421  -0.13069745      1728000     2901.418       178300       137656 
35670000   0.99142816  -0.13498999      1728000    2902.2232       178350       137701 
35680000    1.0357715  -0.12465636      1728000    2903.0318       178400       137742 
35690000    1.0244088  -0.14098963      1728000    2903.8589       178450       137780 
35700000    1.0766637  -0.14182261      1728000    2904.7081       178500       137815 
35710000   0.96491176  -0.15331008      1728000    2905.5177       178550       137852 
35720000    1.0133765  -0.16138873      1728000    2906.3349       178600       137888 
35730000    1.0069988   -0.1771701      1728000    2907.1482       178650       137929 
35740000     1.035039  -0.16909946      1728000    2907.9637       178700       137968 
35750000    1.0353827  -0.17679308      1728000    2908.7777       178750       138003 
35760000    1.0424298  -0.16791669      1728000    2909.5992       178800       138041 
35770000    1.0609153  -0.17018241      1728000    2910.4248       178850       138072 
35780000    1.0528631  -0.17127019      1728000    2911.2372       178900       138107 
35790000    1.0336469  -0.16991146      1728000    2912.0725       178950       138145 
35800000    0.9834199  -0.18287754      1728000    2912.8975       179000       138185 
35810000   0.93333152  -0.17225135      1728000    2913.7119       179050       138221 
35820000   0.93887215  -0.18229423      1728000    2914.5192       179100       138257 
35830000     1.035001  -0.16765594      1728000    2915.3252       179150       138294 
35840000   0.96482931   -0.1815367      1728000    2916.1332       179200       138332 
35850000    1.0526308  -0.16067123      1728000    2916.9361       179250       138371 
35860000   0.95297479  -0.15048984      1728000    2917.7401       179300       138410 
35870000   0.99778205  -0.15531263      1728000    2918.5459       179350       138451 
35880000    1.0382441  -0.15439014      1728000      2919.36       179400       138493 
35890000    1.0104081  -0.15243934      1728000    2920.1633       179450       138535 
35900000   0.96197622  -0.14618392      1728000     2920.996       179500       138569 
35910000   0.93108177  -0.14894232      1728000    2921.8051       179550       138605 
35920000    1.0414258  -0.14953053      1728000      2922.63       179600       138649 
35930000   0.94256486  -0.15443393      1728000    2923.4309       179650       138687 
35940000    1.0290468  -0.14434665      1728000    2924.2501       179700       138723 
35950000   0.96445607  -0.13491084      1728000    2925.0552       179750       138766 
35960000    1.0609256   -0.1414684      1728000    2925.8974       179800       138809 
35970000   0.95141294  -0.15357042      1728000    2926.7091       179850       138846 
35980000    1.0309617  -0.15275585      1728000    2927.5199       179900       138878 
35990000    1.0372848   -0.1538139      1728000    2928.3321       179950       138917 
36000000   0.97238652   -0.1618056      1728000    2929.1631       180000       138960 
36010000   0.95651022  -0.15169896      1728000    2929.9991       180050       138994 
36020000    1.0057851  -0.13887686      1728000     2930.832       180100       139030 
36030000   0.94206799  -0.13723007      1728000    2931.6912       180150       139072 
36040000    1.0298029  -0.14094507      1728000    2932.5102       180200       139114 
36050000    0.9802399  -0.14573325      1728000    2933.3362       180250       139155 
36060000    1.0619398   -0.1444081      1728000    2934.1922       180300       139194 
36070000    1.0446623  -0.15606429      1728000     2935.025       180350       139233 
36080000   0.97847362  -0.16860318      1728000    2935.8362       180400       139271 
36090000    1.0158972  -0.15821882      1728000    2936.6439       180450       139308 
36100000   0.99321737  -0.14614741      1728000    2937.4701       180500       139345 
36110000    1.0610046  -0.14124804      1728000    2938.2952       180550       139378 
36120000   0.97878402  -0.15583137      1728000    2939.1051       180600       139416 
36130000    1.0140423  -0.14509858      1728000     2939.931       180650       139456 
36140000   0.97399694  -0.15448171      1728000    2940.7481       180700       139496 
36150000   0.96543173  -0.15718579      1728000    2941.5791       180750       139535 
36160000   0.93012641  -0.13227251      1728000    2942.3969       180800       139569 
36170000    1.0228295    -0.152766      1728000    2943.2031       180850       139609 
36180000   0.94682814  -0.14804226      1728000    2944.0091       180900       139651 
36190000   0.98710419  -0.13665241      1728000    2944.8134       180950       139688 
36200000   0.95136264  -0.13277014      1728000    2945.6472       181000       139728 
36210000     1.027396  -0.13628298      1728000    2946.4583       181050       139765 
36220000    1.0349583  -0.13119132      1728000    2947.2669       181100       139803 
36230000   0.98711727  -0.14022148      1728000      2948.08       181150       139840 
36240000   0.96985741  -0.13828711      1728000    2948.8852       181200       139880 
36250000    1.0477954  -0.14470891      1728000    2949.6941       181250       139918 
36260000    1.0027449   -0.1561549      1728000       2950.5       181300       139957 
36270000   0.97481923  -0.16277911      1728000     2951.304       181350       139991 
36280000    1.0537628  -0.16344479      1728000    2952.1032       181400       140025 
36290000   0.97439159  -0.15818426      1728000    2952.9077       181450       140062 
36300000   0.91389772  -0.16098489      1728000     2953.723       181500       140099 
36310000   0.99146034  -0.17113171      1728000    2954.5375       181550       140139 
36320000    1.0507981   -0.1546757      1728000    2955.3412       181600       140176 
36330000   0.99940461  -0.16173905      1728000    2956.1472       181650       140214 
36340000    1.0180851  -0.17115867      1728000    2956.9502       181700       140254 
36350000    1.0318137  -0.14623477      1728000    2957.7581       181750       140287 
36360000   0.96626122  -0.16021258      1728000    2958.5566       181800       140328 
36370000    1.0058395  -0.15343296      1728000    2959.3569       181850       140367 
36380000   0.99705491  -0.15194994      1728000    2960.1552       181900       140409 
36390000    0.9900408  -0.16005304      1728000    2960.9712       181950       140452 
36400000    1.0109614  -0.14557351      1728000    2961.7881       182000       140491 
36410000    1.0493246  -0.13994212      1728000    2962.5871       182050       140532 
36420000   0.95136834  -0.14475986      1728000    2963.4152       182100       140569 
36430000   0.96320787  -0.14644592      1728000    2964.2162       182150       140608 
36440000   0.99645113   -0.1508008      1728000     2965.011       182200       140645 
36450000    1.0151927  -0.15090452      1728000    2965.8121       182250       140680 
36460000   0.97120557  -0.15029383      1728000    2966.6102       182300       140724 
36470000   0.97030329  -0.15786463      1728000    2967.4121       182350       140761 
36480000    1.0053432  -0.16609824      1728000     2968.225       182400       140798 
36490000    1.0623929  -0.16181646      1728000    2969.0322       182450       140837 
36500000    1.0063416  -0.16512882      1728000    2969.8472       182500       140876 
36510000    1.0514505  -0.16759035      1728000    2970.6458       182550       140919 
36520000    1.0337335  -0.16073818      1728000    2971.4532       182600       140957 
36530000    1.0136348  -0.17073253      1728000     2972.254       182650       140995 
36540000    1.0094006  -0.18494304      1728000     2973.055       182700       141032 
36550000    1.0580042  -0.17538085      1728000    2973.8592       182750       141070 
36560000   0.94142151  -0.18135317      1728000    2974.6832       182800       141109 
36570000    1.0250494  -0.16685702      1728000    2975.4952       182850       141147 
36580000   0.98257462  -0.16849984      1728000    2976.3031       182900       141185 
36590000    1.0615451   -0.1565743      1728000     2977.112       182950       141214 
36600000    1.0160666  -0.15076253      1728000    2977.9217       183000       141251 
36610000   0.94991276  -0.14852755      1728000    2978.7504       183050       141291 
36620000    1.0208547  -0.15968129      1728000    2979.5586       183100       141328 
36630000    1.0137368  -0.15270513      1728000    2980.3658       183150       141370 
36640000    1.0891696  -0.16404895      1728000    2981.1772       183200       141414 
36650000    1.0500624  -0.16367048      1728000    2981.9797       183250       141451 
36660000   0.98502078  -0.16296135      1728000    2982.7841       183300       141490 
36670000    1.0293218  -0.16094147      1728000      2983.59       183350       141531 
36680000    1.0152359  -0.16098755      1728000    2984.3981       183400       141566 
36690000    1.0225535  -0.15377516      1728000    2985.2202       183450       141601 
36700000    1.0179823  -0.15478233      1728000    2986.0583       183500       141638 
36710000    1.0269604  -0.15853922      1728000    2986.8674       183550       141681 
36720000    1.0084269  -0.15186014      1728000    2987.6922       183600       141720 
36730000   0.95577781  -0.16661106      1728000    2988.5031       183650       141758 
36740000    1.0306897  -0.17046659      1728000    2989.3044       183700       141801 
36750000   0.99422979  -0.16851708      1728000    2990.1141       183750       141839 
36760000   0.95809758   -0.1729947      1728000     2990.925       183800       141877 
36770000    1.0208049  -0.19047549      1728000    2991.7342       183850       141907 
36780000   0.98452303  -0.17775175      1728000     2992.542       183900       141942 
36790000    1.0035871  -0.17211591      1728000    2993.3534       183950       141985 
36800000    1.0488941   -0.1513091      1728000    2994.1731       184000       142027 
36810000    1.0195504  -0.16247394      1728000    2994.9975       184050       142062 
36820000   0.95638396  -0.16120445      1728000    2995.8272       184100       142098 
36830000    1.0115035  -0.15718831      1728000    2996.6314       184150       142138 
36840000   0.96075979  -0.14928074      1728000    2997.4352       184200       142175 
36850000   0.96942223  -0.12760199      1728000    2998.2361       184250       142217 
36860000   0.97308335  -0.13874694      1728000    2999.0409       184300       142260 
36870000   0.96287988  -0.13060251      1728000    2999.8468       184350       142301 
36880000   0.99580726  -0.13227513      1728000     3000.653       184400       142344 
36890000    1.0132389  -0.13843839      1728000    3001.4541       184450       142390 
36900000    1.0141531  -0.13008684      1728000    3002.2712       184500       142423 
36910000   0.96182528  -0.13029116      1728000    3003.0822       184550       142463 
36920000   0.91974756  -0.13552402      1728000     3003.883       184600       142504 
36930000   0.96437366  -0.14886393      1728000    3004.6942       184650       142543 
36940000    1.0893986  -0.16271079      1728000    3005.4982       184700       142586 
36950000    1.0562753  -0.13960112      1728000    3006.3012       184750       142622 
36960000   0.95876628  -0.14323539      1728000    3007.0962       184800       142665 
36970000   0.95043223  -0.14471048      1728000    3007.8988       184850       142701 
36980000    1.0314804  -0.13967571      1728000    3008.6992       184900       142745 
36990000   0.93993359  -0.14062867      1728000     3009.502       184950       142781 
37000000   0.94897895  -0.13338966      1728000    3010.3362       185000       142819 
37010000    1.0163481  -0.14087846      1728000     3011.136       185050       142861 
37020000    1.0259086  -0.15388341      1728000    3011.9342       185100       142902 
37030000   0.92816265  -0.13895525      1728000    3012.7312       185150       142946 
37040000   0.98063718   -0.1540491      1728000    3013.5392       185200       142986 
37050000   0.98662391  -0.16149047      1728000    3014.3453       185250       143025 
37060000   0.95741365  -0.15799606      1728000    3015.1502       185300       143061 
37070000   0.91733293  -0.15994729      1728000    3015.9613       185350       143100 
37080000    1.0325075  -0.15050158      1728000    3016.7802       185400       143137 
37090000   0.93605655  -0.14578649      1728000    3017.5842       185450       143175 
37100000   0.99424685  -0.15470058      1728000    3018.3922       185500       143214 
37110000    1.1133114  -0.15361922      1728000    3019.2004       185550       143251 
37120000   0.97626319  -0.15019546      1728000    3020.0092       185600       143287 
37130000   0.97062765    -0.159775      1728000    3020.8161       185650       143327 
37140000    1.0238474  -0.16744959      1728000    3021.6172       185700       143364 
37150000    1.0351541  -0.16953536      1728000    3022.4211       185750       143405 
37160000   0.99785636  -0.16848582      1728000    3023.2412       185800       143446 
37170000   0.96456717  -0.16654081      1728000    3024.0811       185850       143490 
37180000   0.98079173  -0.16155446      1728000    3024.8881       185900       143528 
37190000    1.0319957  -0.15558241      1728000    3025.6882       185950       143567 
37200000    1.0097173  -0.15466559      1728000    3026.5002       186000       143608 
37210000    1.0030303  -0.14286795      1728000    3027.3062       186050       143655 
37220000   0.96608839  -0.13861933      1728000    3028.1191       186100       143691 
37230000   0.99996516  -0.13154529      1728000    3028.9382       186150       143733 
37240000    1.0077173  -0.13694448      1728000    3029.7473       186200       143775 
37250000    1.0133824  -0.15716849      1728000    3030.5532       186250       143811 
37260000    1.0196893  -0.15919491      1728000    3031.3602       186300       143854 
37270000   0.99517877  -0.17329044      1728000    3032.1632       186350       143896 
37280000    1.0354207  -0.16631285      1728000    3032.9632       186400       143933 
37290000   0.96946576   -0.1694893      1728000    3033.7652       186450       143965 
37300000   0.93529957  -0.16780396      1728000    3034.5752       186500       144001 
37310000   0.95017872  -0.15361113      1728000    3035.3821       186550       144038 
37320000    1.0367811  -0.14296487      1728000    3036.2164       186600       144070 
37330000   0.95168863  -0.15052407      1728000    3037.0252       186650       144102 
37340000    1.0010551  -0.14102915      1728000     3037.833       186700       144142 
37350000   0.99000536  -0.13291977      1728000    3038.6393       186750       144182 
37360000   0.97761489   -0.1452062      1728000     3039.438       186800       144219 
37370000    1.0353086  -0.14777928      1728000     3040.242       186850       144256 
37380000   0.99642303  -0.14922435      1728000    3041.0443       186900       144295 
37390000   0.96873706  -0.14037371      1728000    3041.8453       186950       144331 
37400000   0.99056228  -0.16905599      1728000      3042.66       187000       144373 
37410000   0.97825826  -0.14772597      1728000    3043.4852       187050       144408 
37420000    1.0722421  -0.15369511      1728000    3044.2931       187100       144446 
37430000    1.0126706   -0.1558226      1728000    3045.0934       187150       144482 
37440000     1.043321  -0.14164078      1728000    3045.8972       187200       144519 
37450000    1.0155328  -0.14102623      1728000    3046.7002       187250       144563 
37460000   0.96258418  -0.15442668      1728000    3047.5072       187300       144597 
37470000   0.94475094  -0.13851718      1728000    3048.3164       187350       144637 
37480000   0.97268732  -0.14155412      1728000    3049.1102       187400       144677 
37490000   0.99380436  -0.14769929      1728000    3049.9122       187450       144714 
37500000   0.93808483  -0.13804405      1728000    3050.7215       187500       144756 
37510000   0.96525904  -0.14635071      1728000    3051.5222       187550       144796 
37520000   0.99229442  -0.14309114      1728000    3052.3284       187600       144831 
37530000    1.0232834  -0.13745728      1728000    3053.1483       187650       144867 
37540000    1.0179431  -0.13528212      1728000    3053.9532       187700       144905 
37550000   0.97434873  -0.14457241      1728000    3054.7564       187750       144939 
37560000   0.93639037  -0.13924865      1728000    3055.5584       187800       144982 
37570000    1.0143939   -0.1429584      1728000    3056.3856       187850       145020 
37580000    1.0425388  -0.14452855      1728000    3057.2002       187900       145061 
37590000    1.0600661  -0.14020471      1728000    3058.0292       187950       145106 
37600000    1.0867419  -0.14933893      1728000    3058.8491       188000       145149 
37610000    0.9507781  -0.13740898      1728000    3059.6593       188050       145190 
37620000    1.0555697  -0.13925834      1728000    3060.4587       188100       145227 
37630000    1.0099389  -0.14650401      1728000    3061.2666       188150       145269 
37640000   0.93530769  -0.14969993      1728000    3062.0761       188200       145307 
37650000   0.98966238  -0.14349417      1728000    3062.8812       188250       145347 
37660000    1.0268455   -0.1533375      1728000     3063.696       188300       145390 
37670000   0.91861804  -0.14308254      1728000    3064.5052       188350       145427 
37680000   0.98736285  -0.13635461      1728000    3065.3091       188400       145467 
37690000    1.0765169  -0.13429918      1728000    3066.1083       188450       145505 
37700000    1.0177704  -0.14128139      1728000    3066.9193       188500       145546 
37710000    1.0353854  -0.14585975      1728000    3067.7449       188550       145582 
37720000    1.0152193  -0.15975928      1728000    3068.5592       188600       145620 
37730000   0.99043605  -0.14660077      1728000    3069.3673       188650       145655 
37740000   0.99072812  -0.16041613      1728000    3070.1751       188700       145696 
37750000    1.0566785  -0.16072287      1728000    3070.9812       188750       145733 
37760000   0.95476729  -0.15638469      1728000    3071.7922       188800       145772 
37770000    1.0229999  -0.17309494      1728000    3072.5972       188850       145811 
37780000    1.0166862   -0.1715134      1728000    3073.4092       188900       145854 
37790000   0.96149209  -0.16815503      1728000    3074.2202       188950       145889 
37800000    1.0425438  -0.15747178      1728000      3075.03       189000       145924 
37810000   0.98941486  -0.15701417      1728000    3075.8513       189050       145957 
37820000    1.0570774   -0.1588071      1728000    3076.6563       189100       145995 
37830000   0.98249706  -0.15931548      1728000    3077.4613       189150       146034 
37840000    1.0454639  -0.15932019      1728000    3078.2743       189200       146068 
37850000   0.94950728  -0.16071299      1728000    3079.0793       189250       146105 
37860000    1.0306698  -0.15712011      1728000    3079.8813       189300       146145 
37870000   0.97359481  -0.15859214      1728000    3080.7001       189350       146183 
37880000   0.94105559   -0.1597566      1728000    3081.5212       189400       146221 
37890000   0.98666841  -0.15826493      1728000    3082.3284       189450       146261 
37900000    0.9559553  -0.15994651      1728000    3083.1442       189500       146296 
37910000    1.0635795  -0.14955983      1728000    3083.9672       189550       146336 
37920000    1.0034998  -0.15197817      1728000     3084.767       189600       146376 
37930000   0.97329059  -0.12331366      1728000    3085.5665       189650       146418 
37940000   0.93144706  -0.14577225      1728000    3086.3716       189700       146453 
37950000    1.0623493  -0.15647083      1728000    3087.1797       189750       146489 
37960000   0.97842739  -0.14708051      1728000     3087.989       189800       146526 
37970000    1.0024495  -0.14247839      1728000    3088.7975       189850       146560 
37980000   0.98549548  -0.13277097      1728000    3089.6077       189900       146600 
37990000    1.0845356  -0.14331489      1728000    3090.4502       189950       146644 
38000000    1.0584986     -0.14852      1728000    3091.2697       190000       146683 
38010000   0.96240315  -0.13924334      1728000    3092.0742       190050       146716 
38020000    1.0208766  -0.14465644      1728000    3092.8954       190100       146752 
38030000     1.009625  -0.14167034      1728000    3093.7305       190150       146788 
38040000    1.0517189  -0.13898797      1728000    3094.5427       190200       146830 
38050000    1.0510023   -0.1446417      1728000    3095.3504       190250       146870 
38060000    1.0119624  -0.14272155      1728000    3096.1517       190300       146907 
38070000     1.102003  -0.14392611      1728000    3096.9613       190350       146946 
38080000   0.99659467  -0.13683334      1728000    3097.7751       190400       146988 
38090000    1.0313781  -0.12526506      1728000    3098.5798       190450       147028 
38100000   0.97201163  -0.14626414      1728000    3099.4123       190500       147066 
38110000   0.93584361  -0.14575592      1728000    3100.2193       190550       147104 
38120000    1.0346358  -0.13217879      1728000    3101.0208       190600       147144 
38130000   0.98598569  -0.12507271      1728000    3101.8425       190650       147182 
38140000    1.0175544  -0.12429744      1728000    3102.6512       190700       147221 
38150000    1.0344303  -0.12890353      1728000    3103.4802       190750       147266 
38160000    0.9512734  -0.13999775      1728000    3104.3171       190800       147308 
38170000   0.97952401  -0.14460827      1728000    3105.1267       190850       147346 
38180000    1.0071963  -0.13420257      1728000    3106.0027       190900       147386 
38190000   0.93848324  -0.13887935      1728000    3106.8311       190950       147424 
38200000   0.95955165  -0.13933305      1728000    3107.6573       191000       147464 
38210000    1.0243634  -0.13047848      1728000    3108.4785       191050       147506 
38220000   0.98359822  -0.13958776      1728000    3109.2917       191100       147550 
38230000    1.0122391  -0.13154155      1728000    3110.1418       191150       147589 
38240000    1.0354237  -0.13979768      1728000    3110.9709       191200       147631 
38250000    1.0565105  -0.13112597      1728000    3111.8793       191250       147669 
38260000   0.96149329  -0.13625946      1728000    3112.7074       191300       147706 
38270000   0.96670881   -0.1243098      1728000    3113.5456       191350       147744 
38280000    1.0706173  -0.14994033      1728000    3114.3548       191400       147785 
38290000    1.0412251  -0.14422294      1728000    3115.1682       191450       147821 
38300000    1.0680077  -0.14133524      1728000    3116.0093       191500       147853 
38310000    1.0025424  -0.14079445      1728000    3116.8292       191550       147890 
38320000   0.98856858  -0.13503463      1728000    3117.6682       191600       147928 
38330000    1.0172447  -0.12528675      1728000    3118.5074       191650       147972 
38340000   0.97848842  -0.11826645      1728000    3119.3505       191700       148013 
38350000   0.99022999  -0.12872437      1728000    3120.1587       191750       148053 
38360000    0.9617215  -0.14984114      1728000    3120.9969       191800       148090 
38370000    1.0357815  -0.13006655      1728000    3121.8091       191850       148129 
38380000    1.0048013  -0.15567336      1728000    3122.6154       191900       148166 
38390000    1.0393095  -0.14808721      1728000    3123.4283       191950       148208 
38400000    1.0426271  -0.14921268      1728000    3124.2643       192000       148249 
38410000    1.0335027  -0.13956292      1728000    3125.0853       192050       148283 
38420000      1.02438  -0.13869128      1728000    3125.9022       192100       148323 
38430000   0.95587546  -0.13137952      1728000    3126.7084       192150       148367 
38440000   0.99613302  -0.13430992      1728000    3127.5204       192200       148404 
38450000    1.0405735  -0.13744783      1728000    3128.3414       192250       148444 
38460000    1.0055186  -0.13643595      1728000    3129.1633       192300       148482 
38470000    1.0095788  -0.13492855      1728000    3129.9833       192350       148521 
38480000    1.0338477  -0.12866198      1728000    3130.8144       192400       148561 
38490000   0.97226588  -0.12859515      1728000    3131.6346       192450       148602 
38500000    1.0626182  -0.11378203      1728000    3132.4667       192500       148642 
38510000   0.97084076  -0.12067288      1728000    3133.2774       192550       148679 
38520000   0.95853201  -0.12599697      1728000    3134.1245       192600       148719 
38530000   0.99383783  -0.13847508      1728000    3134.9557       192650       148760 
38540000   0.97913285  -0.13158087      1728000    3135.7918       192700       148799 
38550000   0.98460206  -0.13554217      1728000      3136.62       192750       148843 
38560000   0.99726435  -0.13114052      1728000    3137.4503       192800       148878 
38570000    1.0128709  -0.13850078      1728000    3138.2864       192850       148917 
38580000   0.99052391  -0.13585339      1728000    3139.1156       192900       148959 
38590000    1.0205203  -0.13638599      1728000    3139.9867       192950       148997 
38600000     1.000131  -0.15496152      1728000    3140.8648       193000       149036 
38610000   0.97200683  -0.14964492      1728000    3141.6799       193050       149076 
38620000   0.95707712  -0.16113067      1728000    3142.4844       193100       149113 
38630000   0.99507816  -0.16350518      1728000    3143.2964       193150       149150 
38640000    1.0007503  -0.16440315      1728000    3144.1272       193200       149189 
38650000   0.97754009  -0.15191817      1728000    3144.9532       193250       149227 
38660000   0.98328614  -0.15866464      1728000    3145.8036       193300       149263 
38670000   0.95610227  -0.15125096      1728000    3146.6438       193350       149305 
38680000   0.95458264  -0.15431535      1728000    3147.4423       193400       149342 
38690000    1.0437044  -0.16907914      1728000    3148.2505       193450       149381 
38700000     1.019908  -0.16400593      1728000    3149.0714       193500       149425 
38710000    1.0049454  -0.18323437      1728000    3149.8786       193550       149457 
38720000    1.0282075   -0.1519612      1728000     3150.697       193600       149497 
38730000   0.99875091  -0.14934563      1728000    3151.4925       193650       149538 
38740000    1.0222256  -0.13596617      1728000    3152.2985       193700       149577 
38750000    1.0248449   -0.1502591      1728000    3153.1013       193750       149614 
38760000   0.96926231  -0.13327498      1728000    3153.9138       193800       149657 
38770000   0.99654402  -0.15159713      1728000    3154.7195       193850       149696 
38780000   0.98072537   -0.1457785      1728000    3155.5385       193900       149733 
38790000    0.9922292  -0.15260585      1728000    3156.3485       193950       149768 
38800000   0.96721283  -0.15161615      1728000    3157.1853       194000       149804 
38810000   0.98927936  -0.15169578      1728000    3158.0054       194050       149840 
38820000    1.0205857  -0.16349048      1728000    3158.8203       194100       149879 
38830000    1.0116652  -0.17119663      1728000    3159.6273       194150       149919 
38840000    0.9490428  -0.16879453      1728000    3160.4424       194200       149957 
38850000    1.0017802  -0.17226306      1728000    3161.2665       194250       149994 
38860000    1.0083833  -0.16719929      1728000    3162.0983       194300       150033 
38870000   0.98115535  -0.17483952      1728000    3162.9364       194350       150073 
38880000    0.9912826  -0.15925566      1728000    3163.7375       194400       150109 
38890000   0.92346904  -0.15350153      1728000    3164.5284       194450       150146 
38900000    0.9946677  -0.14914903      1728000    3165.3211       194500       150178 
38910000    1.0056526  -0.14728338      1728000    3166.1084       194550       150218 
38920000   0.97365172  -0.14553181      1728000    3166.8924       194600       150257 
38930000    1.0017907  -0.14352948      1728000    3167.6756       194650       150297 
38940000    1.0426967  -0.13247606      1728000    3168.4595       194700       150341 
38950000    1.0002244  -0.12793971      1728000    3169.2474       194750       150383 
38960000    1.0428317  -0.14131331      1728000    3170.0394       194800       150424 
38970000   0.99192703  -0.12652824      1728000    3170.8265       194850       150471 
38980000    1.0012549   -0.1284289      1728000    3171.6113       194900       150508 
38990000    1.0266255  -0.13487509      1728000    3172.3943       194950       150547 
39000000    1.0031742  -0.12854853      1728000    3173.1944       195000       150587 
39010000    1.0230139  -0.14196364      1728000    3173.9785       195050       150630 
39020000   0.99546379  -0.15861564      1728000    3174.7693       195100       150671 
39030000    0.9769791  -0.16305758      1728000    3175.5615       195150       150707 
39040000    1.0048816  -0.15711003      1728000    3176.3601       195200       150741 
39050000    0.9496504  -0.15641565      1728000    3177.1522       195250       150783 
39060000   0.99682412  -0.14961416      1728000    3177.9436       195300       150826 
39070000    1.0083759  -0.15697783      1728000    3178.7334       195350       150861 
39080000    0.9506347  -0.16192842      1728000    3179.5215       195400       150897 
39090000    1.0464068  -0.16097051      1728000    3180.3134       195450       150932 
39100000    1.0512698  -0.16122047      1728000    3181.1074       195500       150970 
39110000    1.0229173  -0.16454285      1728000    3181.8883       195550       151005 
39120000    1.0408983  -0.16785569      1728000    3182.6725       195600       151040 
39130000    1.0589039  -0.17559133      1728000    3183.4594       195650       151078 
39140000     1.024559  -0.17241043      1728000    3184.2444       195700       151115 
39150000   0.99896517  -0.17677837      1728000    3185.0295       195750       151151 
39160000   0.96438368  -0.16616275      1728000    3185.8122       195800       151188 
39170000    1.0397911  -0.16946972      1728000    3186.5934       195850       151226 
39180000    1.0159517  -0.17634902      1728000    3187.3783       195900       151267 
39190000    1.0053187     -0.16631      1728000    3188.1586       195950       151305 
39200000    1.0419898    -0.157164      1728000    3188.9484       196000       151344 
39210000    1.0077338  -0.15241472      1728000    3189.7244       196050       151380 
39220000   0.99404457  -0.15213176      1728000    3190.4974       196100       151420 
39230000    1.0528804  -0.15688385      1728000    3191.2774       196150       151458 
39240000    1.0283681  -0.14660596      1728000    3192.0593       196200       151502 
39250000   0.95121324  -0.14224683      1728000    3192.8386       196250       151544 
39260000    1.0233405  -0.14419735      1728000    3193.6214       196300       151583 
39270000   0.98459686  -0.12268322      1728000    3194.4004       196350       151620 
39280000   0.93078268  -0.13632769      1728000    3195.1705       196400       151659 
39290000    1.0200724  -0.13328609      1728000    3195.9416       196450       151700 
39300000   0.97553208  -0.14032363      1728000    3196.7285       196500       151738 
39310000    1.0155028  -0.13887708      1728000    3197.5073       196550       151775 
39320000    0.9510444  -0.14022527      1728000    3198.2955       196600       151811 
39330000    1.0569121  -0.12489675      1728000    3199.0746       196650       151853 
39340000    1.0080112  -0.13129133      1728000    3199.8555       196700       151889 
39350000    1.0040742  -0.11078356      1728000    3200.6364       196750       151930 
39360000   0.95773673  -0.12349636      1728000    3201.4113       196800       151974 
39370000   0.98778182  -0.11251337      1728000    3202.1925       196850       152014 
39380000    1.0285779  -0.12331683      1728000    3202.9754       196900       152051 
39390000   0.92768768  -0.12181725      1728000    3203.7535       196950       152092 
39400000    1.1096215  -0.14075511      1728000    3204.5384       197000       152131 
39410000   0.97742937  -0.12680716      1728000    3205.3186       197050       152170 
39420000    0.9111674  -0.13114976      1728000    3206.0934       197100       152212 
39430000    1.0097009  -0.13336968      1728000    3206.8693       197150       152254 
39440000    1.0013749  -0.13826629      1728000    3207.6435       197200       152290 
39450000    1.0274153  -0.13745129      1728000    3208.4163       197250       152327 
39460000     1.061496  -0.13341664      1728000    3209.1874       197300       152367 
39470000   0.99452533  -0.12472145      1728000    3209.9604       197350       152409 
39480000   0.99852529  -0.13434247      1728000      3210.73       197400       152449 
39490000   0.97891542  -0.14850001      1728000    3211.5093       197450       152490 
39500000   0.95734206  -0.15129308      1728000    3212.2944       197500       152524 
39510000     1.036619  -0.14861916      1728000    3213.0742       197550       152561 
39520000    1.0563112  -0.15315866      1728000    3213.8615       197600       152602 
39530000   0.98689335  -0.16309811      1728000    3214.6436       197650       152643 
39540000    1.0479441  -0.16210253      1728000    3215.4336       197700       152676 
39550000   0.99852825  -0.16550454      1728000    3216.2145       197750       152718 
39560000   0.97419923  -0.16231457      1728000    3216.9984       197800       152757 
39570000    1.0069954  -0.16398335      1728000    3217.7774       197850       152796 
39580000   0.98573779  -0.16575877      1728000    3218.5592       197900       152834 
39590000   0.99295806  -0.16107129      1728000    3219.3484       197950       152871 
39600000    1.0253574   -0.1618033      1728000    3220.1472       198000       152910 
39610000    0.9993917  -0.15847921      1728000    3220.9294       198050       152952 
39620000    0.9784012  -0.15948923      1728000    3221.7203       198100       152992 
39630000    1.0357211  -0.17116418      1728000    3222.5054       198150       153032 
39640000    1.0338294  -0.20188495      1728000    3223.2955       198200       153071 
39650000   0.99237057  -0.19588105      1728000    3224.0893       198250       153108 
39660000   0.97734248  -0.18573397      1728000    3224.8943       198300       153144 
39670000   0.95835023  -0.16886344      1728000    3225.6761       198350       153183 
39680000     1.026814  -0.16020145      1728000    3226.4674       198400       153225 
39690000   0.99424998  -0.15477126      1728000    3227.2596       198450       153261 
39700000   0.98782747  -0.16192938      1728000    3228.0753       198500       153298 
39710000    1.0625338  -0.14960007      1728000    3228.8654       198550       153336 
39720000   0.98927473  -0.15586456      1728000    3229.6572       198600       153371 
39730000    1.0642081  -0.17922087      1728000    3230.4479       198650       153406 
39740000   0.98480683  -0.16603445      1728000    3231.2336       198700       153447 
39750000    1.0187482  -0.16432864      1728000    3232.0245       198750       153484 
39760000   0.99182495  -0.15267251      1728000    3232.8117       198800       153519 
39770000   0.95286194  -0.13772016      1728000    3233.6047       198850       153556 
39780000   0.97870229   -0.1431471      1728000    3234.3874       198900       153598 
39790000     0.998036  -0.15631404      1728000    3235.1737       198950       153633 
39800000    0.9599079  -0.15996636      1728000    3235.9773       199000       153668 
39810000   0.97275512    -0.174163      1728000    3236.7626       199050       153706 
39820000    1.0052728  -0.17852096      1728000    3237.5503       199100       153741 
39830000   0.98663425  -0.16412663      1728000    3238.3385       199150       153780 
39840000    1.0041627  -0.15937662      1728000    3239.1277       199200       153816 
39850000   0.99216528  -0.17394461      1728000    3239.9106       199250       153853 
39860000   0.99837839  -0.18276449      1728000    3240.6956       199300       153889 
39870000   0.98523311  -0.15763197      1728000    3241.4743       199350       153930 
39880000   0.98547053  -0.17240771      1728000    3242.2556       199400       153965 
39890000    0.9818457  -0.15854812      1728000    3243.0336       199450       154005 
39900000    1.0426281  -0.15430233      1728000    3243.8233       199500       154045 
39910000    1.0436816  -0.16332651      1728000    3244.6325       199550       154075 
39920000    1.0491983  -0.15092253      1728000    3245.4156       199600       154114 
39930000   0.99694263  -0.17130361      1728000    3246.1942       199650       154154 
39940000   0.94467978  -0.17742923      1728000    3246.9766       199700       154183 
39950000   0.98406547  -0.16815238      1728000    3247.7615       199750       154219 
39960000    1.0095668  -0.17693634      1728000    3248.5496       199800       154260 
39970000    1.0249145  -0.16537794      1728000    3249.3335       199850       154294 
39980000    1.0155053  -0.16705513      1728000    3250.1176       199900       154329 
39990000    1.0495313  -0.14831345      1728000    3250.8986       199950       154363 
40000000    0.9708393  -0.16009202      1728000    3251.6934       200000       154403 
40010000   0.98094107  -0.15141088      1728000    3252.4725       200050       154443 
40020000   0.97547775  -0.16035079      1728000    3253.2564       200100       154475 
40030000    1.0578602  -0.15446008      1728000     3254.041       200150       154509 
40040000    1.0773664  -0.15269995      1728000    3254.8265       200200       154546 
40050000     1.014809  -0.15820646      1728000    3255.6155       200250       154583 
40060000    0.9716103  -0.16774433      1728000    3256.3991       200300       154618 
40070000    1.0686765  -0.17396929      1728000    3257.1884       200350       154656 
40080000    1.0658365  -0.17594541      1728000    3257.9804       200400       154692 
40090000    1.0276421  -0.17876519      1728000    3258.7666       200450       154732 
40100000   0.99941124  -0.18076189      1728000    3259.5564       200500       154769 
40110000    1.0115775  -0.18716674      1728000    3260.3363       200550       154812 
40120000   0.97347617  -0.18457342      1728000    3261.1267       200600       154847 
40130000    0.9648157  -0.16967402      1728000    3261.9114       200650       154883 
40140000    1.0190032  -0.17078928      1728000    3262.6935       200700       154921 
40150000   0.96851385  -0.17209886      1728000    3263.4774       200750       154957 
40160000    1.0039688  -0.17501775      1728000    3264.2626       200800       154993 
40170000    1.0427113  -0.15536879      1728000    3265.0475       200850       155031 
40180000    1.0185967   -0.1607319      1728000    3265.8326       200900       155065 
40190000    1.0163889  -0.17114139      1728000    3266.6216       200950       155099 
40200000     1.020862  -0.17603493      1728000    3267.4145       201000       155140 
40210000    0.9917372  -0.14672358      1728000    3268.1925       201050       155180 
40220000    1.0003596  -0.15638226      1728000    3268.9666       201100       155219 
40230000   0.93051402  -0.15108571      1728000    3269.7436       201150       155256 
40240000    1.0625232  -0.15536098      1728000    3270.5196       201200       155297 
40250000    1.0015616  -0.14978677      1728000    3271.2997       201250       155339 
40260000    1.0450063  -0.16067923      1728000    3272.0856       201300       155377 
40270000    1.0429029  -0.16173892      1728000    3272.8887       201350       155415 
40280000    1.0618001  -0.15961547      1728000    3273.6815       201400       155453 
40290000    1.0340552   -0.1548992      1728000    3274.4617       201450       155491 
40300000     1.040223  -0.17365156      1728000    3275.2506       201500       155529 
40310000    1.0525454  -0.17310236      1728000    3276.0344       201550       155569 
40320000   0.97674479    -0.175369      1728000    3276.8096       201600       155609 
40330000       1.0015  -0.16789129      1728000    3277.5846       201650       155648 
40340000    1.0250931   -0.1635962      1728000    3278.3647       201700       155683 
40350000   0.99524169  -0.14258669      1728000    3279.1506       201750       155721 
40360000    0.9302583  -0.13847934      1728000    3279.9257       201800       155761 
40370000    1.0153093  -0.13759324      1728000    3280.7014       201850       155799 
40380000   0.98544708  -0.13236671      1728000    3281.4766       201900       155843 
40390000   0.96641732  -0.15102157      1728000    3282.2516       201950       155886 
40400000   0.98832425  -0.15478661      1728000    3283.0389       202000       155924 
40410000    1.0037555  -0.16773328      1728000    3283.8244       202050       155961 
40420000    1.0012449  -0.15718108      1728000    3284.6006       202100       156001 
40430000    1.0263597  -0.15616042      1728000    3285.3786       202150       156039 
40440000    1.0159221  -0.13846139      1728000    3286.1597       202200       156077 
40450000    1.0019939  -0.14052165      1728000    3286.9447       202250       156112 
40460000    1.0304419  -0.14062737      1728000    3287.7294       202300       156152 
40470000     1.019078  -0.14843746      1728000    3288.5116       202350       156190 
40480000    1.0205937  -0.14663102      1728000    3289.2905       202400       156232 
40490000    1.0379549  -0.14450566      1728000    3290.0687       202450       156270 
40500000   0.97832503   -0.1461044      1728000    3290.8547       202500       156308 
40510000    1.0394396  -0.13955046      1728000    3291.6415       202550       156346 
40520000    1.0347782  -0.15344829      1728000    3292.4177       202600       156385 
40530000    1.0550809  -0.14050737      1728000    3293.1943       202650       156422 
40540000   0.98067135  -0.14184897      1728000    3293.9714       202700       156457 
40550000    1.0632297  -0.14239317      1728000    3294.7565       202750       156497 
40560000    1.0194597  -0.13405211      1728000    3295.5397       202800       156531 
40570000   0.95207801  -0.13783966      1728000    3296.3196       202850       156570 
40580000   0.97110454  -0.13517531      1728000    3297.1023       202900       156607 
40590000    1.0628893   -0.1423306      1728000    3297.8744       202950       156644 
40600000   0.99761603  -0.13349324      1728000    3298.6636       203000       156681 
40610000   0.95291028  -0.15485364      1728000    3299.4417       203050       156716 
40620000   0.99230993  -0.15478971      1728000    3300.2187       203100       156757 
40630000    1.0874688  -0.17286427      1728000    3300.9975       203150       156801 
40640000   0.96381584  -0.15048623      1728000    3301.7866       203200       156840 
40650000     1.001288  -0.15155409      1728000    3302.5682       203250       156881 
40660000   0.98150131  -0.15235208      1728000    3303.3486       203300       156919 
40670000   0.98493429  -0.15475769      1728000    3304.1275       203350       156956 
40680000   0.93423963   -0.1499342      1728000    3304.9006       203400       156995 
40690000   0.97420053  -0.16323071      1728000    3305.6758       203450       157032 
40700000    1.0244235  -0.15118721      1728000    3306.4677       203500       157077 
40710000    1.0073834  -0.15803473      1728000    3307.2436       203550       157120 
40720000    1.0188867  -0.15870901      1728000    3308.0255       203600       157157 
40730000   0.96717581  -0.16109235      1728000    3308.8038       203650       157187 
40740000    1.0158569  -0.16496624      1728000    3309.5788       203700       157224 
40750000   0.97175048  -0.14863862      1728000    3310.3551       203750       157266 
40760000     1.056417  -0.15269875      1728000    3311.1438       203800       157302 
40770000   0.96610223  -0.15495241      1728000    3311.9214       203850       157341 
40780000   0.99383857  -0.16378121      1728000    3312.6997       203900       157380 
40790000    1.0012882  -0.16871613      1728000    3313.4848       203950       157414 
40800000    1.0342594  -0.18097238      1728000     3314.277       204000       157447 
40810000   0.98025377  -0.17099673      1728000    3315.0606       204050       157480 
40820000    1.0433627  -0.16117668      1728000    3315.8417       204100       157519 
40830000    0.9720075  -0.16014267      1728000    3316.6223       204150       157560 
40840000    0.9676609  -0.16464738      1728000    3317.4059       204200       157600 
40850000   0.99506466  -0.16262836      1728000    3318.1922       204250       157632 
40860000    1.0163569  -0.16639174      1728000    3318.9778       204300       157673 
40870000    1.0213838  -0.18040164      1728000    3319.7599       204350       157713 
40880000     0.962403  -0.17996868      1728000    3320.5413       204400       157752 
40890000   0.95915853  -0.16437656      1728000    3321.3268       204450       157791 
40900000   0.98926979  -0.15709261      1728000    3322.1179       204500       157830 
40910000    1.0626678  -0.15532057      1728000    3322.8928       204550       157872 
40920000    1.0515001  -0.14198797      1728000     3323.676       204600       157910 
40930000   0.97492498  -0.14750709      1728000    3324.4558       204650       157950 
40940000    1.0835725  -0.12926849      1728000    3325.2342       204700       157987 
40950000    1.0343971  -0.15562427      1728000    3326.0127       204750       158029 
40960000   0.95290246  -0.14404467      1728000    3326.7925       204800       158067 
40970000     1.087074  -0.13929477      1728000    3327.5673       204850       158105 
40980000   0.97777822  -0.15919825      1728000    3328.3502       204900       158143 
40990000    1.0110101  -0.15901943      1728000    3329.1268       204950       158185 
41000000   0.97060838   -0.1695572      1728000    3329.9232       205000       158224 
41010000    1.0007722  -0.17431993      1728000      3330.74       205050       158265 
41020000    1.0131781  -0.17112857      1728000    3331.5226       205100       158299 
41030000    1.0113115   -0.1597904      1728000    3332.3065       205150       158339 
41040000    1.0403155  -0.15367517      1728000    3333.0925       205200       158381 
41050000    1.0131309  -0.16969617      1728000    3333.8804       205250       158418 
41060000     1.033839  -0.15825341      1728000    3334.6595       205300       158447 
41070000   0.98339777  -0.17133001      1728000    3335.4393       205350       158487 
41080000    1.0076466  -0.17623719      1728000    3336.2215       205400       158517 
41090000    1.0416728  -0.16937807      1728000    3336.9996       205450       158549 
41100000   0.96649362  -0.16863932      1728000    3337.7895       205500       158582 
41110000    1.0254488  -0.15277543      1728000    3338.5655       205550       158616 
41120000    1.0499579  -0.15384965      1728000    3339.3398       205600       158657 
41130000    1.0749984  -0.17033668      1728000    3340.1144       205650       158700 
41140000    1.0162423  -0.16846673      1728000    3340.8955       205700       158736 
41150000    1.0039653  -0.16225364      1728000    3341.6766       205750       158773 
41160000    1.0287546  -0.16345664      1728000    3342.4566       205800       158811 
41170000   0.98201803   -0.1703203      1728000    3343.2376       205850       158851 
41180000    1.0104962  -0.15302096      1728000    3344.0211       205900       158889 
41190000    1.0283995  -0.16722191      1728000    3344.8038       205950       158924 
41200000    1.0194244   -0.1380551      1728000    3345.5893       206000       158963 
41210000    1.0059454  -0.14217021      1728000    3346.3616       206050       159003 
41220000    1.0436867  -0.13336224      1728000    3347.1778       206100       159045 
41230000    1.0511375  -0.13833537      1728000     3347.997       206150       159082 
41240000   0.98982115  -0.14485178      1728000    3348.8025       206200       159118 
41250000    1.0621937  -0.15283696      1728000    3349.6268       206250       159157 
41260000    1.0644061  -0.13741715      1728000    3350.4284       206300       159198 
41270000    1.0051131  -0.14554463      1728000     3351.225       206350       159235 
41280000   0.95336231   -0.1562869      1728000    3352.0315       206400       159274 
41290000    1.0116417  -0.16092624      1728000    3352.8277       206450       159318 
41300000    1.0390431  -0.15194451      1728000    3353.6478       206500       159353 
41310000   0.95736568  -0.15476871      1728000    3354.4525       206550       159392 
41320000   0.97773489  -0.14613405      1728000    3355.2518       206600       159433 
41330000   0.99385526  -0.15638245      1728000    3356.0495       206650       159472 
41340000    0.9665751  -0.15938609      1728000    3356.8498       206700       159510 
41350000    1.0066878  -0.14755381      1728000    3357.6527       206750       159555 
41360000   0.94818712  -0.14145579      1728000    3358.4507       206800       159594 
41370000   0.95808975  -0.14833451      1728000    3359.2547       206850       159631 
41380000   0.96866132  -0.13168753      1728000    3360.0546       206900       159673 
41390000   0.95630306  -0.12156021      1728000    3360.8608       206950       159714 
41400000    1.0366354   -0.1356303      1728000    3361.6677       207000       159757 
41410000   0.95527997  -0.14026228      1728000    3362.4695       207050       159798 
41420000    1.0474022  -0.14122304      1728000    3363.2724       207100       159839 
41430000    1.0092603  -0.15095511      1728000    3364.0805       207150       159876 
41440000   0.99634516  -0.14158871      1728000    3364.8727       207200       159920 
41450000     1.031938  -0.13389052      1728000    3365.6951       207250       159964 
41460000    1.0033052  -0.14041309      1728000    3366.4994       207300       160001 
41470000   0.98509702  -0.14131908      1728000    3367.2984       207350       160043 
41480000   0.95794432  -0.13774737      1728000    3368.0976       207400       160083 
41490000    1.0230676  -0.14649478      1728000    3368.8977       207450       160124 
41500000    0.9291142   -0.1620374      1728000    3369.7619       207500       160161 
41510000   0.94978017  -0.15169853      1728000    3370.5665       207550       160200 
41520000    1.0582421  -0.15886789      1728000    3371.3731       207600       160238 
41530000    1.0373345   -0.1539807      1728000    3372.1691       207650       160275 
41540000   0.98432402  -0.17231247      1728000    3372.9653       207700       160314 
41550000    1.0228559  -0.14804968      1728000    3373.7646       207750       160357 
41560000    1.0067125  -0.16289222      1728000    3374.5748       207800       160396 
41570000   0.94104999  -0.17975937      1728000     3375.381       207850       160432 
41580000    1.0577805  -0.17871226      1728000    3376.1871       207900       160472 
41590000   0.95540382  -0.16299683      1728000    3376.9965       207950       160510 
41600000   0.97803461  -0.16961738      1728000    3377.8093       208000       160550 
41610000   0.96879361  -0.16328829      1728000    3378.6174       208050       160586 
41620000    1.0303995  -0.15963609      1728000    3379.4226       208100       160626 
41630000     1.057011  -0.17214512      1728000    3380.2275       208150       160669 
41640000   0.96234049  -0.16019408      1728000    3381.0345       208200       160708 
41650000    1.0595942  -0.17097515      1728000    3381.8416       208250       160748 
41660000   0.96461553  -0.16182199      1728000    3382.6466       208300       160784 
41670000    1.0304148  -0.17135465      1728000    3383.4618       208350       160825 
41680000   0.98532591  -0.16979733      1728000    3384.2686       208400       160861 
41690000    0.9898386  -0.16978228      1728000    3385.0712       208450       160901 
41700000    1.0954013  -0.17609302      1728000    3385.8867       208500       160940 
41710000    1.0260669  -0.18006384      1728000    3386.7015       208550       160974 
41720000    1.0125081  -0.18010632      1728000    3387.5156       208600       161006 
41730000    1.0485562  -0.16866563      1728000    3388.3516       208650       161042 
41740000    1.0914899  -0.17771855      1728000    3389.1516       208700       161080 
41750000   0.99793696  -0.14911753      1728000    3389.9675       208750       161119 
41760000    1.0251115  -0.14864533      1728000    3390.7787       208800       161160 
41770000    1.0159914  -0.15939497      1728000    3391.5798       208850       161198 
41780000   0.98156552  -0.14741912      1728000    3392.3805       208900       161239 
41790000   0.96444641  -0.14549842      1728000    3393.1868       208950       161275 
41800000   0.99033206  -0.14614422      1728000    3393.9996       209000       161312 
41810000   0.99596009  -0.14963881      1728000    3394.8174       209050       161345 
41820000    0.9696961  -0.14901426      1728000    3395.6303       209100       161382 
41830000    1.0090445  -0.14818083      1728000    3396.4536       209150       161424 
41840000    1.0382578  -0.15132791      1728000    3397.2596       209200       161457 
41850000   0.91757859  -0.15355858      1728000    3398.0716       209250       161495 
41860000   0.96633096  -0.15109116      1728000    3398.8711       209300       161536 
41870000    0.9751103  -0.15504035      1728000    3399.6944       209350       161571 
41880000    1.0589097  -0.16040539      1728000    3400.5068       209400       161611 
41890000   0.98254723  -0.16076996      1728000    3401.3379       209450       161647 
41900000    0.9663968  -0.15820965      1728000    3402.1496       209500       161681 
41910000    1.0179908  -0.15611269      1728000    3402.9606       209550       161718 
41920000    1.0103949  -0.17336619      1728000    3403.7766       209600       161762 
41930000    1.0260561  -0.16161991      1728000    3404.5825       209650       161801 
41940000    1.0302203  -0.16788547      1728000    3405.3847       209700       161845 
41950000   0.98348131  -0.17848641      1728000    3406.1865       209750       161887 
41960000   0.93305185  -0.18319764      1728000    3407.0088       209800       161926 
41970000     1.003542  -0.17400159      1728000     3407.807       209850       161966 
41980000    1.0096263  -0.17838484      1728000    3408.6276       209900       161999 
41990000    1.0352693  -0.17605191      1728000    3409.4275       209950       162037 
42000000    1.0589606  -0.16266983      1728000    3410.2554       210000       162076 
42010000    1.0470762  -0.16141235      1728000    3411.0714       210050       162111 
42020000   0.98063199  -0.15969176      1728000    3411.8856       210100       162148 
42030000   0.99749439  -0.15384089      1728000    3412.6818       210150       162184 
42040000    1.0229702  -0.16567063      1728000    3413.5057       210200       162220 
42050000    1.0342959  -0.15378609      1728000    3414.3348       210250       162258 
42060000    1.0398142  -0.16330492      1728000    3415.1446       210300       162300 
42070000   0.98517451   -0.1626408      1728000     3415.949       210350       162344 
42080000   0.98266013  -0.14759425      1728000    3416.7611       210400       162382 
42090000   0.98114683  -0.15070038      1728000    3417.5638       210450       162421 
42100000   0.96600612  -0.16454173      1728000    3418.3972       210500       162461 
42110000   0.97402633  -0.14528109      1728000    3419.1957       210550       162500 
42120000    1.0136659  -0.15794995      1728000    3419.9998       210600       162538 
42130000    0.9590775  -0.15397588      1728000    3420.8073       210650       162577 
42140000    1.0306842  -0.15505181      1728000    3421.6118       210700       162620 
42150000     1.003558  -0.13835289      1728000    3422.4329       210750       162663 
42160000   0.97416167  -0.15638648      1728000    3423.2765       210800       162706 
42170000    0.9522974  -0.16226871      1728000    3424.0872       210850       162742 
42180000   0.91116791   -0.1679596      1728000    3424.9037       210900       162773 
42190000    0.9884705  -0.14854871      1728000    3425.7138       210950       162818 
42200000    1.0029486  -0.15894587      1728000    3426.5326       211000       162861 
42210000   0.98203862   -0.1526991      1728000    3427.3668       211050       162898 
42220000    1.0066393  -0.15315509      1728000    3428.1799       211100       162931 
42230000    1.0569705  -0.14873174      1728000    3428.9917       211150       162968 
42240000   0.98714174  -0.15081396      1728000    3429.7946       211200       163008 
42250000    0.9932231  -0.16308686      1728000    3430.6067       211250       163043 
42260000    1.0333576  -0.16294052      1728000    3431.4088       211300       163080 
42270000   0.98465522  -0.15864992      1728000    3432.2046       211350       163125 
42280000    1.0570781   -0.1710276      1728000    3433.0136       211400       163168 
42290000    0.9871851  -0.16087193      1728000    3433.8237       211450       163206 
42300000    1.0370334  -0.14661986      1728000    3434.6407       211500       163235 
42310000     1.002855  -0.16919148      1728000    3435.4438       211550       163273 
42320000     1.051559  -0.16705769      1728000    3436.2647       211600       163313 
42330000     1.012542  -0.16514332      1728000    3437.1045       211650       163349 
42340000   0.98496432  -0.14786755      1728000    3437.9052       211700       163387 
42350000    1.0495855   -0.1526928      1728000    3438.7109       211750       163426 
42360000    1.0037645  -0.14665407      1728000    3439.5197       211800       163462 
42370000    1.0048389  -0.15253521      1728000    3440.3416       211850       163500 
42380000   0.97226912  -0.13729976      1728000    3441.1448       211900       163539 
42390000   0.98323214  -0.13301688      1728000    3441.9557       211950       163579 
42400000    1.0778394   -0.1421101      1728000    3442.7747       212000       163619 
42410000   0.99836362  -0.14855075      1728000    3443.5796       212050       163662 
42420000    1.0472454  -0.14247954      1728000    3444.3867       212100       163700 
42430000   0.99259976  -0.12796801      1728000    3445.1976       212150       163737 
42440000    1.0700013  -0.14491003      1728000    3446.0009       212200       163774 
42450000    1.0189546   -0.1439491      1728000    3446.8039       212250       163814 
42460000   0.94757645  -0.14767397      1728000    3447.6116       212300       163856 
42470000    1.0801924  -0.14858482      1728000    3448.4237       212350       163890 
42480000   0.96902276  -0.15356678      1728000    3449.2318       212400       163934 
42490000   0.94689139   -0.1542814      1728000    3450.0325       212450       163975 
42500000   0.97627766  -0.14711237      1728000    3450.8528       212500       164014 
42510000   0.99799094  -0.13831501      1728000    3451.6527       212550       164051 
42520000    1.0008457  -0.13074899      1728000    3452.4503       212600       164092 
42530000   0.94865956  -0.13254641      1728000    3453.2497       212650       164134 
42540000   0.98718428  -0.15020053      1728000    3454.0537       212700       164170 
42550000    1.0209619  -0.16345792      1728000    3454.8536       212750       164209 
42560000    1.0319371  -0.17036897      1728000    3455.6759       212800       164247 
42570000    1.0196226  -0.16428655      1728000    3456.5326       212850       164286 
42580000    1.0108413  -0.16221362      1728000    3457.3396       212900       164327 
42590000    1.0087463  -0.15147583      1728000    3458.1577       212950       164367 
42600000   0.96033957  -0.15961723      1728000    3458.9688       213000       164410 
42610000    1.0053253  -0.16230505      1728000    3459.7918       213050       164446 
42620000   0.98859337  -0.15115571      1728000    3460.5878       213100       164483 
42630000    1.0080479   -0.1629504      1728000    3461.3887       213150       164524 
42640000     0.951657  -0.14714712      1728000    3462.2197       213200       164561 
42650000    1.0612296  -0.15054123      1728000    3463.0225       213250       164601 
42660000    1.0037482  -0.13137145      1728000    3463.8226       213300       164642 
42670000    1.0052581  -0.15035058      1728000    3464.6307       213350       164676 
42680000   0.99275832  -0.15221744      1728000    3465.4306       213400       164712 
42690000   0.98178729  -0.14797266      1728000    3466.2307       213450       164750 
42700000    1.0184027  -0.13932196      1728000    3467.0557       213500       164791 
42710000    1.0154937  -0.14177586      1728000    3467.8727       213550       164824 
42720000   0.98284368  -0.15782629      1728000    3468.6797       213600       164862 
42730000   0.98129153  -0.16308471      1728000    3469.4867       213650       164904 
42740000    1.0099687  -0.15781664      1728000    3470.2964       213700       164939 
42750000    1.0028043  -0.14056308      1728000    3471.1017       213750       164978 
42760000   0.97878043  -0.15709485      1728000    3471.9105       213800       165016 
42770000    1.0005735  -0.16313661      1728000    3472.7166       213850       165054 
42780000   0.98074765  -0.15422887      1728000    3473.5309       213900       165082 
42790000     1.060589  -0.15647376      1728000    3474.3337       213950       165116 
42800000    1.0232295  -0.15094253      1728000    3475.1423       214000       165156 
42810000   0.97427202  -0.14129494      1728000    3475.9357       214050       165194 
42820000    1.0412513  -0.15191741      1728000    3476.7558       214100       165231 
42830000    1.0268967  -0.14461547      1728000    3477.5531       214150       165274 
42840000   0.98896875  -0.13860645      1728000    3478.3609       214200       165312 
42850000   0.99731652  -0.15097277      1728000    3479.1661       214250       165351 
42860000    1.0578194  -0.15095454      1728000    3479.9852       214300       165391 
42870000    1.0462819  -0.15629357      1728000    3480.7896       214350       165432 
42880000    1.0451826   -0.1407069      1728000    3481.5956       214400       165469 
42890000   0.96025066  -0.16258841      1728000    3482.3947       214450       165509 
42900000   0.97171109  -0.15169562      1728000    3483.2157       214500       165547 
42910000    1.0378508  -0.13073965      1728000    3484.0207       214550       165584 
42920000    1.0194317  -0.13790453      1728000    3484.8484       214600       165624 
42930000    1.0083383  -0.12939479      1728000    3485.6467       214650       165666 
42940000   0.98709967  -0.13749241      1728000    3486.4449       214700       165706 
42950000   0.98922608  -0.13803026      1728000     3487.242       214750       165745 
42960000   0.96730722  -0.14453236      1728000    3488.0423       214800       165780 
42970000    1.0339488  -0.13652328      1728000    3488.8677       214850       165824 
42980000   0.99045801  -0.14769397      1728000    3489.6693       214900       165868 
42990000    1.0618925  -0.15189274      1728000    3490.4786       214950       165901 
43000000    1.0292824  -0.14614411      1728000     3491.305       215000       165945 
43010000   0.96827224  -0.13910449      1728000    3492.1267       215050       165979 
43020000    1.0577332  -0.14041107      1728000    3492.9307       215100       166022 
43030000    1.0141657  -0.14040515      1728000    3493.7327       215150       166063 
43040000    1.0126948  -0.14046716      1728000    3494.5327       215200       166104 
43050000   0.98391037  -0.16197243      1728000    3495.3442       215250       166144 
43060000   0.91237658  -0.14744691      1728000    3496.1507       215300       166184 
43070000    1.0015962  -0.16398643      1728000    3496.9579       215350       166225 
43080000   0.94892759   -0.1536549      1728000    3497.7774       215400       166261 
43090000    1.0209718   -0.1437648      1728000    3498.5786       215450       166301 
43100000    1.0099197  -0.15530287      1728000    3499.3926       215500       166340 
43110000    1.0052501   -0.1552891      1728000    3500.1887       215550       166375 
43120000   0.99160042  -0.15338725      1728000    3500.9926       215600       166416 
43130000    1.0133605  -0.14680668      1728000    3501.8078       215650       166456 
43140000   0.98796488  -0.14884812      1728000     3502.611       215700       166490 
43150000     1.019644  -0.15054385      1728000    3503.4146       215750       166523 
43160000   0.98933185  -0.14956937      1728000    3504.2298       215800       166561 
43170000   0.98947133  -0.15534276      1728000    3505.0397       215850       166595 
43180000   0.98359455  -0.14935191      1728000    3505.8437       215900       166635 
43190000    1.0014933  -0.13949313      1728000    3506.6487       215950       166669 
43200000    1.0500806  -0.15694114      1728000    3507.4556       216000       166707 
43210000   0.99663053  -0.16002054      1728000    3508.2586       216050       166743 
43220000    0.9838994  -0.15100833      1728000    3509.0539       216100       166780 
43230000    0.9908986  -0.14897564      1728000    3509.8484       216150       166821 
43240000   0.99959423   -0.1582893      1728000    3510.6584       216200       166855 
43250000    1.0587773  -0.15692906      1728000    3511.4914       216250       166896 
43260000   0.97685784  -0.15428973      1728000    3512.2989       216300       166940 
43270000   0.94919994  -0.14756819      1728000    3513.1045       216350       166977 
43280000     1.004585  -0.14990503      1728000    3513.9478       216400       167020 
43290000   0.96423775  -0.15078608      1728000    3514.7677       216450       167059 
43300000    1.0206432  -0.16846777      1728000    3515.5988       216500       167094 
43310000    1.0056322  -0.15149096      1728000    3516.4004       216550       167135 
43320000    1.0103931   -0.1477474      1728000    3517.2086       216600       167174 
43330000    1.0037679  -0.13909846      1728000    3518.0149       216650       167215 
43340000   0.99386638  -0.14682243      1728000    3518.8077       216700       167259 
43350000    1.0391155  -0.14795804      1728000    3519.6049       216750       167300 
43360000   0.97533458  -0.15757828      1728000    3520.4057       216800       167341 
43370000   0.97324087  -0.15451936      1728000    3521.2247       216850       167379 
43380000     1.014172  -0.14611315      1728000    3522.0212       216900       167419 
43390000    1.0509312  -0.13956203      1728000    3522.8275       216950       167457 
43400000    1.0073293  -0.15836344      1728000    3523.6856       217000       167496 
43410000    1.0159985  -0.14983232      1728000    3524.4998       217050       167535 
43420000    1.0232052  -0.15992391      1728000     3525.363       217100       167577 
43430000   0.97512901  -0.16762426      1728000    3526.2735       217150       167613 
43440000    1.0386672  -0.15988244      1728000    3527.1336       217200       167651 
43450000    1.0360012  -0.16291955      1728000    3527.9727       217250       167688 
43460000     1.035872  -0.16852711      1728000    3528.8521       217300       167723 
43470000    1.0009173  -0.15558461      1728000    3529.6596       217350       167764 
43480000   0.99003814  -0.17387196      1728000     3530.445       217400       167806 
43490000    1.0084243  -0.17864397      1728000    3531.2321       217450       167845 
43500000   0.97157325  -0.16300444      1728000    3532.0332       217500       167880 
43510000    1.0194846  -0.14871072      1728000    3532.8158       217550       167913 
43520000    1.0128996  -0.14498683      1728000    3533.5927       217600       167953 
43530000     1.021458  -0.15233085      1728000    3534.3738       217650       167995 
43540000   0.98531724  -0.14731617      1728000    3535.1606       217700       168029 
43550000    1.0037927  -0.14223273      1728000    3535.9467       217750       168068 
43560000    1.0350051  -0.14458196      1728000    3536.7508       217800       168109 
43570000    1.0670423  -0.15787452      1728000    3537.5357       217850       168147 
43580000    1.0169268  -0.13563678      1728000    3538.3107       217900       168190 
43590000   0.96839547  -0.14593603      1728000    3539.0936       217950       168228 
43600000   0.98990249  -0.14004212      1728000    3539.9038       218000       168268 
43610000    1.0235256  -0.15638203      1728000    3540.6898       218050       168307 
43620000   0.96630499  -0.14174909      1728000    3541.4777       218100       168346 
43630000    1.0215375  -0.15487099      1728000    3542.2589       218150       168386 
43640000   0.97718034  -0.16597602      1728000    3543.0461       218200       168424 
43650000    1.0236525  -0.17054522      1728000    3543.8395       218250       168463 
43660000   0.97164075  -0.15856576      1728000    3544.6333       218300       168501 
43670000   0.97958796  -0.16804205      1728000    3545.4235       218350       168537 
43680000   0.95011985  -0.15419054      1728000     3546.207       218400       168575 
43690000    0.9994936  -0.16794879      1728000    3547.0022       218450       168614 
43700000   0.99017878  -0.16592712      1728000    3547.7948       218500       168650 
43710000    1.0255911  -0.15570918      1728000    3548.5735       218550       168688 
43720000    1.0565141  -0.15208256      1728000    3549.3534       218600       168725 
43730000    1.0037405  -0.15514434      1728000    3550.1337       218650       168764 
43740000   0.97059196  -0.15009109      1728000    3550.9108       218700       168802 
43750000   0.99798424  -0.15189942      1728000    3551.7064       218750       168842 
43760000    1.0474187  -0.13633382      1728000    3552.4828       218800       168876 
43770000   0.98522119  -0.14481186      1728000    3553.2629       218850       168909 
43780000    1.0170973    -0.141134      1728000    3554.0429       218900       168947 
43790000   0.98827152  -0.15254609      1728000    3554.8227       218950       168984 
43800000   0.99723043  -0.13549016      1728000    3555.6098       219000       169023 
43810000   0.97262906  -0.14909526      1728000    3556.4198       219050       169068 
43820000    1.0039373  -0.15312781      1728000    3557.2009       219100       169107 
43830000   0.97751558  -0.14893218      1728000    3557.9777       219150       169145 
43840000    1.0086224  -0.15603162      1728000    3558.7589       219200       169183 
43850000     1.041281  -0.16709379      1728000    3559.5368       219250       169220 
43860000    1.0172202  -0.16072208      1728000    3560.3168       219300       169252 
43870000   0.97855919  -0.16940632      1728000    3561.1088       219350       169290 
43880000    1.0238433  -0.15688145      1728000    3561.9136       219400       169329 
43890000    1.0030899  -0.16754946      1728000    3562.7727       219450       169361 
43900000    1.0039488  -0.16443794      1728000    3563.5745       219500       169402 
43910000    1.0069697   -0.1473986      1728000    3564.3638       219550       169442 
43920000   0.97355544  -0.13791855      1728000    3565.1567       219600       169482 
43930000    1.0585683  -0.15104874      1728000    3565.9658       219650       169514 
43940000    1.0398922  -0.13066394      1728000    3566.7689       219700       169551 
43950000   0.96087054  -0.14655773      1728000    3567.5608       219750       169591 
43960000    1.0312037  -0.13429216      1728000    3568.3657       219800       169629 
43970000     1.002127  -0.14423076      1728000    3569.1619       219850       169668 
43980000    0.9848569  -0.14498732      1728000    3569.9719       219900       169704 
43990000    1.0367235  -0.14909169      1728000    3570.7988       219950       169740 
44000000    1.0279827  -0.15348072      1728000    3571.6226       220000       169778 
44010000   0.95077725  -0.15560327      1728000    3572.4576       220050       169822 
44020000    1.0099208  -0.14484978      1728000    3573.2569       220100       169858 
44030000    1.0350024  -0.15026372      1728000    3574.0784       220150       169896 
44040000   0.99726974  -0.12725568      1728000    3574.8788       220200       169940 
44050000   0.94903867  -0.13624468      1728000    3575.6646       220250       169985 
44060000     1.086013  -0.14599969      1728000    3576.4498       220300       170023 
44070000   0.96408644  -0.15560239      1728000    3577.2449       220350       170060 
44080000    1.0257493  -0.15412399      1728000    3578.0378       220400       170096 
44090000   0.99513371  -0.16321442      1728000    3578.8229       220450       170133 
44100000    1.0639908   -0.1560307      1728000    3579.6248       220500       170169 
44110000    1.0275886   -0.1382796      1728000    3580.4109       220550       170206 
44120000   0.94427912  -0.14644255      1728000    3581.1975       220600       170249 
44130000    1.0034286  -0.13213418      1728000    3581.9878       220650       170292 
44140000   0.98531631  -0.14839229      1728000    3582.8029       220700       170328 
44150000    1.0023781  -0.14888688      1728000    3583.5969       220750       170369 
44160000   0.99408463  -0.13927901      1728000    3584.3899       220800       170410 
44170000    1.0388616  -0.13187174      1728000    3585.1797       220850       170444 
44180000   0.99952953  -0.12897921      1728000     3585.968       220900       170483 
44190000    1.0311713  -0.14415328      1728000    3586.7568       220950       170523 
44200000   0.97358376  -0.14848126      1728000    3587.5539       221000       170559 
44210000    1.0122123   -0.1422035      1728000    3588.3373       221050       170596 
44220000    1.0175269  -0.13145926      1728000    3589.1257       221100       170634 
44230000    1.0082218   -0.1442382      1728000    3589.9089       221150       170679 
44240000    1.0094667  -0.13740747      1728000    3590.6959       221200       170724 
44250000   0.98453069   -0.1464681      1728000    3591.4858       221250       170762 
44260000    1.0598285  -0.16468527      1728000      3592.28       221300       170803 
44270000   0.98507225  -0.15595782      1728000    3593.0647       221350       170842 
44280000     1.033876  -0.15400339      1728000      3593.85       221400       170885 
44290000    0.9588334  -0.14815712      1728000    3594.6428       221450       170924 
44300000   0.97805448  -0.16504816      1728000    3595.4398       221500       170966 
44310000    1.0057637  -0.14659474      1728000    3596.2259       221550       171006 
44320000   0.96790165  -0.15146398      1728000    3597.0118       221600       171044 
44330000    1.0682027  -0.14882732      1728000    3597.7975       221650       171087 
44340000    1.0001019  -0.15263571      1728000    3598.5989       221700       171126 
44350000   0.97313813  -0.15097614      1728000    3599.3868       221750       171165 
44360000   0.99882322  -0.16826743      1728000    3600.1738       221800       171200 
44370000    0.9842134   -0.1702664      1728000    3601.0204       221850       171236 
44380000    1.0020672   -0.1643051      1728000     3601.853       221900       171267 
44390000    1.0210706  -0.16192257      1728000    3602.6417       221950       171306 
44400000    1.0668537  -0.15506016      1728000      3603.44       222000       171348 
44410000   0.97933377  -0.16662113      1728000    3604.2388       222050       171382 
44420000    1.0086883  -0.18637107      1728000    3605.0737       222100       171422 
44430000   0.95697275  -0.17035131      1728000    3605.9068       222150       171461 
44440000   0.97571897  -0.17411522      1728000    3606.6979       222200       171496 
44450000    1.0024268  -0.16469841      1728000     3607.499       222250       171529 
44460000    1.0103286  -0.17875127      1728000    3608.2927       222300       171566 
44470000   0.97054916  -0.18256705      1728000     3609.085       222350       171596 
44480000   0.98431762  -0.18545073      1728000    3609.8728       222400       171632 
44490000   0.97648533  -0.16341197      1728000    3610.6738       222450       171672 
44500000    1.0152715  -0.17433732      1728000    3611.4773       222500       171717 
44510000     1.014275  -0.16866619      1728000    3612.2849       222550       171759 
44520000    1.0210891  -0.17490303      1728000    3613.0938       222600       171794 
44530000   0.91423657   -0.1598404      1728000    3613.9046       222650       171830 
44540000   0.98450545  -0.14004485      1728000    3614.7059       222700       171868 
44550000   0.95399428  -0.14808746      1728000    3615.5057       222750       171906 
44560000   0.99126059  -0.15635433      1728000     3616.319       222800       171946 
44570000    0.9421559  -0.14434996      1728000    3617.1418       222850       171982 
44580000     1.015739  -0.15060355      1728000    3617.9449       222900       172019 
44590000    1.0302391  -0.15239497      1728000    3618.7616       222950       172059 
44600000    1.0256841  -0.14628311      1728000    3619.5789       223000       172099 
44610000   0.95002274  -0.14394171      1728000    3620.3926       223050       172131 
44620000   0.96714685  -0.14962682      1728000    3621.1959       223100       172172 
44630000    1.0263605  -0.15170929      1728000    3621.9987       223150       172207 
44640000    1.0220626  -0.14182029      1728000    3622.8009       223200       172241 
44650000    1.0731378  -0.15220833      1728000    3623.5966       223250       172280 
44660000   0.94114232  -0.14505782      1728000    3624.3919       223300       172315 
44670000   0.98290638  -0.13288556      1728000    3625.1879       223350       172350 
44680000   0.93152912  -0.14057132      1728000    3626.0237       223400       172388 
44690000    1.0626998  -0.15367828      1728000     3626.835       223450       172427 
44700000    1.0376512  -0.14106111      1728000    3627.6437       223500       172471 
44710000    1.0447338   -0.1419481      1728000     3628.462       223550       172510 
44720000   0.95030561  -0.13455456      1728000    3629.2729       223600       172546 
44730000     1.073706  -0.13722348      1728000    3630.0697       223650       172587 
44740000   0.99500402  -0.14534196      1728000    3630.8758       223700       172622 
44750000    1.0296421  -0.13948711      1728000    3631.6801       223750       172661 
44760000    1.0231827  -0.13398605      1728000     3632.479       223800       172700 
44770000    1.0307924  -0.14444197      1728000    3633.2748       223850       172744 
44780000   0.96839406  -0.14799468      1728000    3634.0787       223900       172781 
44790000   0.95561118  -0.15856955      1728000    3634.8857       223950       172823 
44800000   0.99011199  -0.15057265      1728000    3635.7057       224000       172864 
44810000   0.99839885  -0.15055417      1728000    3636.5218       224050       172899 
44820000   0.98966643  -0.14099615      1728000     3637.331       224100       172936 
44830000    1.0027917  -0.14846883      1728000    3638.1436       224150       172976 
44840000    1.0618811  -0.14031433      1728000    3638.9548       224200       173014 
44850000    1.0289995  -0.13200701      1728000    3639.7501       224250       173051 
44860000    1.0361882  -0.12627072      1728000    3640.5639       224300       173090 
44870000   0.99272149  -0.12514328      1728000    3641.3678       224350       173133 
44880000    1.0557363  -0.13387076      1728000    3642.1768       224400       173173 
44890000    1.0411216  -0.15153575      1728000    3642.9781       224450       173208 
44900000   0.96428701  -0.13893554      1728000    3643.7879       224500       173246 
44910000    1.0157252   -0.1439518      1728000    3644.5979       224550       173285 
44920000    1.0289491  -0.13671037      1728000     3645.407       224600       173319 
44930000   0.97323185  -0.14119497      1728000    3646.2129       224650       173362 
44940000   0.97900069  -0.13004331      1728000    3647.0199       224700       173400 
44950000    1.0176519  -0.12090021      1728000     3647.817       224750       173437 
44960000    1.0434754  -0.14032127      1728000    3648.6219       224800       173478 
44970000    1.0674347   -0.1267306      1728000    3649.4287       224850       173519 
44980000   0.93335751  -0.13105214      1728000    3650.2549       224900       173560 
44990000     1.023351  -0.13252394      1728000    3651.0728       224950       173600 
45000000   0.97142634  -0.12777366      1728000    3651.8908       225000       173639 
45010000   0.99857575  -0.14693902      1728000    3652.7019       225050       173687 
45020000     1.013693  -0.14181203      1728000     3653.515       225100       173730 
45030000     1.006864  -0.13509406      1728000    3654.3248       225150       173771 
45040000   0.95479395  -0.13710837      1728000    3655.1349       225200       173810 
45050000   0.97025246   -0.1468884      1728000    3655.9319       225250       173849 
45060000     1.114535  -0.15536519      1728000    3656.7399       225300       173881 
45070000    1.0127928  -0.15264349      1728000    3657.5426       225350       173918 
45080000    1.0350317  -0.17260428      1728000     3658.344       225400       173952 
45090000    1.0146118  -0.15213482      1728000    3659.1359       225450       173992 
45100000   0.92455597  -0.14278918      1728000    3659.9319       225500       174032 
45110000    1.0148284  -0.15226708      1728000    3660.7239       225550       174067 
45120000   0.97862288  -0.14357998      1728000     3661.517       225600       174105 
45130000    1.0434994  -0.13997132      1728000    3662.3119       225650       174140 
45140000   0.99871744  -0.14604558      1728000    3663.1028       225700       174177 
45150000    1.0324146  -0.15633965      1728000    3663.8988       225750       174215 
45160000    1.0747337  -0.13967134      1728000    3664.6889       225800       174253 
45170000   0.94721868  -0.13114345      1728000    3665.4801       225850       174290 
45180000   0.99203271  -0.12425625      1728000      3666.27       225900       174329 
45190000   0.94417044  -0.12582015      1728000    3667.0611       225950       174366 
45200000    1.0001797  -0.13457726      1728000     3667.861       226000       174407 
45210000    1.0444839  -0.13892334      1728000    3668.6469       226050       174447 
45220000    1.0376745  -0.14083036      1728000     3669.435       226100       174486 
45230000    1.0239898  -0.14197017      1728000    3670.2341       226150       174520 
45240000    1.0163003  -0.13563545      1728000    3671.0251       226200       174555 
45250000     1.005454  -0.13660892      1728000     3671.813       226250       174598 
45260000   0.99393314  -0.13358595      1728000     3672.604       226300       174637 
45270000    1.0015177  -0.13867217      1728000     3673.391       226350       174673 
45280000    1.1445034  -0.13075284      1728000     3674.177       226400       174711 
45290000   0.96910063  -0.14518517      1728000     3674.968       226450       174749 
45300000   0.97543422  -0.14074202      1728000     3675.776       226500       174784 
45310000    1.0428652  -0.15680528      1728000    3676.5669       226550       174823 
45320000    1.0131523  -0.15784647      1728000    3677.3589       226600       174860 
45330000   0.99972035  -0.14766894      1728000    3678.1491       226650       174901 
45340000    1.0298569  -0.14380393      1728000    3678.9331       226700       174938 
45350000     1.013711  -0.14065741      1728000    3679.7199       226750       174976 
45360000   0.97985827  -0.13364338      1728000    3680.5021       226800       175016 
45370000    1.0835901  -0.14378393      1728000     3681.293       226850       175055 
45380000   0.99979573  -0.14774627      1728000    3682.0841       226900       175089 
45390000   0.98078081  -0.14635631      1728000    3682.8749       226950       175125 
45400000    1.0768767  -0.15833636      1728000    3683.6731       227000       175168 
45410000   0.93847734  -0.16905308      1728000     3684.468       227050       175205 
45420000    0.9868809   -0.1527769      1728000    3685.2624       227100       175243 
45430000   0.96707491  -0.15962927      1728000    3686.0478       227150       175283 
45440000    1.0926434  -0.15508791      1728000     3686.837       227200       175323 
45450000    1.0475016  -0.15303583      1728000    3687.6202       227250       175365 
45460000    1.0354655  -0.14826174      1728000    3688.4078       227300       175404 
45470000   0.95721608  -0.14197684      1728000     3689.196       227350       175447 
45480000    1.0052481  -0.13918787      1728000    3689.9851       227400       175484 
45490000    1.0459272  -0.15814355      1728000    3690.7712       227450       175521 
45500000   0.97159375  -0.14634777      1728000    3691.5662       227500       175557 
45510000   0.96209663  -0.17020763      1728000    3692.3709       227550       175593 
45520000    1.0021798  -0.17084334      1728000    3693.1826       227600       175634 
45530000   0.98855338   -0.1602819      1728000    3694.0264       227650       175671 
45540000    1.0250611  -0.14718324      1728000    3694.8459       227700       175709 
45550000    0.9770372  -0.13664862      1728000     3695.661       227750       175747 
45560000    0.9536278  -0.14856895      1728000    3696.4642       227800       175782 
45570000    1.0183113  -0.12591627      1728000    3697.2731       227850       175816 
45580000    1.0193308  -0.12739563      1728000    3698.0651       227900       175857 
45590000   0.98289608   -0.1196156      1728000     3698.851       227950       175898 
45600000   0.98560443  -0.12930746      1728000    3699.7169       228000       175937 
45610000    1.0140707  -0.13359936      1728000    3700.6625       228050       175980 
45620000   0.98915716  -0.12225902      1728000    3701.5646       228100       176015 
45630000    1.0191197  -0.14143699      1728000    3702.4297       228150       176056 
45640000    1.0117989  -0.13858441      1728000    3703.2769       228200       176099 
45650000    1.0135674  -0.13373131      1728000     3704.148       228250       176135 
45660000    1.0159059  -0.13821789      1728000    3705.0201       228300       176175 
45670000    1.0349212  -0.15170462      1728000    3705.8732       228350       176213 
45680000    1.0056712  -0.14228018      1728000    3706.7203       228400       176254 
45690000    1.0140499  -0.15243598      1728000    3707.5546       228450       176291 
45700000    0.9993912  -0.15893917      1728000    3708.4057       228500       176333 
45710000    1.0228332  -0.15934623      1728000    3709.2938       228550       176373 
45720000   0.90850412   -0.1715402      1728000     3710.163       228600       176409 
45730000   0.99623271  -0.17778104      1728000    3711.0161       228650       176447 
45740000    1.0227248   -0.1785172      1728000    3711.9421       228700       176480 
45750000   0.95218195  -0.17536359      1728000    3712.8272       228750       176520 
45760000   0.99374343  -0.17525765      1728000    3713.6684       228800       176560 
45770000   0.95563264  -0.16660857      1728000    3714.5295       228850       176596 
45780000     1.042003  -0.16867717      1728000    3715.3518       228900       176632 
45790000   0.96311981  -0.17380488      1728000    3716.1827       228950       176664 
45800000    1.0393913  -0.16979102      1728000    3716.9968       229000       176701 
45810000   0.98763618  -0.15255784      1728000    3717.7939       229050       176736 
45820000   0.95205809  -0.15160589      1728000     3718.599       229100       176773 
45830000    1.0551958  -0.16354131      1728000    3719.3861       229150       176812 
45840000   0.99163441  -0.15683386      1728000     3720.164       229200       176850 
45850000   0.99016125   -0.1499842      1728000    3720.9451       229250       176893 
45860000    1.0474766  -0.14848031      1728000    3721.7301       229300       176934 
45870000   0.97370041  -0.14910819      1728000    3722.5062       229350       176972 
45880000    1.0137667  -0.14940602      1728000    3723.2921       229400       177010 
45890000    1.0039239  -0.15145921      1728000     3724.072       229450       177044 
45900000   0.98261552  -0.14195019      1728000    3724.8922       229500       177080 
45910000   0.99419256  -0.14958541      1728000    3725.6989       229550       177122 
45920000    1.0223463  -0.14205913      1728000    3726.4769       229600       177160 
45930000   0.98985871  -0.14848743      1728000    3727.2579       229650       177196 
45940000    1.0286303  -0.13445451      1728000     3728.036       229700       177236 
45950000   0.97940072  -0.13442049      1728000    3728.8136       229750       177274 
45960000   0.99822408  -0.14350006      1728000     3729.597       229800       177313 
45970000    1.0731688  -0.14527785      1728000     3730.382       229850       177351 
45980000    1.0874027  -0.15099937      1728000    3731.1651       229900       177391 
45990000   0.98671548   -0.1420147      1728000    3731.9471       229950       177425 
46000000    1.0489367  -0.14060893      1728000    3732.7449       230000       177470 
46010000    1.0330823  -0.14194917      1728000     3733.522       230050       177509 
46020000   0.95482028  -0.15209181      1728000    3734.3031       230100       177551 
46030000    1.0323733  -0.14648104      1728000    3735.0789       230150       177592 
46040000   0.93006182  -0.14270059      1728000    3735.8661       230200       177629 
46050000   0.96283287  -0.14313295      1728000    3736.6492       230250       177667 
46060000   0.94338653  -0.14896382      1728000    3737.4301       230300       177706 
46070000    1.0132586  -0.14707416      1728000     3738.208       230350       177750 
46080000     1.052578  -0.14892376      1728000    3738.9861       230400       177792 
46090000    1.0453165  -0.15388249      1728000     3739.773       230450       177829 
46100000    1.0066183  -0.14332142      1728000     3740.572       230500       177863 
46110000   0.96803321  -0.15292224      1728000    3741.3551       230550       177897 
46120000    1.0342456   -0.1396373      1728000    3742.1319       230600       177938 
46130000   0.97226659  -0.15977831      1728000     3742.969       230650       177975 
46140000    1.0011253  -0.16952435      1728000    3743.7912       230700       178011 
46150000   0.94203482  -0.15961614      1728000    3744.6473       230750       178048 
46160000    0.9829526  -0.14779205      1728000    3745.4462       230800       178086 
46170000   0.98098307   -0.1632585      1728000    3746.2409       230850       178124 
46180000    1.0305739  -0.14446275      1728000    3747.0262       230900       178161 
46190000   0.98245245  -0.15717767      1728000    3747.8213       230950       178201 
46200000   0.98302218  -0.15955676      1728000    3748.6271       231000       178241 
46210000   0.98957161  -0.15183843      1728000    3749.4459       231050       178282 
46220000    1.0882629  -0.14359326      1728000    3750.2471       231100       178314 
46230000    1.0561095  -0.15090937      1728000    3751.1103       231150       178354 
46240000    0.9855327  -0.15593563      1728000    3751.9714       231200       178391 
46250000    0.9669546  -0.15214431      1728000    3752.9204       231250       178428 
46260000    1.0698427  -0.12599093      1728000    3753.7786       231300       178467 
46270000    1.0144541  -0.12612843      1728000    3754.6108       231350       178504 
46280000   0.99588667  -0.13979142      1728000     3755.447       231400       178544 
46290000    1.0260448  -0.13548343      1728000    3756.3141       231450       178580 
46300000    1.0354164  -0.13148323      1728000    3757.1343       231500       178622 
46310000    1.1114677   -0.1336958      1728000    3757.9344       231550       178657 
46320000   0.93874682  -0.12655472      1728000    3758.7588       231600       178701 
46330000    1.0583057  -0.12002632      1728000    3759.5595       231650       178738 
46340000    0.9233139  -0.13332324      1728000    3760.3617       231700       178784 
46350000     1.000868  -0.12963256      1728000    3761.1694       231750       178820 
46360000    1.0432688  -0.13732089      1728000     3761.969       231800       178858 
46370000   0.98982944  -0.13520513      1728000    3762.7729       231850       178899 
46380000   0.91682971  -0.14131982      1728000     3763.573       231900       178940 
46390000   0.97129437  -0.13717147      1728000    3764.3841       231950       178980 
46400000   0.95034886  -0.15576696      1728000    3765.1899       232000       179018 
46410000    1.0020257   -0.1560351      1728000    3766.0081       232050       179058 
46420000    1.0242945  -0.15283971      1728000    3766.8044       232100       179098 
46430000   0.99636453  -0.15839796      1728000    3767.6066       232150       179138 
46440000    1.0427673  -0.15454661      1728000    3768.4264       232200       179174 
46450000    1.0446311   -0.1517712      1728000    3769.2356       232250       179211 
46460000   0.97614276  -0.15406118      1728000    3770.0527       232300       179251 
46470000    1.0123194  -0.17147833      1728000    3770.8569       232350       179289 
46480000   0.97066538  -0.17631575      1728000    3771.6572       232400       179326 
46490000   0.99618189  -0.15834384      1728000    3772.4629       232450       179366 
46500000    0.9668251  -0.17784054      1728000    3773.2948       232500       179409 
46510000   0.97531893  -0.16614477      1728000    3774.1357       232550       179444 
46520000    0.9463171  -0.16247495      1728000     3774.936       232600       179484 
46530000     1.011069   -0.1591853      1728000    3775.7199       232650       179521 
46540000   0.99505355  -0.14768427      1728000     3776.505       232700       179559 
46550000   0.98334677  -0.15538069      1728000     3777.295       232750       179596 
46560000   0.98809604  -0.15850297      1728000    3778.0819       232800       179633 
46570000    1.0380757  -0.14959887      1728000      3778.87       232850       179676 
46580000   0.99935744   -0.1543622      1728000     3779.681       232900       179714 
46590000    1.0695745  -0.15980541      1728000     3780.479       232950       179750 
46600000    1.0296786  -0.15498151      1728000    3781.2709       233000       179797 
46610000    1.0338572  -0.16010143      1728000     3782.058       233050       179835 
46620000    1.0132867  -0.15621436      1728000    3782.8459       233100       179874 
46630000    1.0019325  -0.15961922      1728000    3783.6479       233150       179913 
46640000   0.97156349  -0.15442316      1728000    3784.4461       233200       179948 
46650000   0.95005879  -0.14465321      1728000    3785.2517       233250       179983 
46660000    1.0180162  -0.14363821      1728000     3786.042       233300       180018 
46670000   0.99172158  -0.14353813      1728000     3786.839       233350       180056 
46680000    1.0168219  -0.14174062      1728000    3787.6378       233400       180090 
46690000    1.0657915   -0.1458218      1728000     3788.426       233450       180130 
46700000   0.96871576  -0.14440198      1728000     3789.215       233500       180173 
46710000   0.95849548  -0.15480696      1728000      3790.01       233550       180217 
46720000   0.98606165  -0.15370145      1728000    3790.7942       233600       180254 
46730000    1.0166368  -0.15117173      1728000       3791.6       233650       180293 
46740000    1.0322709  -0.15173638      1728000    3792.3892       233700       180329 
46750000    1.0379975   -0.1545405      1728000    3793.1752       233750       180364 
46760000    0.9822247   -0.1491577      1728000    3793.9621       233800       180405 
46770000   0.94270753  -0.14225615      1728000    3794.7551       233850       180445 
46780000   0.95963029  -0.14740749      1728000     3795.546       233900       180486 
46790000   0.96423952   -0.1374112      1728000    3796.3301       233950       180524 
46800000    1.0491242  -0.14360335      1728000    3797.1189       234000       180560 
46810000   0.99185178  -0.14218132      1728000    3797.8987       234050       180594 
46820000    1.0437247  -0.14518388      1728000     3798.677       234100       180631 
46830000   0.97111655  -0.14436616      1728000    3799.4612       234150       180668 
46840000    1.0292937    -0.147023      1728000     3800.239       234200       180713 
46850000    1.0161523  -0.14286712      1728000     3801.035       234250       180755 
46860000    1.0304312  -0.14578666      1728000    3801.8167       234300       180797 
46870000      1.04869  -0.14748423      1728000    3802.6094       234350       180834 
46880000   0.98622871  -0.14867573      1728000    3803.4019       234400       180873 
46890000    1.0166462  -0.15112031      1728000    3804.1902       234450       180911 
46900000    1.0477997  -0.15118897      1728000    3804.9891       234500       180952 
46910000   0.99765722  -0.14584544      1728000    3805.7739       234550       180989 
46920000    1.0373718   -0.1512448      1728000    3806.5562       234600       181033 
46930000    1.0204616  -0.14294994      1728000     3807.339       234650       181070 
46940000   0.98096121  -0.15177364      1728000    3808.1501       234700       181106 
46950000    1.0269902  -0.12932984      1728000    3808.9391       234750       181149 
46960000   0.99284988  -0.14774679      1728000    3809.7251       234800       181189 
46970000     1.000423  -0.16025216      1728000     3810.504       234850       181231 
46980000   0.98421572  -0.16679822      1728000    3811.2861       234900       181267 
46990000   0.99324372   -0.1482101      1728000    3812.0652       234950       181301 
47000000    1.0206122  -0.15567748      1728000    3812.8651       235000       181339 
47010000    1.0206827  -0.15434089      1728000     3813.653       235050       181372 
47020000    1.0159216  -0.15081759      1728000      3814.44       235100       181406 
47030000   0.99272723   -0.1417523      1728000    3815.2222       235150       181444 
47040000    1.0309889  -0.15341384      1728000    3816.0132       235200       181482 
47050000   0.95101889  -0.15122917      1728000     3816.803       235250       181519 
47060000    1.0084019  -0.16096619      1728000    3817.5952       235300       181558 
47070000   0.97785045  -0.16032829      1728000     3818.384       235350       181594 
47080000    1.0013613  -0.14677713      1728000    3819.1711       235400       181635 
47090000   0.96334676  -0.16068852      1728000    3819.9591       235450       181674 
47100000   0.94405627   -0.1508046      1728000     3820.754       235500       181710 
47110000   0.96579648  -0.16112253      1728000     3821.537       235550       181742 
47120000    1.0433736  -0.15520028      1728000    3822.3194       235600       181785 
47130000   0.97509219  -0.14118254      1728000    3823.1079       235650       181826 
47140000   0.97217078  -0.14423561      1728000    3823.8941       235700       181864 
47150000    1.0243055   -0.1493877      1728000    3824.6898       235750       181899 
47160000     1.033418  -0.15405499      1728000    3825.4781       235800       181937 
47170000     1.025905  -0.15783025      1728000     3826.259       235850       181977 
47180000   0.92880349  -0.16222066      1728000    3827.0373       235900       182019 
47190000    1.0024694  -0.15431701      1728000     3827.818       235950       182056 
47200000    1.0284563  -0.16959814      1728000    3828.6151       236000       182093 
47210000    1.0039058  -0.17193307      1728000     3829.397       236050       182139 
47220000    1.0246615  -0.17912774      1728000    3830.1813       236100       182176 
47230000    1.0167512  -0.17284484      1728000     3830.963       236150       182213 
47240000    1.0086094  -0.17791098      1728000    3831.7497       236200       182249 
47250000    1.0215418  -0.18135815      1728000    3832.5341       236250       182284 
47260000    1.0639423  -0.16329165      1728000    3833.3261       236300       182324 
47270000   0.95942234  -0.18444695      1728000     3834.111       236350       182364 
47280000    1.0443444  -0.17538887      1728000    3834.8996       236400       182399 
47290000   0.95546471  -0.17009632      1728000    3835.6918       236450       182438 
47300000   0.98131057  -0.17398944      1728000     3836.488       236500       182478 
47310000     1.054889  -0.16220142      1728000    3837.2731       236550       182513 
47320000    0.9772499  -0.16741068      1728000      3838.07       236600       182552 
47330000   0.98057392  -0.16904791      1728000    3838.8699       236650       182588 
47340000   0.97336218  -0.16651721      1728000    3839.6623       236700       182629 
47350000   0.97604317  -0.16069148      1728000    3840.4512       236750       182666 
47360000   0.91723409  -0.17767822      1728000    3841.2419       236800       182705 
47370000    1.0071494   -0.1680494      1728000    3842.0323       236850       182741 
47380000    1.0382894  -0.16156506      1728000    3842.8162       236900       182775 
47390000   0.95762799  -0.15083172      1728000     3843.597       236950       182813 
47400000    1.0065441   -0.1643287      1728000    3844.4039       237000       182850 
47410000     1.076134  -0.15838755      1728000    3845.2062       237050       182890 
47420000    1.0135689  -0.17973534      1728000    3846.0139       237100       182926 
47430000     0.993645  -0.17417476      1728000    3846.8271       237150       182961 
47440000    1.0327851  -0.16726719      1728000    3847.6432       237200       183000 
47450000   0.99525748  -0.16227383      1728000    3848.4531       237250       183039 
47460000   0.96236119  -0.15496545      1728000    3849.2571       237300       183078 
47470000   0.97636451  -0.15288704      1728000    3850.1006       237350       183116 
47480000   0.99769387  -0.14642712      1728000    3850.8878       237400       183155 
47490000   0.97464495  -0.16405471      1728000    3851.7072       237450       183189 
47500000    1.0244722  -0.14581908      1728000    3852.5253       237500       183231 
47510000   0.98106956  -0.15215529      1728000     3853.338       237550       183265 
47520000   0.99726503  -0.16159762      1728000    3854.1353       237600       183304 
47530000   0.99245004  -0.15042693      1728000    3854.9409       237650       183341 
47540000    1.0369962  -0.16743868      1728000    3855.7492       237700       183380 
47550000   0.92966536  -0.16525741      1728000    3856.5493       237750       183418 
47560000   0.93688162  -0.16581125      1728000    3857.3461       237800       183457 
47570000   0.96343942  -0.16530224      1728000     3858.148       237850       183496 
47580000   0.98260864  -0.17836394      1728000     3858.943       237900       183536 
47590000    1.0120339  -0.15848481      1728000    3859.7429       237950       183574 
47600000    1.0960605  -0.16776572      1728000    3860.5473       238000       183613 
47610000    1.0329952  -0.16721636      1728000     3861.339       238050       183650 
47620000    1.0884145  -0.16190571      1728000    3862.1351       238100       183689 
47630000    1.0038307  -0.17018713      1728000    3862.9333       238150       183723 
47640000   0.99172452  -0.18401371      1728000    3863.7322       238200       183762 
47650000    1.0444429  -0.16383514      1728000    3864.5191       238250       183800 
47660000   0.92058126  -0.15317531      1728000    3865.3181       238300       183838 
47670000     1.074051  -0.16955558      1728000    3866.1121       238350       183877 
47680000   0.99190595  -0.16146301      1728000    3866.8931       238400       183918 
47690000    1.0283219  -0.14769937      1728000    3867.6811       238450       183961 
47700000    1.0970501  -0.16363725      1728000    3868.4783       238500       183997 
47710000    0.9429793  -0.16131254      1728000    3869.2763       238550       184036 
47720000   0.94386348  -0.17472431      1728000    3870.0791       238600       184072 
47730000    1.0094777  -0.16570961      1728000    3870.8828       238650       184109 
47740000    1.0006619  -0.17486823      1728000    3871.6851       238700       184144 
47750000    1.0049241  -0.17392323      1728000     3872.531       238750       184186 
47760000    1.0057233  -0.16947945      1728000    3873.3383       238800       184227 
47770000   0.96505239  -0.15220042      1728000    3874.1313       238850       184263 
47780000   0.94307979  -0.15353094      1728000     3874.928       238900       184302 
47790000   0.94524182  -0.15507692      1728000    3875.7159       238950       184335 
47800000   0.99440682  -0.14761961      1728000    3876.5155       239000       184377 
47810000   0.98298246  -0.14511435      1728000       3877.3       239050       184414 
47820000    1.0329308  -0.15075244      1728000    3878.0842       239100       184457 
47830000    1.0259401  -0.15814011      1728000    3878.8853       239150       184498 
47840000    0.9726968  -0.15515485      1728000     3879.678       239200       184541 
47850000   0.96586221  -0.15463145      1728000    3880.4623       239250       184583 
47860000   0.97424731   -0.1467258      1728000    3881.2723       239300       184630 
47870000     1.029369  -0.15541013      1728000    3882.0591       239350       184675 
47880000   0.96573614  -0.16892937      1728000    3882.8522       239400       184711 
47890000    1.0256787  -0.15973352      1728000    3883.6411       239450       184744 
47900000    1.0267858  -0.16456118      1728000    3884.4361       239500       184783 
47910000   0.99791314  -0.15862008      1728000    3885.2273       239550       184825 
47920000    1.0246379  -0.15723564      1728000    3886.0099       239600       184861 
47930000   0.96262051  -0.15637131      1728000    3886.7923       239650       184902 
47940000   0.99229588  -0.15403456      1728000    3887.5771       239700       184938 
47950000    1.0951894  -0.15169697      1728000    3888.3612       239750       184977 
47960000    1.0299393  -0.16638224      1728000    3889.1446       239800       185017 
47970000    1.0571151  -0.16599491      1728000    3889.9311       239850       185053 
47980000    1.0454828  -0.17149217      1728000    3890.7131       239900       185093 
47990000    1.0339865  -0.16101687      1728000    3891.4902       239950       185127 
48000000   0.98966441  -0.16629664      1728000    3892.2851       240000       185164 
48010000   0.98961409   -0.1536619      1728000     3893.066       240050       185200 
48020000   0.95668039  -0.15430229      1728000    3893.8502       240100       185235 
48030000   0.98411925   -0.1601696      1728000    3894.6252       240150       185275 
48040000   0.97970181  -0.15015181      1728000    3895.4044       240200       185309 
48050000    1.0153302  -0.14511825      1728000    3896.1821       240250       185352 
48060000    1.0146225  -0.16889799      1728000     3896.962       240300       185392 
48070000    1.0075206  -0.15101913      1728000    3897.7418       240350       185434 
48080000   0.96614479  -0.15477486      1728000    3898.5238       240400       185474 
48090000   0.96516835  -0.16156746      1728000    3899.3071       240450       185514 
48100000   0.98995085  -0.14828551      1728000     3900.094       240500       185554 
48110000   0.98865401  -0.15141717      1728000    3900.8751       240550       185592 
48120000   0.97370526  -0.14374598      1728000    3901.6601       240600       185633 
48130000     1.068784  -0.14468283      1728000    3902.4371       240650       185671 
48140000    1.0314927  -0.15070165      1728000    3903.2122       240700       185707 
48150000    1.0172036  -0.13436575      1728000    3903.9903       240750       185746 
48160000    1.0594147  -0.14640397      1728000     3904.764       240800       185788 
48170000    1.0717485  -0.15112505      1728000    3905.5491       240850       185824 
48180000   0.96261178  -0.14577801      1728000    3906.3261       240900       185866 
48190000   0.97509318  -0.14697429      1728000    3907.1142       240950       185902 
48200000    1.0152134   -0.1460033      1728000    3907.9129       241000       185943 
48210000    1.0303226  -0.14878673      1728000    3908.8257       241050       185983 
48220000    0.9693414   -0.1655075      1728000    3909.6858       241100       186018 
48230000    1.0383106  -0.15951744      1728000     3910.492       241150       186059 
48240000    1.0744382  -0.13897149      1728000     3911.326       241200       186097 
48250000    1.0120571   -0.1538172      1728000    3912.1332       241250       186135 
48260000    1.0561239  -0.16399951      1728000    3912.9386       241300       186173 
48270000   0.96739481  -0.16383357      1728000    3913.7421       241350       186210 
48280000   0.95677435  -0.15660642      1728000    3914.5539       241400       186248 
48290000    1.0415981   -0.1453817      1728000    3915.3585       241450       186286 
48300000    1.0233309  -0.15531885      1728000    3916.1753       241500       186323 
48310000   0.99099724  -0.14293584      1728000    3916.9882       241550       186362 
48320000      1.08231  -0.16304394      1728000    3917.7941       241600       186401 
48330000   0.96026899  -0.14544998      1728000    3918.6706       241650       186441 
48340000   0.99777407  -0.15574826      1728000    3919.4787       241700       186482 
48350000   0.97761647  -0.15384865      1728000    3920.2852       241750       186522 
48360000    1.0137489  -0.14846855      1728000    3921.0912       241800       186564 
48370000    0.9647384    -0.144577      1728000    3921.8845       241850       186605 
48380000    1.0350942  -0.12558681      1728000    3922.7213       241900       186648 
48390000    1.0015126  -0.13814477      1728000    3923.5354       241950       186685 
48400000    0.9888554  -0.13000869      1728000    3924.3496       242000       186722 
48410000   0.98952738  -0.13731522      1728000    3925.1718       242050       186761 
48420000    0.9994376  -0.13398484      1728000    3925.9731       242100       186803 
48430000    1.0161912  -0.12129617      1728000    3926.7774       242150       186842 
48440000   0.98698829  -0.12711313      1728000    3927.5725       242200       186887 
48450000     1.005795  -0.12652239      1728000    3928.3827       242250       186928 
48460000     1.009999  -0.13004175      1728000    3929.1908       242300       186964 
48470000   0.98656139  -0.11780774      1728000    3929.9973       242350       187007 
48480000    1.0434635  -0.13081819      1728000    3930.8086       242400       187047 
48490000   0.97639477  -0.11311644      1728000    3931.6201       242450       187087 
48500000   0.98503822  -0.11479057      1728000    3932.4411       242500       187130 
48510000    1.0913656  -0.12278579      1728000    3933.2607       242550       187171 
48520000    1.0165322  -0.11989768      1728000     3934.087       242600       187211 
48530000     1.002562  -0.14010955      1728000    3934.9002       242650       187249 
48540000    1.0495884  -0.15254101      1728000    3935.7442       242700       187288 
48550000    1.0227528   -0.1457819      1728000      3936.57       242750       187333 
48560000     1.081617  -0.13155434      1728000    3937.3852       242800       187377 
48570000    0.9397664  -0.13262633      1728000    3938.2082       242850       187412 
48580000    1.0118343  -0.14571338      1728000    3939.0758       242900       187455 
48590000    1.0151008  -0.14370357      1728000     3939.903       242950       187493 
48600000   0.96380324  -0.16088806      1728000    3940.7313       243000       187526 
48610000    1.0049981  -0.14663925      1728000    3941.5764       243050       187569 
48620000    0.9937137   -0.1537785      1728000    3942.3966       243100       187610 
48630000    1.0115784  -0.15360101      1728000    3943.1947       243150       187647 
48640000    0.9798152  -0.15811369      1728000     3943.995       243200       187685 
48650000   0.99152084  -0.15669977      1728000    3944.8344       243250       187722 
48660000    1.0220262  -0.15179827      1728000    3945.6645       243300       187761 
48670000    1.0630344  -0.14073128      1728000    3946.4687       243350       187800 
48680000   0.98680296  -0.13532686      1728000    3947.2719       243400       187842 
48690000    1.0317914  -0.14084521      1728000    3948.0662       243450       187876 
48700000    1.0036679  -0.16024111      1728000    3948.8841       243500       187912 
48710000    1.0392962  -0.14427053      1728000    3949.6832       243550       187951 
48720000   0.97053568  -0.13937789      1728000    3950.4801       243600       187985 
48730000    1.0064584  -0.15654244      1728000     3951.282       243650       188024 
48740000   0.92668035  -0.16390486      1728000    3952.0972       243700       188064 
48750000   0.98193733  -0.15576776      1728000    3952.8913       243750       188106 
48760000    1.0203025  -0.16633979      1728000    3953.7527       243800       188140 
48770000    1.0273379  -0.14651364      1728000    3954.5828       243850       188177 
48780000   0.91754683  -0.16204711      1728000    3955.4811       243900       188219 
48790000   0.96563017  -0.14528213      1728000    3956.3087       243950       188258 
48800000   0.94339878  -0.13940945      1728000     3957.126       244000       188298 
48810000   0.99129339  -0.15295797      1728000    3957.9207       244050       188338 
48820000    1.0190127  -0.13887336      1728000    3958.7181       244100       188375 
48830000   0.96481342  -0.13808642      1728000    3959.5262       244150       188417 
48840000    1.0738013  -0.14963439      1728000    3960.3112       244200       188454 
48850000    1.0308161  -0.16552601      1728000    3961.0982       244250       188492 
48860000     1.046301  -0.17197435      1728000    3961.9119       244300       188529 
48870000    1.0147822  -0.18410447      1728000    3962.7173       244350       188565 
48880000    1.0172008  -0.18341909      1728000    3963.5876       244400       188599 
48890000   0.98480873  -0.18403923      1728000    3964.5067       244450       188634 
48900000   0.95407865  -0.16801305      1728000    3965.3212       244500       188670 
48910000    1.0043308  -0.18997074      1728000    3966.1054       244550       188700 
48920000   0.93174609  -0.17800113      1728000    3966.8919       244600       188737 
48930000    1.0301797  -0.17715852      1728000    3967.6761       244650       188770 
48940000   0.99873238  -0.18015964      1728000    3968.4563       244700       188811 
48950000   0.99990543  -0.16017381      1728000    3969.2474       244750       188846 
48960000    1.0037139  -0.17281002      1728000    3970.0251       244800       188888 
48970000    0.9668182  -0.16078103      1728000    3970.8075       244850       188918 
48980000    1.0355842  -0.15612337      1728000    3971.5863       244900       188953 
48990000   0.94111278  -0.16223663      1728000    3972.3655       244950       188990 
49000000    1.0035169  -0.16161114      1728000    3973.1611       245000       189023 
49010000    0.9210388  -0.17455206      1728000    3973.9523       245050       189064 
49020000    1.0626049  -0.15590452      1728000    3974.7348       245100       189097 
49030000    1.0781873  -0.16544863      1728000    3975.5132       245150       189137 
49040000   0.96695571  -0.15912391      1728000     3976.296       245200       189175 
49050000   0.97279164  -0.15651764      1728000    3977.0782       245250       189213 
49060000    1.0343575  -0.16289257      1728000    3977.8677       245300       189255 
49070000   0.95158926  -0.16915428      1728000    3978.6492       245350       189296 
49080000    1.0622851   -0.1513251      1728000    3979.4293       245400       189333 
49090000    1.0079822  -0.13835915      1728000    3980.2129       245450       189373 
49100000   0.99592073   -0.1469443      1728000    3981.0054       245500       189408 
49110000   0.97679679  -0.14429654      1728000    3981.7941       245550       189440 
49120000    1.0349166  -0.14754037      1728000    3982.5813       245600       189485 
49130000    1.0844831  -0.16234384      1728000    3983.3681       245650       189526 
49140000   0.99012985  -0.16044495      1728000    3984.1532       245700       189558 
49150000    1.0018492  -0.17388984      1728000    3984.9374       245750       189601 
49160000   0.98997397  -0.18324518      1728000    3985.7234       245800       189638 
49170000   0.96305434  -0.17659799      1728000    3986.5024       245850       189678 
49180000    1.0074817  -0.17684073      1728000    3987.2804       245900       189714 
49190000   0.97995674  -0.16451244      1728000    3988.0593       245950       189749 
49200000     0.988745  -0.15903155      1728000    3988.8465       246000       189788 
49210000   0.96278685  -0.15527866      1728000    3989.6242       246050       189825 
49220000    1.0790792  -0.14014741      1728000    3990.4003       246100       189868 
49230000    1.0474696   -0.1480099      1728000    3991.1819       246150       189906 
49240000   0.93612607  -0.13841137      1728000    3991.9572       246200       189946 
49250000    1.0665992   -0.1321396      1728000    3992.7354       246250       189984 
49260000     1.032536   -0.1464277      1728000    3993.5431       246300       190026 
49270000     1.036929  -0.13344211      1728000    3994.3453       246350       190065 
49280000    1.0515114  -0.12869945      1728000    3995.1231       246400       190105 
49290000   0.95650199   -0.1314077      1728000    3995.9123       246450       190144 
49300000    1.1107046  -0.13412279      1728000    3996.7059       246500       190185 
49310000    1.0559859  -0.14167592      1728000    3997.4964       246550       190226 
49320000   0.97458939  -0.14605979      1728000    3998.2734       246600       190269 
49330000    1.0099944  -0.14919285      1728000    3999.0534       246650       190311 
49340000   0.97605099  -0.13708092      1728000    3999.8354       246700       190352 
49350000   0.92868311  -0.13508622      1728000    4000.6144       246750       190391 
49360000   0.98703184   -0.1396831      1728000    4001.3933       246800       190436 
49370000   0.99986195  -0.15054746      1728000    4002.1742       246850       190469 
49380000   0.94358475  -0.14567675      1728000    4002.9462       246900       190506 
49390000    1.0225499   -0.1403587      1728000    4003.7174       246950       190550 
49400000   0.97903115  -0.13926384      1728000    4004.4984       247000       190589 
49410000    1.0475979    -0.139402      1728000    4005.2733       247050       190629 
49420000    1.0282663  -0.14580322      1728000    4006.0535       247100       190670 
49430000   0.97955453   -0.1577012      1728000    4006.8414       247150       190704 
49440000   0.98094509  -0.16301126      1728000    4007.6215       247200       190742 
49450000   0.99581179    -0.164929      1728000     4008.402       247250       190783 
49460000   0.99626972  -0.16176158      1728000    4009.1854       247300       190824 
49470000    1.0430113  -0.16589941      1728000    4009.9674       247350       190862 
49480000     1.027302  -0.16352019      1728000    4010.7574       247400       190901 
49490000   0.95404512  -0.15963024      1728000    4011.5442       247450       190939 
49500000    1.0318564  -0.13567144      1728000    4012.3504       247500       190976 
49510000    1.0903605  -0.15691499      1728000    4013.1362       247550       191014 
49520000    1.0569916  -0.16938985      1728000    4013.9224       247600       191055 
49530000   0.97139244  -0.17921078      1728000    4014.7013       247650       191095 
49540000   0.93367495  -0.17327982      1728000    4015.4942       247700       191128 
49550000   0.94626736  -0.17893675      1728000    4016.2804       247750       191168 
49560000    1.0329355  -0.18175502      1728000    4017.0664       247800       191201 
49570000    1.0260857  -0.16728225      1728000    4017.8544       247850       191241 
49580000   0.98409934  -0.15362947      1728000    4018.6383       247900       191279 
49590000   0.97364226  -0.15446136      1728000    4019.4223       247950       191316 
49600000   0.95937003  -0.16118622      1728000    4020.2153       248000       191350 
49610000   0.94722833  -0.15723911      1728000    4021.0063       248050       191388 
49620000    1.0063289  -0.15695159      1728000    4021.7891       248100       191432 
49630000     1.022384  -0.14633726      1728000    4022.5684       248150       191472 
49640000    1.0636443  -0.13399745      1728000     4023.359       248200       191512 
49650000   0.95388346  -0.13990127      1728000    4024.1661       248250       191550 
49660000    1.0492347  -0.15606239      1728000    4024.9651       248300       191587 
49670000    1.0446266  -0.15027638      1728000    4025.7595       248350       191627 
49680000    1.0083678  -0.14372594      1728000    4026.5722       248400       191663 
49690000   0.99466494  -0.14450264      1728000    4027.3676       248450       191704 
49700000   0.96627709  -0.14728971      1728000    4028.2282       248500       191739 
49710000   0.99339995  -0.14619885      1728000    4029.0204       248550       191778 
49720000     1.043926  -0.13787845      1728000    4029.8074       248600       191816 
49730000   0.95890911  -0.14646989      1728000    4030.5824       248650       191853 
49740000    1.0408811  -0.13203012      1728000    4031.3634       248700       191894 
49750000    1.0135278  -0.14619113      1728000    4032.1523       248750       191935 
49760000    1.0437405  -0.14067041      1728000    4032.9315       248800       191975 
49770000   0.93621837  -0.13788589      1728000    4033.7095       248850       192013 
49780000   0.99475406  -0.14257912      1728000    4034.5022       248900       192047 
49790000    1.0097095  -0.14018628      1728000    4035.2893       248950       192087 
49800000    1.0341589  -0.14166663      1728000    4036.0794       249000       192122 
49810000    1.0474048  -0.13714435      1728000    4036.9272       249050       192162 
49820000    1.0074321  -0.12984339      1728000    4037.7483       249100       192201 
49830000    1.0006141   -0.1288873      1728000    4038.5414       249150       192245 
49840000    1.0398391  -0.12838373      1728000    4039.3313       249200       192285 
49850000   0.98354854  -0.11481099      1728000    4040.1053       249250       192328 
49860000    1.0405903  -0.12633083      1728000    4040.8862       249300       192364 
49870000    1.0300672  -0.11251827      1728000    4041.6593       249350       192404 
49880000   0.97461415  -0.13029389      1728000     4042.443       249400       192444 
49890000   0.97971961  -0.12601236      1728000    4043.2314       249450       192479 
49900000   0.96677085  -0.11601494      1728000    4044.0103       249500       192523 
49910000    1.0211681  -0.12653188      1728000    4044.8012       249550       192567 
49920000    0.9909105  -0.13697392      1728000    4045.5885       249600       192604 
49930000    1.0307909  -0.12848628      1728000    4046.3715       249650       192643 
49940000   0.99138375  -0.13626458      1728000    4047.1622       249700       192681 
49950000    1.0474047  -0.12558268      1728000    4047.9465       249750       192720 
49960000    1.0395386  -0.13410246      1728000    4048.7334       249800       192758 
49970000    1.0140105  -0.14015066      1728000    4049.5193       249850       192801 
49980000    1.0197188  -0.12785802      1728000    4050.2992       249900       192840 
49990000    1.0460424  -0.12082562      1728000    4051.0686       249950       192886 
50000000    1.0305386  -0.12987513      1728000    4051.8563       250000       192932 
Loop time of 4051.86 on 1 procs for 50000000 steps with 500 atoms

Performance: 10661774.670 tau/day, 12340.017 timesteps/s
99.3% CPU use with 1 MPI tasks x 1 OpenMP threads

MPI task timing breakdown:
Section |  min time  |  avg time  |  max time  |%varavg| %total
---------------------------------------------------------------
Pair    | 662.65     | 662.65     | 662.65     |   0.0 | 16.35
Bond    | 1063.2     | 1063.2     | 1063.2     |   0.0 | 26.24
Neigh   | 811.58     | 811.58     | 811.58     |   0.0 | 20.03
Comm    | 33.197     | 33.197     | 33.197     |   0.0 |  0.82
Output  | 15.203     | 15.203     | 15.203     |   0.0 |  0.38
Modify  | 1412.3     | 1412.3     | 1412.3     |   0.0 | 34.86
Other   |            | 53.8       |            |       |  1.33

Nlocal:    500 ave 500 max 500 min
Histogram: 1 0 0 0 0 0 0 0 0 0
Nghost:    0 ave 0 max 0 min
Histogram: 1 0 0 0 0 0 0 0 0 0
Neighs:    1251 ave 1251 max 1251 min
Histogram: 1 0 0 0 0 0 0 0 0 0

Total # of neighbors = 1251
Ave neighs/atom = 2.502
Ave special neighs/atom = 5.976
Neighbor list builds = 2613124
Dangerous builds = 0

################
## ULOOP    ####
################
clear
OMP_NUM_THREADS environment is not set. Defaulting to 1 thread. (../comm.cpp:87)
  using 1 OpenMP thread(s) per MPI task
variable rname delete
variable simname delete
variable folder delete
variable seed delete
variable E delete
variable RW delete
variable SimOutType delete
variable SimInType delete
variable jn delete
variable jf delete

next jbn
Increment via next: value 2 on partition 0
jump SELF #last line!!!

### If e.g. I run this on 10 partitions of 1 processor,
### and initialise the variable with 'uloop N'
### it will run 10 simulations with 'jobnumber' taking
### values 1-10. Then when a particular simulation finishes, the
### script will be run again with the next value of jobnumber,
### until N simulations have been run.
## SO ULOOP IS "SERIAL" BUT FOR SURE 10x1 PROCs ARE ALWAYS BUSY
Total wall time: 1:07:41
