LAMMPS (1 Feb 2019)
OMP_NUM_THREADS environment is not set. Defaulting to 1 thread. (../comm.cpp:87)
  using 1 OpenMP thread(s) per MPI task
####################################
####	ULOOP			####
####################################
variable jbn uloop 1  # run n simulations
variable startfrom equal 0
variable jn equal ${jbn}+${startfrom}
variable jn equal 1+${startfrom}
variable jn equal 1+0
print ${jn}
print 1
1
variable seed equal (8+4)*51-2*8
variable seedr equal (8+2)*22

#
variable N equal 2000
timestep 0.01
variable Dt equal 100000
variable Temp equal 1.0
variable Norm equal 0.88585294441338
if "${jn} <= 20" then "variable E equal 0.8"
variable E equal 0.8
#if "${jn} > 2 && ${jn} <= 4" then "variable E equal 1.5"
#if "${jn} > 4 && ${jn} <= 6" then "variable E equal 2.0"
#if "${jn} > 6 && ${jn} <= 8" then "variable E equal 2.5"
#if "${jn} > 8 && ${jn} <= 10" then "variable E equal 3.0"
#if "${jn} > 10 && ${jn} <= 12" then "variable E equal 3.5"
#if "${jn} > 12 && ${jn} <= 14" then "variable E equal 4.0"
#if "${jn} > 14 && ${jn} <= 16" then "variable E equal 4.5"
#if "${jn} > 16 && ${jn} <= 18" then "variable E equal 5.0"

#
####################################
####	DEFINTIONS 	########
####################################
#
variable N equal 500
variable folder index RW_Dt${Dt}_E${E}
variable folder index RW_Dt100000_E${E}
variable folder index RW_Dt100000_E0.8
shell mkdir ${folder}
shell mkdir RW_Dt100000_E0.8
variable SimOutType index RW${jn}Dt${Dt}E${E}
variable SimOutType index RW1Dt${Dt}E${E}
variable SimOutType index RW1Dt100000E${E}
variable SimOutType index RW1Dt100000E0.8
variable rname index INIT/Poly.N${N}.dat
variable rname index INIT/Poly.N500.dat
variable simname index Poly.N${N}.${SimOutType}
variable simname index Poly.N500.${SimOutType}
variable simname index Poly.N500.RW1Dt100000E0.8
#
units lj
atom_style angle
boundary        p p p
neighbor 1.3 bin
neigh_modify every 5 delay 5 check yes
#
restart 1000000 ${folder}/Restart.neutr.${simname}.
restart 1000000 RW_Dt100000_E0.8/Restart.neutr.${simname}.
restart 1000000 RW_Dt100000_E0.8/Restart.neutr.Poly.N500.RW1Dt100000E0.8.
print ${rname}
print INIT/Poly.N500.dat
INIT/Poly.N500.dat
read_data ${rname}
read_data INIT/Poly.N500.dat
  orthogonal box = (-50 -50 -50) to (50 50 50)
  1 by 1 by 1 MPI processor grid
  reading atoms ...
  500 atoms
  scanning bonds ...
  1 = max bonds/atom
  scanning angles ...
  1 = max angles/atom
  reading bonds ...
  499 bonds
  reading angles ...
  498 angles
  2 = max # of 1-2 neighbors
  2 = max # of 1-3 neighbors
  4 = max # of 1-4 neighbors
  6 = max # of special neighbors

####################################
####	GROUPS	             #######
####################################
group blue type 1
500 atoms in group blue
group red type 2
0 atoms in group red
group grey type 3
0 atoms in group grey

change_box all x final -60 60 y final -60 60 z final -60 60 boundary f f f units box
  orthogonal box = (-60 -50 -50) to (60 50 50)
  orthogonal box = (-60 -60 -50) to (60 60 50)
  orthogonal box = (-60 -60 -60) to (60 60 60)

####################################
####	ANGLE	             #######
####################################
angle_style   cosine
angle_coeff  1 3.0  #20 sigma for realistic DNA (1 bead = 2.5 nm)

####################################
####	PAIRS	             #######
####################################
pair_style  soft 2.5
pair_modify     shift yes
pair_coeff      * * 20 1.12246152962189

variable prefactor equal ramp(0,50)
fix pushapart all adapt 1 pair soft a * * v_prefactor

####################################
####	FENE	             #######
####################################
bond_style   fene
special_bonds fene#<=== I M P O R T A N T (new command)
  2 = max # of 1-2 neighbors
  6 = max # of special neighbors
bond_coeff   1  30.0   1.6  1.0  1.0

####################################
####	FIXES	             #######
####################################
fix 1 all   nve
fix 2 all  langevin   1.0 1.0   1.0   ${seed}
fix 2 all  langevin   1.0 1.0   1.0   596

####################################
####	WALL	             #######
####################################
fix WALL all wall/lj126 xhi EDGE 1.0 1.0 1.122462048 xlo EDGE 1.0 1.0 1.122462048 yhi EDGE 1.0 1.0 1.122462048 ylo EDGE 1.0 1.0 1.122462048 zhi EDGE 1.0 1.0 1.122462048 zlo EDGE 1.0 1.0 1.122462048 units box

####################################
####	RESET TIME             #######
####################################
reset_timestep 0

####################################
####	SWAP - ATOMS         #######
####################################
##HERE I USE fix atom/swap to attempt an atom swap between types
## In theory, I don't need to do a loop as the fix does it every
## N timesteps
##FIRST Dt IS NOT SWAPPING ANYWAY!
group Polymer type 1 2 3
500 atoms in group Polymer
fix Aswap Polymer atom/swap ${Dt} ${N} ${seed} ${Temp} semi-grand yes types 1 2 3 mu 0.0 0.0 0.0
fix Aswap Polymer atom/swap 100000 ${N} ${seed} ${Temp} semi-grand yes types 1 2 3 mu 0.0 0.0 0.0
fix Aswap Polymer atom/swap 100000 500 ${seed} ${Temp} semi-grand yes types 1 2 3 mu 0.0 0.0 0.0
fix Aswap Polymer atom/swap 100000 500 596 ${Temp} semi-grand yes types 1 2 3 mu 0.0 0.0 0.0
fix Aswap Polymer atom/swap 100000 500 596 1 semi-grand yes types 1 2 3 mu 0.0 0.0 0.0
variable Swaps equal f_Aswap[2]/1.0
variable Attempts equal f_Aswap[1]/1.0

####################################
####    THERMO AND INTEGRATION
####################################
timestep 0.01
thermo 10000
thermo_style   custom   step  temp  epair vol cpu v_Attempts v_Swaps

####################################
####	EQUILIBRATION        #######
####################################
#THIS IS TO TEST
#PUT LARGER NUMBER WHEN DOING ACTUAL SIMULATIONS
run 100000
Neighbor list info ...
  update every 5 steps, delay 5 steps, check yes
  max neighbors/atom: 2000, page size: 100000
  master list distance cutoff = 2.42246
  ghost atom cutoff = 2.42246
  binsize = 1.21123, bins = 100 100 100
  1 neighbor lists, perpetual/occasional/extra = 1 0 0
  (1) pair soft, perpetual
      attributes: half, newton on
      pair build: half/bin/newton
      stencil: half/bin/3d/newton
      bin: standard
Per MPI rank memory allocation (min/avg/max) = 9.234 | 9.234 | 9.234 Mbytes
Step Temp E_pair Volume CPU v_Attempts v_Swaps 
       0            0            0      1728000            0            0            0 
   10000    1.0075279 0.0074957802      1728000     1.125845          500          500 
   20000   0.97835886 0.0014558006      1728000     2.072875          500          500 
   30000    0.9844545 0.0021886883      1728000    2.9619651          500          500 
   40000   0.99181036 8.8566205e-05      1728000    3.8380651          500          500 
   50000   0.96849138  0.013001938      1728000    4.6852431          500          500 
   60000    1.0065555 0.00024033641      1728000    5.5271981          500          500 
   70000    0.9495637  0.010345973      1728000    6.3660221          500          500 
   80000   0.97425243 0.0018512064      1728000     7.202029          500          500 
   90000    1.0509142 0.0035049328      1728000    8.0267141          500          500 
  100000    1.0015061 0.0014080054      1728000    8.8511691          500          500 
Loop time of 8.85315 on 1 procs for 100000 steps with 500 atoms

Performance: 9759237.043 tau/day, 11295.413 timesteps/s
99.2% CPU use with 1 MPI tasks x 1 OpenMP threads

MPI task timing breakdown:
Section |  min time  |  avg time  |  max time  |%varavg| %total
---------------------------------------------------------------
Pair    | 0.61199    | 0.61199    | 0.61199    |   0.0 |  6.91
Bond    | 2.5591     | 2.5591     | 2.5591     |   0.0 | 28.91
Neigh   | 2.5594     | 2.5594     | 2.5594     |   0.0 | 28.91
Comm    | 0.12292    | 0.12292    | 0.12292    |   0.0 |  1.39
Output  | 0.017951   | 0.017951   | 0.017951   |   0.0 |  0.20
Modify  | 2.8829     | 2.8829     | 2.8829     |   0.0 | 32.56
Other   |            | 0.09888    |            |       |  1.12

Nlocal:    500 ave 500 max 500 min
Histogram: 1 0 0 0 0 0 0 0 0 0
Nghost:    0 ave 0 max 0 min
Histogram: 1 0 0 0 0 0 0 0 0 0
Neighs:    868 ave 868 max 868 min
Histogram: 1 0 0 0 0 0 0 0 0 0

Total # of neighbors = 868
Ave neighs/atom = 1.736
Ave special neighs/atom = 1.996
Neighbor list builds = 4478
Dangerous builds = 0


unfix pushapart
unfix Aswap
reset_timestep 0

#######################################################
####	PAIRS -- REPULSIVE + REDS FERROMAGN 	#######
#######################################################
#ENERGYSCALE
variable Et equal ${E}/${Norm}
variable Et equal 0.8/${Norm}
variable Et equal 0.8/0.88585294441338

pair_style  lj/cut 1.8
pair_modify     shift yes
pair_coeff      * *  1.0 1.0 1.12246152962189

pair_coeff      1 1  ${Et} 1.0 1.8
pair_coeff      1 1  0.903084428454169 1.0 1.8
pair_coeff      1 2  1.0 1.0 1.12246152962189
pair_coeff      1 3  1.0 1.0 1.12246152962189

pair_coeff      2 2  ${Et} 1.0 1.8
pair_coeff      2 2  0.903084428454169 1.0 1.8
pair_coeff      2 3  1.0 1.0 1.12246152962189

pair_coeff      3 3  1.0 1.0 1.12246152962189
#######################################################


########################
## PER PRIMI VICINI   ##
########################
bond_style harmonic
special_bonds lj 1 1 1
  2 = max # of 1-2 neighbors
  2 = max # of 1-3 neighbors
  4 = max # of 1-4 neighbors
  6 = max # of special neighbors
bond_coeff 1 200 1.12246
#bond_style fene
#special_bonds fene
#bond_coeff 1 30 1.6 1.0 1.0

########################
## RECOLOR #############
########################
group Polymer type 1 2 3
500 atoms in group Polymer
variable smooth equal 10
variable dtsmooth equal ${Dt}/${smooth}
variable dtsmooth equal 100000/${smooth}
variable dtsmooth equal 100000/10
variable Nsmooth equal ${N}/${smooth}
variable Nsmooth equal 500/${smooth}
variable Nsmooth equal 500/10
fix Aswap Polymer atom/swap ${dtsmooth} ${Nsmooth} ${seedr} ${Temp} semi-grand yes types 1 2 3 mu 0.0 0.0 0.0
fix Aswap Polymer atom/swap 10000 ${Nsmooth} ${seedr} ${Temp} semi-grand yes types 1 2 3 mu 0.0 0.0 0.0
fix Aswap Polymer atom/swap 10000 50 ${seedr} ${Temp} semi-grand yes types 1 2 3 mu 0.0 0.0 0.0
fix Aswap Polymer atom/swap 10000 50 220 ${Temp} semi-grand yes types 1 2 3 mu 0.0 0.0 0.0
fix Aswap Polymer atom/swap 10000 50 220 1 semi-grand yes types 1 2 3 mu 0.0 0.0 0.0
variable Swaps equal f_Aswap[2]/1.0
variable Attempts equal f_Aswap[1]/1.0

####################################
####    DUMPS                 #######
####################################
##VMD
#dump 1 all custom 1000 ${folder}/${simname}.lammpstrj id mol type x y z
#dump_modify  1   format "%d %d %d %.5f %.5f %.5f"

##DAT
dump 2 all custom 100000 ${folder}/${simname}.* id type x y z ix iy iz
dump 2 all custom 100000 RW_Dt100000_E0.8/${simname}.* id type x y z ix iy iz
dump 2 all custom 100000 RW_Dt100000_E0.8/Poly.N500.RW1Dt100000E0.8.* id type x y z ix iy iz
#dump_modify   2   format "%d %d %.5f %.5f %.5f %d %d %d"

##CFG
#dump 3 all cfg 1000 ${folder}/CFG/${simname}.tot.*.cfg mass type xs ys zs id mol type
#dump_modify 3 element N C O Ca Xe

##XYZ
dump 4 all xyz 100000 XYZ_${simname}.xyz
dump 4 all xyz 100000 XYZ_Poly.N500.RW1Dt100000E0.8.xyz
dump_modify 4 element C O N Xe

###########################
thermo 10000
thermo_style   custom   step  temp  epair vol cpu v_Attempts v_Swaps
run 50000000
Neighbor list info ...
  update every 5 steps, delay 5 steps, check yes
  max neighbors/atom: 2000, page size: 100000
  master list distance cutoff = 3.1
  ghost atom cutoff = 3.1
  binsize = 1.55, bins = 78 78 78
  1 neighbor lists, perpetual/occasional/extra = 1 0 0
  (1) pair lj/cut, perpetual
      attributes: half, newton on
      pair build: half/bin/newton
      stencil: half/bin/3d/newton
      bin: standard
Per MPI rank memory allocation (min/avg/max) = 9.566 | 9.566 | 9.566 Mbytes
Step Temp E_pair Volume CPU v_Attempts v_Swaps 
       0    1.0015061    1.8659569      1728000            0            0            0 
   10000   0.99624702   -0.2418809      1728000   0.82091784           50           37 
   20000    1.0124011  -0.26835902      1728000     1.650913          100           70 
   30000   0.99635752   -0.2520263      1728000    2.4836209          150           99 
   40000   0.99052831  -0.27285539      1728000     3.321003          200          132 
   50000   0.98976761  -0.31451017      1728000    4.1465869          250          171 
   60000     1.012287  -0.32196751      1728000    4.9648459          300          202 
   70000   0.94109463  -0.31528016      1728000    5.7857759          350          228 
   80000    1.0265957  -0.33111564      1728000    6.6099739          400          260 
   90000    1.0006848  -0.30775396      1728000    7.4669919          450          291 
  100000    1.0413584  -0.31334776      1728000     8.313859          500          320 
  110000    1.0270638  -0.34569385      1728000    9.1459038          550          356 
  120000     1.049294   -0.3800908      1728000     9.982841          600          382 
  130000   0.96179368  -0.36289715      1728000    10.829966          650          410 
  140000   0.96821036  -0.37506602      1728000    11.665023          700          449 
  150000    1.0349688  -0.33982875      1728000    12.491887          750          474 
  160000    1.0495631   -0.3449126      1728000    13.316949          800          503 
  170000    1.0493964  -0.37745933      1728000    14.165931          850          533 
  180000    1.0186981  -0.35585049      1728000    15.020916          900          566 
  190000    1.0177648  -0.34414867      1728000    15.876686          950          596 
  200000   0.98581259  -0.38011272      1728000    16.755992         1000          630 
  210000   0.91985317  -0.40636148      1728000    17.614665         1050          659 
  220000   0.99614832  -0.39293677      1728000    18.458093         1100          694 
  230000    1.0139432  -0.39285772      1728000    19.292096         1150          719 
  240000    1.0443801  -0.35726754      1728000    20.118021         1200          755 
  250000   0.99127526  -0.35295941      1728000     20.96003         1250          785 
  260000   0.99164179  -0.34421416      1728000    21.827091         1300          812 
  270000    1.0651779  -0.36734783      1728000    22.652826         1350          846 
  280000    1.0353001  -0.35526711      1728000    23.508375         1400          878 
  290000   0.96329136  -0.37904817      1728000    24.333743         1450          911 
  300000   0.99731902  -0.38024408      1728000    25.206925         1500          941 
  310000    1.0200489  -0.38924953      1728000    26.034154         1550          973 
  320000   0.99149609  -0.37070223      1728000    26.860416         1600         1003 
  330000    1.0945664  -0.36470398      1728000    27.682873         1650         1031 
  340000    1.0159684  -0.37167531      1728000     28.50621         1700         1061 
  350000   0.98752224  -0.35663056      1728000    29.321467         1750         1088 
  360000    1.0002309  -0.34913456      1728000    30.146678         1800         1116 
  370000    1.0989483  -0.35101843      1728000    30.972049         1850         1147 
  380000    0.9871204  -0.35513482      1728000    31.795287         1900         1186 
  390000   0.98328408  -0.36578442      1728000    32.627438         1950         1213 
  400000     0.986834  -0.38364534      1728000    33.478586         2000         1239 
  410000   0.99127222  -0.37839185      1728000    34.311782         2050         1272 
  420000    1.0318897  -0.39387361      1728000    35.129029         2100         1304 
  430000    0.9159772  -0.40343429      1728000    35.978254         2150         1331 
  440000   0.98048096  -0.40400167      1728000    36.815084         2200         1355 
  450000     1.032459  -0.38980816      1728000    37.676147         2250         1388 
  460000   0.98346672  -0.37120669      1728000    38.492644         2300         1423 
  470000    1.0596648  -0.39969961      1728000    39.324636         2350         1455 
  480000    1.0446189  -0.40078402      1728000    40.181955         2400         1482 
  490000   0.96182586  -0.40870622      1728000    41.027078         2450         1521 
  500000    1.0297502  -0.37869841      1728000    41.866035         2500         1554 
  510000   0.98830604   -0.3939616      1728000    42.685975         2550         1588 
  520000    1.0035831  -0.40958939      1728000    43.530046         2600         1619 
  530000    1.0053615  -0.41108491      1728000    44.402851         2650         1648 
  540000    1.0146229  -0.42544668      1728000    45.281149         2700         1683 
  550000    1.0174844  -0.40992838      1728000    46.127752         2750         1709 
  560000   0.99785128  -0.39024611      1728000    47.020903         2800         1737 
  570000    1.0879179   -0.3627429      1728000    47.856168         2850         1766 
  580000   0.96006914  -0.38049351      1728000    48.706235         2900         1801 
  590000     1.005494  -0.35292371      1728000    49.567353         2950         1833 
  600000    1.0670711  -0.35869248      1728000    50.426473         3000         1861 
  610000   0.98842294  -0.33700093      1728000    51.285587         3050         1895 
  620000    1.0517962   -0.3315935      1728000    52.143706         3100         1929 
  630000    1.0427956  -0.35952057      1728000    52.989935         3150         1960 
  640000   0.99450982  -0.34594209      1728000    53.839059         3200         1985 
  650000   0.98190034  -0.35296308      1728000    54.699186         3250         2020 
  660000   0.98371792  -0.35610766      1728000    55.593261         3300         2047 
  670000    1.0557315   -0.3861799      1728000    56.463395         3350         2082 
  680000      1.01756  -0.33879133      1728000    57.360454         3400         2120 
  690000   0.99491327   -0.3225097      1728000    58.199622         3450         2153 
  700000     1.045483  -0.32760468      1728000     59.11069         3500         2186 
  710000    1.0201338  -0.32947771      1728000    59.959821         3550         2220 
  720000    1.0027256  -0.35638919      1728000    60.814943         3600         2257 
  730000   0.97675882  -0.35226933      1728000     61.67906         3650         2286 
  740000    1.0820611  -0.35277582      1728000    62.506241         3700         2321 
  750000   0.99111435  -0.34618402      1728000    63.348838         3750         2350 
  760000   0.94610048  -0.36402395      1728000     64.16169         3800         2385 
  770000   0.98490353  -0.35937013      1728000    65.007846         3850         2416 
  780000    1.0340253   -0.3503848      1728000    65.830987         3900         2448 
  790000   0.99472608  -0.35823326      1728000    66.677451         3950         2474 
  800000    1.0265548  -0.34964955      1728000     67.53067         4000         2507 
  810000    1.0533232  -0.32590798      1728000    68.379805         4050         2538 
  820000   0.99049542  -0.34104948      1728000    69.270896         4100         2574 
  830000    1.0012683  -0.36698679      1728000     70.16498         4150         2608 
  840000   0.99348609  -0.35041917      1728000    71.009061         4200         2635 
  850000   0.99815763  -0.34050886      1728000     71.82664         4250         2667 
  860000   0.98418821  -0.35083215      1728000    72.641916         4300         2696 
  870000    1.0671396  -0.33582652      1728000    73.457074         4350         2723 
  880000     1.078392  -0.34488215      1728000     74.27889         4400         2757 
  890000   0.99798358  -0.35965067      1728000     75.10615         4450         2788 
  900000   0.91449471  -0.34207035      1728000    75.931411         4500         2819 
  910000    1.0639394  -0.34692803      1728000    76.748713         4550         2848 
  920000   0.92880996  -0.33856822      1728000    77.561651         4600         2877 
  930000   0.98825387  -0.34783042      1728000    78.383927         4650         2908 
  940000   0.98419863  -0.35753831      1728000    79.215294         4700         2939 
  950000    1.0972141  -0.35654095      1728000    80.040114         4750         2973 
  960000   0.98246217  -0.33108759      1728000    80.916269         4800         3005 
  970000   0.94480282  -0.33268477      1728000    81.747503         4850         3037 
  980000    1.0476147  -0.35103803      1728000    82.575821         4900         3065 
  990000    1.0608428  -0.33803945      1728000    83.385011         4950         3100 
 1000000    1.0363706   -0.3473455      1728000    84.214272         5000         3130 
 1010000   0.96800669  -0.35371965      1728000    85.060472         5050         3165 
 1020000    0.9949496  -0.34251554      1728000    85.890232         5100         3194 
 1030000   0.97995529  -0.37764551      1728000    86.710393         5150         3219 
 1040000    1.0036113  -0.36947943      1728000    87.535557         5200         3245 
 1050000    0.9589233  -0.35896307      1728000    88.383701         5250         3269 
 1060000     1.010739  -0.36199844      1728000    89.225598         5300         3300 
 1070000   0.97498414  -0.33146333      1728000    90.045127         5350         3330 
 1080000     1.010042   -0.3434203      1728000    90.852712         5400         3363 
 1090000   0.98402771  -0.34662665      1728000    91.674881         5450         3390 
 1100000    1.0509117  -0.33118785      1728000    92.498097         5500         3416 
 1110000    1.0056673  -0.33298182      1728000    93.308305         5550         3447 
 1120000   0.95653905  -0.33637038      1728000    94.114469         5600         3480 
 1130000    1.0768393  -0.32669569      1728000    94.990583         5650         3504 
 1140000    1.0226068  -0.34819808      1728000    95.814476         5700         3539 
 1150000    1.0259267  -0.35577965      1728000    96.631643         5750         3572 
 1160000    1.0196492  -0.36690117      1728000     97.44086         5800         3599 
 1170000   0.92735519  -0.35203433      1728000     98.23985         5850         3629 
 1180000    1.0299085  -0.38315382      1728000    99.074016         5900         3658 
 1190000    1.0812607  -0.37213346      1728000    99.890871         5950         3689 
 1200000   0.99830258  -0.37808003      1728000    100.72751         6000         3717 
 1210000    1.0444934  -0.38628396      1728000    101.54272         6050         3745 
 1220000    1.0158664   -0.3524107      1728000    102.38594         6100         3775 
 1230000    1.0335449  -0.34066537      1728000    103.19312         6150         3810 
 1240000    1.0513516  -0.34275733      1728000    104.00126         6200         3843 
 1250000    1.0148607  -0.33274901      1728000    104.83158         6250         3870 
 1260000    1.0400583  -0.32476945      1728000    105.65682         6300         3908 
 1270000    1.0747503    -0.323098      1728000    106.48929         6350         3930 
 1280000    1.0134691  -0.33273701      1728000    107.30945         6400         3963 
 1290000    1.0010635  -0.35496808      1728000    108.12597         6450         4001 
 1300000   0.98653779  -0.34429523      1728000    108.99015         6500         4034 
 1310000    1.0282435  -0.34042623      1728000    109.79653         6550         4069 
 1320000   0.98444643   -0.3310933      1728000    110.59983         6600         4098 
 1330000    1.0243519    -0.335361      1728000    111.41603         6650         4132 
 1340000    1.0562415  -0.34327528      1728000    112.27877         6700         4162 
 1350000      0.94952  -0.35590426      1728000    113.09996         6750         4195 
 1360000     1.017088  -0.35533347      1728000    113.93514         6800         4222 
 1370000    1.0299184  -0.34084601      1728000     114.7503         6850         4254 
 1380000   0.93776673  -0.35543557      1728000    115.55454         6900         4284 
 1390000   0.99200854  -0.32737285      1728000    116.39969         6950         4311 
 1400000   0.93340308  -0.32180297      1728000     117.2259         7000         4337 
 1410000    1.0496997  -0.31597591      1728000    118.04813         7050         4360 
 1420000    1.0523629  -0.33298278      1728000    118.86249         7100         4385 
 1430000   0.97572072   -0.3531039      1728000    119.71372         7150         4418 
 1440000    1.0680714  -0.33092199      1728000    120.61989         7200         4450 
 1450000    1.0167467  -0.37384756      1728000    121.44555         7250         4485 
 1460000    1.0304884  -0.37473276      1728000    122.26773         7300         4516 
 1470000     1.083572  -0.37982227      1728000    123.09008         7350         4544 
 1480000    1.0184408  -0.36431032      1728000    123.90733         7400         4575 
 1490000   0.96301438  -0.36924584      1728000    124.71672         7450         4603 
 1500000    1.0360075  -0.35680999      1728000    125.54245         7500         4634 
 1510000   0.97476181  -0.35837668      1728000    126.36659         7550         4667 
 1520000   0.97845972  -0.37315251      1728000     127.1818         7600         4701 
 1530000   0.99060803  -0.37223104      1728000    128.00447         7650         4725 
 1540000    1.0170952  -0.36482369      1728000    128.82075         7700         4752 
 1550000    1.0824638   -0.3683637      1728000    129.64804         7750         4781 
 1560000   0.95295627  -0.37087226      1728000    130.47826         7800         4817 
 1570000     1.060357  -0.36334298      1728000    131.33738         7850         4853 
 1580000    1.0570299  -0.35876916      1728000    132.16661         7900         4882 
 1590000   0.91943992  -0.37026234      1728000    132.97978         7950         4917 
 1600000     1.083823  -0.34571198      1728000     133.8096         8000         4942 
 1610000    1.0341538  -0.36221972      1728000    134.61447         8050         4978 
 1620000   0.93821031  -0.38985582      1728000    135.43932         8100         5006 
 1630000    1.0350366  -0.37847417      1728000     136.2576         8150         5036 
 1640000   0.99024649  -0.36535572      1728000    137.10046         8200         5074 
 1650000    1.0007058  -0.35855117      1728000    137.91968         8250         5106 
 1660000    1.0016757  -0.36490902      1728000    138.72756         8300         5134 
 1670000   0.95295252  -0.37788779      1728000    139.54139         8350         5171 
 1680000    1.0479061  -0.35629602      1728000    140.36753         8400         5208 
 1690000    1.0950741   -0.3625862      1728000    141.20428         8450         5243 
 1700000    1.0087348  -0.34887747      1728000    142.04153         8500         5271 
 1710000   0.97822308   -0.3597862      1728000    142.86469         8550         5298 
 1720000   0.96458757  -0.33318902      1728000    143.68292         8600         5329 
 1730000   0.94775255  -0.32836482      1728000    144.49815         8650         5360 
 1740000   0.97170663  -0.32853174      1728000    145.31241         8700         5389 
 1750000   0.97367166  -0.33626675      1728000    146.13242         8750         5420 
 1760000    1.0619014  -0.35123565      1728000    146.95171         8800         5451 
 1770000     1.019924  -0.36605182      1728000    147.76484         8850         5486 
 1780000    1.0419871  -0.33181419      1728000     148.5958         8900         5514 
 1790000    1.0523459  -0.32352391      1728000    149.42066         8950         5552 
 1800000   0.99161157  -0.32834795      1728000    150.25077         9000         5588 
 1810000   0.98004474  -0.32853122      1728000    151.12989         9050         5620 
 1820000    1.0290618  -0.34950342      1728000    151.98794         9100         5652 
 1830000   0.98960435  -0.32141375      1728000    152.80983         9150         5682 
 1840000   0.99787898  -0.30780209      1728000     153.6484         9200         5715 
 1850000    1.0336552  -0.31622718      1728000    154.48169         9250         5748 
 1860000   0.95549549  -0.30532355      1728000     155.2849         9300         5776 
 1870000    1.0295371  -0.30169691      1728000    156.11907         9350         5806 
 1880000   0.98848275  -0.29436068      1728000    156.93125         9400         5835 
 1890000    1.0435241  -0.32705612      1728000    157.75046         9450         5871 
 1900000   0.99525367  -0.31143506      1728000     158.5717         9500         5907 
 1910000   0.97630143  -0.31586498      1728000    159.40985         9550         5936 
 1920000    1.0304718  -0.33444383      1728000    160.22506         9600         5964 
 1930000    1.0009039  -0.32412488      1728000     161.0456         9650         5992 
 1940000    1.0415112  -0.31398078      1728000    161.87178         9700         6021 
 1950000   0.96662768  -0.33870654      1728000    162.68396         9750         6053 
 1960000    1.0174758   -0.3063764      1728000     163.4883         9800         6083 
 1970000    1.0192371  -0.32689108      1728000    164.30863         9850         6114 
 1980000    1.0506676  -0.32336253      1728000    165.13488         9900         6154 
 1990000   0.99493756  -0.31857683      1728000    165.94417         9950         6188 
 2000000    1.0468923  -0.31040449      1728000    166.78291        10000         6215 
 2010000    1.0322399  -0.33727444      1728000    167.59415        10050         6250 
 2020000    1.0337755  -0.35656963      1728000    168.42088        10100         6279 
 2030000    1.0433927  -0.35897801      1728000    169.26601        10150         6314 
 2040000    1.0867036  -0.36533388      1728000    170.12313        10200         6349 
 2050000    1.0305074   -0.3746217      1728000    170.95329        10250         6378 
 2060000     1.014313  -0.39422462      1728000    171.83339        10300         6406 
 2070000    1.0404319   -0.4032494      1728000    172.69653        10350         6434 
 2080000    1.0201321   -0.3871487      1728000    173.52954        10400         6466 
 2090000   0.97076476  -0.37983314      1728000    174.36468        10450         6496 
 2100000    1.0441053  -0.35292304      1728000    175.21284        10500         6527 
 2110000   0.99788245  -0.36471697      1728000    176.04104        10550         6555 
 2120000    1.0190035  -0.37264381      1728000    176.88325        10600         6582 
 2130000    1.0119522  -0.38140879      1728000    177.72338        10650         6613 
 2140000    1.0180265  -0.36090498      1728000    178.54857        10700         6639 
 2150000    1.0362734  -0.36746046      1728000    179.36778        10750         6666 
 2160000   0.91406632  -0.35935642      1728000    180.18894        10800         6697 
 2170000     1.051768  -0.35795867      1728000    181.00417        10850         6723 
 2180000    1.0361393  -0.37863079      1728000    181.87127        10900         6746 
 2190000   0.98475982  -0.35625608      1728000    182.71933        10950         6775 
 2200000    0.9598451  -0.36259604      1728000    183.53255        11000         6807 
 2210000    1.0308126  -0.34593609      1728000    184.37377        11050         6838 
 2220000     1.020216  -0.35017904      1728000    185.19646        11100         6869 
 2230000    1.0519782  -0.35809901      1728000    186.01267        11150         6903 
 2240000    1.0828637  -0.35528439      1728000    186.89431        11200         6931 
 2250000   0.97534618  -0.35054467      1728000    187.72853        11250         6965 
 2260000    1.0493148  -0.34086188      1728000    188.53581        11300         6998 
 2270000    1.0005544  -0.33193724      1728000    189.36794        11350         7032 
 2280000    1.0193852  -0.33579735      1728000    190.19197        11400         7068 
 2290000   0.98460376  -0.30668076      1728000     191.0082        11450         7098 
 2300000   0.99143235  -0.30993444      1728000    191.83541        11500         7136 
 2310000    1.0420607  -0.30504787      1728000    192.72051        11550         7173 
 2320000     1.069639  -0.29772333      1728000    193.54675        11600         7202 
 2330000   0.98758028  -0.31164636      1728000    194.36508        11650         7235 
 2340000    1.0123125  -0.31738195      1728000    195.17847        11700         7273 
 2350000    1.0009243  -0.29575552      1728000    195.99005        11750         7300 
 2360000   0.97194827  -0.29410847      1728000    196.80531        11800         7329 
 2370000    1.0216594  -0.27617111      1728000    197.61149        11850         7368 
 2380000    0.9755827  -0.29279235      1728000    198.47459        11900         7400 
 2390000    1.0261087  -0.29022602      1728000    199.29476        11950         7437 
 2400000    1.0802768  -0.28442455      1728000    200.12857        12000         7469 
 2410000    1.0206232  -0.28589708      1728000     200.9338        12050         7504 
 2420000   0.99809255  -0.30606359      1728000    201.74316        12100         7542 
 2430000   0.95357714  -0.31627749      1728000    202.54855        12150         7581 
 2440000     1.043392  -0.30689746      1728000    203.35091        12200         7617 
 2450000   0.93315749  -0.33709369      1728000    204.16426        12250         7650 
 2460000    1.0489231  -0.34376914      1728000     204.9803        12300         7679 
 2470000   0.99155128  -0.33906873      1728000    205.79662        12350         7716 
 2480000   0.99988582  -0.33873943      1728000    206.62137        12400         7750 
 2490000    1.0751533  -0.36203212      1728000     207.4352        12450         7772 
 2500000    1.0299235   -0.3408527      1728000    208.24844        12500         7809 
 2510000    1.0110417  -0.34721556      1728000    209.06257        12550         7841 
 2520000    1.0222606  -0.33014949      1728000    209.86549        12600         7868 
 2530000   0.97884731  -0.33255804      1728000    210.67068        12650         7899 
 2540000   0.99391688   -0.3464213      1728000    211.48672        12700         7933 
 2550000   0.97230275  -0.36578747      1728000    212.33467        12750         7965 
 2560000   0.92049828  -0.37385081      1728000     213.1526        12800         7994 
 2570000   0.98706849  -0.36120661      1728000    213.96658        12850         8028 
 2580000    1.0853651  -0.36260461      1728000    214.77062        12900         8058 
 2590000   0.95158388  -0.38161239      1728000    215.57973        12950         8084 
 2600000    1.0611986  -0.39270226      1728000    216.40974        13000         8109 
 2610000   0.96663847   -0.3700067      1728000    217.23454        13050         8146 
 2620000    0.9625762   -0.3743279      1728000    218.07836        13100         8175 
 2630000   0.95907544  -0.36319022      1728000     218.9277        13150         8206 
 2640000    1.0173155  -0.34152144      1728000    219.78181        13200         8238 
 2650000    1.0190947  -0.33889865      1728000    220.60664        13250         8270 
 2660000    1.0367933  -0.37051725      1728000    221.45363        13300         8303 
 2670000   0.92144924   -0.3610779      1728000    222.32472        13350         8332 
 2680000    1.0478226  -0.37465442      1728000    223.16986        13400         8363 
 2690000   0.97835342  -0.38339675      1728000    224.00808        13450         8389 
 2700000   0.97824985  -0.39181762      1728000    224.85158        13500         8423 
 2710000   0.97850594  -0.37283979      1728000    225.68273        13550         8456 
 2720000    1.0169662  -0.37278011      1728000    226.52287        13600         8489 
 2730000   0.98813227  -0.37866879      1728000    227.34414        13650         8523 
 2740000    0.9962138  -0.37856348      1728000    228.17244        13700         8562 
 2750000    1.0251761  -0.36850595      1728000    229.00367        13750         8597 
 2760000    1.0393472  -0.38305403      1728000    229.86867        13800         8629 
 2770000     1.031684  -0.38167546      1728000    230.70588        13850         8662 
 2780000    1.0155126  -0.36459368      1728000    231.56503        13900         8693 
 2790000    0.9662313  -0.35790933      1728000    232.39369        13950         8726 
 2800000    1.0007893  -0.40976162      1728000    233.22551        14000         8757 
 2810000    1.0534932  -0.34490278      1728000    234.06968        14050         8794 
 2820000     1.035881  -0.32840157      1728000    234.91649        14100         8825 
 2830000     1.038069  -0.37206166      1728000    235.75563        14150         8853 
 2840000   0.96266353  -0.36351821      1728000     236.5818        14200         8879 
 2850000    1.0338456  -0.37117276      1728000    237.41098        14250         8910 
 2860000    1.0138596  -0.38556232      1728000    238.25509        14300         8933 
 2870000   0.98598674  -0.39923891      1728000    239.10523        14350         8959 
 2880000    0.9764043  -0.40363132      1728000    240.00138        14400         8996 
 2890000   0.98470054   -0.4045778      1728000    240.83558        14450         9026 
 2900000    0.9895191   -0.3887044      1728000    241.69069        14500         9056 
 2910000   0.93576228  -0.39302015      1728000    242.55581        14550         9087 
 2920000    1.0564399  -0.43203636      1728000    243.40498        14600         9110 
 2930000    1.0033516  -0.39382642      1728000    244.24512        14650         9140 
 2940000    0.9359091  -0.38594624      1728000    245.08127        14700         9176 
 2950000    1.0170469  -0.38289691      1728000    245.90663        14750         9213 
 2960000    1.0718524  -0.36921537      1728000    246.73692        14800         9242 
 2970000    1.0108331  -0.38460501      1728000    247.56705        14850         9271 
 2980000   0.98725993  -0.36909995      1728000    248.40329        14900         9297 
 2990000   0.96914166  -0.36934999      1728000    249.25743        14950         9327 
 3000000   0.95799934  -0.36160392      1728000    250.09814        15000         9358 
 3010000    1.0417192  -0.36547948      1728000    250.95826        15050         9385 
 3020000    1.0375546  -0.36375218      1728000    251.79746        15100         9416 
 3030000    1.0229178  -0.35390182      1728000    252.62064        15150         9451 
 3040000   0.99031558  -0.35266896      1728000    253.43438        15200         9484 
 3050000    1.0346202  -0.35435135      1728000    254.25161        15250         9520 
 3060000    1.0261035  -0.34637382      1728000    255.06892        15300         9556 
 3070000    1.0312176   -0.3460361      1728000    255.90023        15350         9589 
 3080000    1.0620703  -0.34942058      1728000    256.71642        15400         9624 
 3090000    1.0040768    -0.355031      1728000    257.53815        15450         9650 
 3100000    1.0403455  -0.34281534      1728000    258.41734        15500         9674 
 3110000   0.96868714  -0.33406205      1728000    259.24368        15550         9704 
 3120000   0.97144904   -0.3459026      1728000    260.06076        15600         9732 
 3130000   0.98970419  -0.35294912      1728000    260.87502        15650         9762 
 3140000    1.0239175  -0.36292331      1728000    261.68779        15700         9793 
 3150000   0.97078101    -0.381017      1728000    262.51219        15750         9831 
 3160000    0.9959302  -0.35852321      1728000    263.34137        15800         9858 
 3170000    1.0648944   -0.3810027      1728000    264.15564        15850         9879 
 3180000    1.0494527  -0.36410042      1728000     264.9838        15900         9910 
 3190000     1.061545  -0.36571845      1728000    265.85791        15950         9936 
 3200000   0.99145227  -0.36146388      1728000    266.73802        16000         9966 
 3210000    1.0451576   -0.3450573      1728000    267.62711        16050         9995 
 3220000   0.96793707  -0.32442574      1728000    268.44026        16100        10027 
 3230000    1.0299208  -0.33000513      1728000    269.26056        16150        10060 
 3240000   0.93391018  -0.32179058      1728000    270.06575        16200        10097 
 3250000   0.98414826  -0.30783089      1728000    270.93067        16250        10130 
 3260000    0.9855128  -0.31042712      1728000    271.76489        16300        10162 
 3270000    1.0215079  -0.30608033      1728000    272.64599        16350        10191 
 3280000   0.99616305  -0.30280415      1728000    273.51611        16400        10220 
 3290000    1.0005321   -0.2904467      1728000    274.37824        16450        10249 
 3300000   0.98897211   -0.2878604      1728000    275.19446        16500        10281 
 3310000   0.96840029  -0.27697222      1728000    276.01166        16550        10315 
 3320000   0.98953529  -0.26692862      1728000    276.83587        16600        10351 
 3330000    1.0083425  -0.27728244      1728000     277.6631        16650        10386 
 3340000   0.94518642   -0.2857002      1728000    278.47525        16700        10421 
 3350000    1.0306236  -0.30316836      1728000    279.28146        16750        10455 
 3360000    1.0237312  -0.29060307      1728000    280.07964        16800        10492 
 3370000   0.99811131  -0.31149033      1728000    280.89794        16850        10522 
 3380000   0.99273428  -0.30155845      1728000    281.71004        16900        10559 
 3390000   0.96385346  -0.31280401      1728000    282.50841        16950        10588 
 3400000    1.0176614  -0.29585583      1728000    283.32061        17000        10618 
 3410000    1.0502536  -0.29612174      1728000    284.12497        17050        10653 
 3420000    1.0351358  -0.30147849      1728000    284.92169        17100        10692 
 3430000    1.0085496  -0.30039303      1728000    285.72487        17150        10724 
 3440000   0.97212751  -0.30290633      1728000    286.52701        17200        10759 
 3450000    1.0261199  -0.28797376      1728000    287.33639        17250        10789 
 3460000    1.0109909  -0.29777394      1728000    288.13958        17300        10822 
 3470000   0.89554358  -0.29848675      1728000    288.95586        17350        10856 
 3480000    1.0256879  -0.29030972      1728000    289.76303        17400        10888 
 3490000    1.0217719  -0.30454364      1728000    290.56631        17450        10921 
 3500000   0.99790827  -0.29706245      1728000    291.38361        17500        10954 
 3510000    1.0489467  -0.31327447      1728000    292.18438        17550        10987 
 3520000   0.94252171  -0.34366049      1728000    292.98762        17600        11017 
 3530000    0.9801912  -0.32457341      1728000    293.78937        17650        11049 
 3540000    1.0223128  -0.32783606      1728000    294.59855        17700        11085 
 3550000   0.98204417  -0.33826484      1728000    295.41176        17750        11117 
 3560000    1.0010481  -0.32638119      1728000    296.22125        17800        11146 
 3570000    0.9388084  -0.35330498      1728000    297.04852        17850        11176 
 3580000    0.9848032  -0.33902387      1728000    297.87067        17900        11205 
 3590000   0.95782425   -0.3389649      1728000    298.68984        17950        11233 
 3600000   0.99765071  -0.34638414      1728000    299.52604        18000        11268 
 3610000    1.0061861  -0.37542049      1728000    300.38015        18050        11301 
 3620000   0.98758543  -0.36846733      1728000    301.22252        18100        11332 
 3630000     1.067135  -0.36087313      1728000    302.03676        18150        11363 
 3640000     1.059585  -0.36786441      1728000    302.85893        18200        11389 
 3650000    1.0008181  -0.37215095      1728000    303.67967        18250        11418 
 3660000    1.0457528  -0.37092604      1728000    304.52885        18300        11452 
 3670000   0.98904045  -0.36953784      1728000    305.34311        18350        11484 
 3680000   0.96840754  -0.37853796      1728000    306.17679        18400        11513 
 3690000     1.019568   -0.3780745      1728000    307.00001        18450        11549 
 3700000   0.96991389  -0.37181776      1728000    307.83619        18500        11583 
 3710000   0.99598285  -0.36102802      1728000    308.67102        18550        11615 
 3720000   0.96964276  -0.37844201      1728000     309.5002        18600        11646 
 3730000    1.0473879  -0.40838017      1728000    310.33536        18650        11674 
 3740000    1.0039872  -0.41027682      1728000    311.16949        18700        11696 
 3750000    1.0214658  -0.38064795      1728000    312.04459        18750        11727 
 3760000   0.97390164  -0.36579716      1728000    312.87875        18800        11761 
 3770000   0.98242136  -0.39274078      1728000    313.74288        18850        11791 
 3780000    1.0007721  -0.39786563      1728000    314.57243        18900        11826 
 3790000    1.0508723  -0.37857771      1728000    315.39871        18950        11855 
 3800000    1.0141266  -0.38980844      1728000    316.23589        19000        11892 
 3810000    1.0628047  -0.37146943      1728000    317.06505        19050        11925 
 3820000    1.0108566  -0.36411328      1728000    317.93615        19100        11953 
 3830000    1.0578078  -0.36082604      1728000    318.79527        19150        11982 
 3840000    1.0006489  -0.38762376      1728000     319.6266        19200        12013 
 3850000   0.91464848   -0.3604942      1728000    320.51168        19250        12043 
 3860000    1.0383786  -0.35247521      1728000    321.35686        19300        12075 
 3870000     1.007787  -0.34153333      1728000    322.21024        19350        12107 
 3880000    1.0393325  -0.32544857      1728000    323.05538        19400        12137 
 3890000    1.0468729  -0.33210646      1728000    323.90253        19450        12164 
 3900000   0.97921614  -0.33815385      1728000    324.73577        19500        12194 
 3910000    1.0108398  -0.34582424      1728000     325.5729        19550        12223 
 3920000    1.0529261  -0.36302309      1728000    326.43502        19600        12252 
 3930000     1.047996  -0.35990177      1728000    327.28115        19650        12279 
 3940000    1.0244948  -0.37288287      1728000    328.12429        19700        12308 
 3950000    1.0681213  -0.35284602      1728000    328.95744        19750        12336 
 3960000    1.0480425  -0.34252807      1728000    329.85052        19800        12366 
 3970000    0.9254376  -0.37207939      1728000    330.70265        19850        12397 
 3980000   0.99121449  -0.34959062      1728000    331.52687        19900        12430 
 3990000    1.0668947  -0.36977787      1728000    332.34662        19950        12455 
 4000000   0.97710425  -0.36225524      1728000    333.17488        20000        12484 
 4010000    1.0798695  -0.37097973      1728000    333.99307        20050        12518 
 4020000    1.0288543  -0.35766189      1728000    334.81221        20100        12552 
 4030000    1.0321106  -0.33577131      1728000    335.63419        20150        12577 
 4040000    1.0581997  -0.33694458      1728000    336.45438        20200        12613 
 4050000   0.99228874  -0.34803973      1728000    337.28155        20250        12646 
 4060000   0.97144031  -0.34840425      1728000    338.20361        20300        12677 
 4070000   0.99047523  -0.31695984      1728000    339.03082        20350        12704 
 4080000   0.94955887  -0.32470016      1728000    339.83716        20400        12735 
 4090000   0.97625938   -0.3372293      1728000    340.66939        20450        12768 
 4100000    1.0225276  -0.34251434      1728000    341.52374        20500        12799 
 4110000    1.0259396  -0.34394212      1728000    342.36892        20550        12832 
 4120000    1.0112436  -0.33724193      1728000    343.20907        20600        12860 
 4130000   0.96217608  -0.32397766      1728000    344.01548        20650        12893 
 4140000    1.0111821  -0.34787063      1728000    344.82365        20700        12929 
 4150000    1.0311735  -0.36841701      1728000    345.66607        20750        12958 
 4160000   0.97566466  -0.34767398      1728000    346.56418        20800        12985 
 4170000    1.0013979  -0.34601163      1728000    347.46328        20850        13017 
 4180000    1.0005487  -0.34850121      1728000    348.30547        20900        13049 
 4190000    1.0108889  -0.35040023      1728000    349.15061        20950        13077 
 4200000    1.0455179  -0.35223656      1728000    349.98281        21000        13104 
 4210000    1.0014958  -0.36808602      1728000    350.79298        21050        13132 
 4220000    1.0836647   -0.3564809      1728000    351.61323        21100        13161 
 4230000   0.98733818  -0.34345734      1728000    352.43454        21150        13191 
 4240000    1.0499651  -0.35087568      1728000    353.24865        21200        13217 
 4250000   0.97049191  -0.34804608      1728000    354.07354        21250        13250 
 4260000    1.0099605  -0.36355172      1728000    354.88037        21300        13280 
 4270000    1.0256485  -0.38316683      1728000    355.69953        21350        13309 
 4280000    1.0156072  -0.37417341      1728000    356.54154        21400        13340 
 4290000    1.0202321  -0.37602872      1728000    357.39223        21450        13361 
 4300000   0.93468363  -0.37661525      1728000    358.24288        21500        13390 
 4310000   0.99308773  -0.36778381      1728000    359.07803        21550        13416 
 4320000    1.1005311  -0.35997449      1728000    359.91525        21600        13446 
 4330000   0.97306678  -0.36408497      1728000    360.74744        21650        13474 
 4340000    1.0223211   -0.3663556      1728000    361.63453        21700        13500 
 4350000   0.93773312  -0.38132743      1728000    362.46076        21750        13530 
 4360000    1.0241996  -0.37754653      1728000    363.29119        21800        13561 
 4370000    0.9898305  -0.38241768      1728000    364.11767        21850        13595 
 4380000   0.95935652  -0.37893848      1728000    364.96522        21900        13615 
 4390000   0.98251747  -0.38118711      1728000    365.83757        21950        13643 
 4400000    1.0442757  -0.38306286      1728000    366.73569        22000        13662 
 4410000    0.9541368  -0.37738208      1728000    367.56112        22050        13690 
 4420000   0.97447133  -0.37825962      1728000    368.40435        22100        13714 
 4430000    1.0412499  -0.37211738      1728000     369.2196        22150        13741 
 4440000        1.024  -0.36457484      1728000    370.04413        22200        13768 
 4450000    1.0284858   -0.3837295      1728000    370.87529        22250        13789 
 4460000    1.0338728   -0.3671239      1728000    371.71849        22300        13821 
 4470000   0.96721189  -0.35310523      1728000    372.56562        22350        13847 
 4480000    1.0227305  -0.36356037      1728000    373.39277        22400        13881 
 4490000   0.99576925  -0.33935699      1728000    374.22992        22450        13913 
 4500000    1.0460961  -0.33359354      1728000    375.10309        22500        13941 
 4510000   0.96708069  -0.35108598      1728000    375.93823        22550        13976 
 4520000    1.0421424  -0.34584565      1728000    376.76241        22600        14009 
 4530000   0.98205834  -0.34381554      1728000    377.59606        22650        14038 
 4540000   0.97594126  -0.34022435      1728000     378.4252        22700        14072 
 4550000    1.0532858  -0.35311495      1728000    379.24742        22750        14103 
 4560000    1.0437126  -0.33543408      1728000    380.08359        22800        14130 
 4570000   0.90930888  -0.36995946      1728000    380.91077        22850        14162 
 4580000    1.0113613    -0.343818      1728000    381.73706        22900        14193 
 4590000   0.99149191  -0.35085139      1728000    382.62616        22950        14219 
 4600000    1.0360315  -0.33780251      1728000    383.46131        23000        14245 
 4610000    1.0353705  -0.36186744      1728000    384.30046        23050        14275 
 4620000   0.97646729  -0.34376435      1728000    385.14359        23100        14306 
 4630000   0.89217238  -0.33429627      1728000    385.95975        23150        14333 
 4640000   0.98177706  -0.35387099      1728000    386.79204        23200        14363 
 4650000   0.97405021  -0.35381185      1728000     387.6171        23250        14394 
 4660000    1.0113443  -0.38346527      1728000    388.45393        23300        14424 
 4670000   0.99709781  -0.34763479      1728000    389.30506        23350        14453 
 4680000    1.0973485  -0.36398502      1728000    390.13921        23400        14488 
 4690000   0.88228042  -0.37037447      1728000    390.95573        23450        14520 
 4700000    1.0209051  -0.34736748      1728000    391.79303        23500        14549 
 4710000    1.0142322  -0.35451319      1728000    392.61018        23550        14573 
 4720000    1.0334059  -0.35005625      1728000    393.43741        23600        14602 
 4730000   0.98885343  -0.32364885      1728000    394.24715        23650        14639 
 4740000    1.0084393  -0.35204508      1728000    395.08031        23700        14676 
 4750000   0.97794885  -0.37428713      1728000    395.94942        23750        14703 
 4760000   0.96182244  -0.36979452      1728000    396.78016        23800        14730 
 4770000   0.97462224  -0.39596354      1728000    397.62008        23850        14761 
 4780000    1.0525537  -0.35462407      1728000    398.44822        23900        14793 
 4790000    1.0455457  -0.36129255      1728000    399.27342        23950        14827 
 4800000   0.99955262  -0.34088859      1728000    400.12856        24000        14857 
 4810000   0.98585312  -0.35617135      1728000    400.97968        24050        14889 
 4820000   0.94983565  -0.33633192      1728000    401.79114        24100        14924 
 4830000    1.0062987  -0.34459185      1728000    402.60263        24150        14952 
 4840000   0.98116296  -0.34227398      1728000     403.4268        24200        14981 
 4850000    1.0041789  -0.33271098      1728000    404.27892        24250        15017 
 4860000   0.96463879  -0.33405279      1728000    405.14902        24300        15044 
 4870000     1.043046  -0.33710965      1728000    406.02224        24350        15077 
 4880000    1.0250671   -0.3518744      1728000    406.87446        24400        15108 
 4890000    1.0087552   -0.3491306      1728000    407.68515        24450        15143 
 4900000   0.92808053   -0.3665647      1728000    408.49991        24500        15176 
 4910000   0.95665958  -0.32715491      1728000    409.30634        24550        15206 
 4920000    1.0066057  -0.33730386      1728000    410.14414        24600        15238 
 4930000   0.92125988  -0.32115883      1728000    410.96838        24650        15265 
 4940000    1.0048363  -0.34312913      1728000    411.78932        24700        15298 
 4950000   0.96372594  -0.32061959      1728000     412.6001        24750        15329 
 4960000   0.97196113  -0.33242176      1728000    413.44424        24800        15357 
 4970000     1.050585  -0.35417818      1728000    414.25431        24850        15383 
 4980000    1.0496269  -0.37437885      1728000    415.06623        24900        15420 
 4990000    0.9994234  -0.33131393      1728000    415.87924        24950        15447 
 5000000    1.0325434  -0.36136961      1728000    416.74544        25000        15476 
 5010000   0.94235071  -0.35775735      1728000     417.5652        25050        15512 
 5020000   0.94095171  -0.34625976      1728000    418.37039        25100        15546 
 5030000    0.9710271  -0.36054679      1728000    419.17441        25150        15575 
 5040000   0.96997741  -0.34282585      1728000    419.99233        25200        15611 
 5050000    1.0248487  -0.34496498      1728000    420.79326        25250        15647 
 5060000    1.0299815     -0.35287      1728000    421.60281        25300        15679 
 5070000    1.0267154  -0.36101504      1728000    422.41427        25350        15709 
 5080000   0.96144939  -0.37947902      1728000    423.22556        25400        15741 
 5090000   0.94494512  -0.36072436      1728000      424.063        25450        15771 
 5100000   0.99428602  -0.35863938      1728000    424.87535        25500        15797 
 5110000     1.095566  -0.35595133      1728000    425.69253        25550        15832 
 5120000    1.0513125  -0.35808319      1728000    426.50716        25600        15860 
 5130000    1.0182041  -0.37667444      1728000    427.32664        25650        15887 
 5140000   0.94471419  -0.37939412      1728000    428.14003        25700        15914 
 5150000   0.96710039  -0.36692971      1728000    428.95142        25750        15946 
 5160000    1.0288542  -0.35787649      1728000    429.76513        25800        15974 
 5170000   0.98794394  -0.38060346      1728000    430.56722        25850        16000 
 5180000    1.0010094  -0.36536229      1728000    431.42038        25900        16030 
 5190000    1.0077302  -0.36506604      1728000    432.28647        25950        16054 
 5200000   0.99426776  -0.32384842      1728000    433.14224        26000        16090 
 5210000   0.95753946  -0.32532682      1728000    433.94858        26050        16125 
 5220000   0.98989999  -0.33902943      1728000    434.76611        26100        16152 
 5230000    1.0907005  -0.34462436      1728000    435.58188        26150        16188 
 5240000   0.99262949  -0.32882202      1728000    436.39906        26200        16226 
 5250000    1.0345994  -0.35842278      1728000    437.23807        26250        16252 
 5260000   0.98179195  -0.36167873      1728000    438.05379        26300        16282 
 5270000    1.0775647    -0.337594      1728000    438.85928        26350        16316 
 5280000   0.90538398  -0.33487845      1728000    439.66935        26400        16341 
 5290000    1.0068059  -0.35310561      1728000    440.49565        26450        16370 
 5300000    1.0325267  -0.35117317      1728000    441.33082        26500        16397 
 5310000   0.98631702  -0.33653759      1728000    442.17043        26550        16428 
 5320000    1.0465886   -0.3439251      1728000    442.98773        26600        16460 
 5330000    1.0278781  -0.32997114      1728000     443.7911        26650        16492 
 5340000    1.0419619  -0.34917756      1728000    444.59134        26700        16526 
 5350000    1.0291605  -0.34086938      1728000    445.39914        26750        16558 
 5360000    1.0838403  -0.36617132      1728000    446.22094        26800        16584 
 5370000   0.94959277  -0.35318562      1728000    447.02942        26850        16615 
 5380000    1.0187798  -0.34522019      1728000    447.84053        26900        16646 
 5390000   0.94797053  -0.32771579      1728000    448.65083        26950        16680 
 5400000   0.99845838  -0.34689536      1728000    449.46815        27000        16710 
 5410000    1.0591626  -0.33300981      1728000    450.27622        27050        16736 
 5420000    1.0361183  -0.34533926      1728000    451.08541        27100        16770 
 5430000    0.9446494  -0.36623913      1728000    451.92211        27150        16804 
 5440000     1.007108  -0.36417125      1728000    452.74058        27200        16835 
 5450000    1.0304036  -0.37135508      1728000    453.54918        27250        16866 
 5460000    1.0683349   -0.3561254      1728000    454.36542        27300        16894 
 5470000   0.97819132  -0.35175044      1728000    455.17711        27350        16923 
 5480000   0.95313303  -0.37345784      1728000    455.98661        27400        16955 
 5490000    0.9902588  -0.36791577      1728000    456.79914        27450        16980 
 5500000    1.0466585  -0.35447299      1728000    457.66243        27500        17015 
 5510000   0.98300058  -0.39498319      1728000    458.47612        27550        17046 
 5520000    1.0325745  -0.36804642      1728000    459.29272        27600        17079 
 5530000   0.97537991  -0.34980465      1728000    460.10288        27650        17110 
 5540000      1.07204  -0.35391249      1728000    460.90515        27700        17140 
 5550000   0.95516375  -0.36767149      1728000     461.7413        27750        17168 
 5560000    1.0369176  -0.37365346      1728000    462.56347        27800        17196 
 5570000   0.99757349  -0.35248446      1728000    463.36596        27850        17231 
 5580000    1.0537897  -0.35727088      1728000    464.16832        27900        17262 
 5590000   0.95882088  -0.33660639      1728000    464.97356        27950        17288 
 5600000   0.93395725  -0.35779858      1728000    465.79186        28000        17322 
 5610000    1.0014471  -0.35367634      1728000     466.6011        28050        17354 
 5620000    1.0514218  -0.33028512      1728000    467.43339        28100        17383 
 5630000    1.0625532  -0.35998642      1728000    468.31149        28150        17414 
 5640000   0.95217634  -0.33627472      1728000    469.18959        28200        17443 
 5650000    1.0444452  -0.32419203      1728000    470.01775        28250        17476 
 5660000    1.0063514  -0.33618673      1728000    470.84233        28300        17500 
 5670000    1.0300651  -0.35711346      1728000    471.67747        28350        17534 
 5680000    1.0559737  -0.34752287      1728000     472.5046        28400        17566 
 5690000    1.0236873  -0.34748032      1728000     473.3122        28450        17599 
 5700000     1.058249  -0.35720577      1728000    474.15141        28500        17631 
 5710000   0.99846693  -0.33702768      1728000    474.96822        28550        17656 
 5720000   0.96562307  -0.33206643      1728000    475.81445        28600        17685 
 5730000    1.0091218  -0.34254904      1728000    476.62377        28650        17710 
 5740000    1.0347714  -0.33125447      1728000    477.43408        28700        17739 
 5750000    1.0080443  -0.34054707      1728000    478.28312        28750        17769 
 5760000    1.0249984  -0.35119136      1728000    479.10967        28800        17801 
 5770000   0.97284104  -0.32651327      1728000    479.93883        28850        17832 
 5780000   0.94310377  -0.33074816      1728000    480.76691        28900        17861 
 5790000     1.014615  -0.33367131      1728000    481.59108        28950        17888 
 5800000    1.0303667  -0.33454456      1728000    482.41223        29000        17920 
 5810000   0.96372418  -0.32575701      1728000    483.30711        29050        17957 
 5820000   0.99206939  -0.33165602      1728000    484.11474        29100        17990 
 5830000    1.0789101  -0.32690201      1728000     484.9242        29150        18018 
 5840000    1.1372907  -0.33220982      1728000    485.73464        29200        18047 
 5850000    1.0469379  -0.31931346      1728000    486.54282        29250        18079 
 5860000   0.94079443  -0.33826336      1728000    487.35798        29300        18111 
 5870000    1.0002703   -0.3257799      1728000    488.17614        29350        18144 
 5880000   0.98668534  -0.32392259      1728000    488.99159        29400        18177 
 5890000    1.0210802  -0.32964101      1728000    489.81474        29450        18208 
 5900000   0.97900305  -0.30482438      1728000    490.63994        29500        18242 
 5910000    1.0088726  -0.32335148      1728000    491.50706        29550        18272 
 5920000   0.98842598  -0.32638512      1728000     492.3373        29600        18304 
 5930000    1.0143205  -0.32014054      1728000    493.15746        29650        18338 
 5940000   0.98268955  -0.32579709      1728000    493.98003        29700        18368 
 5950000    1.0419693  -0.31651227      1728000    494.79061        29750        18399 
 5960000   0.99481992  -0.31845544      1728000     495.6161        29800        18435 
 5970000    1.0419437  -0.32465805      1728000    496.41957        29850        18469 
 5980000    1.0019291  -0.33595422      1728000    497.26172        29900        18496 
 5990000     1.030355   -0.3378075      1728000    498.13188        29950        18526 
 6000000    1.0166882    -0.355615      1728000    498.97517        30000        18552 
 6010000   0.99378459  -0.38380607      1728000    499.78834        30050        18583 
 6020000    1.0051757  -0.36775028      1728000    500.62315        30100        18610 
 6030000    1.1072319  -0.38436128      1728000    501.44955        30150        18647 
 6040000   0.99389529  -0.37874466      1728000    502.32345        30200        18680 
 6050000    1.0360332   -0.3687814      1728000    503.15006        30250        18706 
 6060000    1.0591329  -0.38028033      1728000    503.97507        30300        18737 
 6070000   0.98568003  -0.35430187      1728000    504.83321        30350        18767 
 6080000    1.0290617   -0.3486241      1728000    505.67847        30400        18801 
 6090000   0.96346418  -0.33582483      1728000    506.51795        30450        18837 
 6100000   0.97600562  -0.31561001      1728000    507.35129        30500        18871 
 6110000    1.0010488  -0.33054778      1728000    508.16647        30550        18901 
 6120000    1.1210791  -0.33697133      1728000    509.02558        30600        18932 
 6130000    1.0412155   -0.3364297      1728000    509.84813        30650        18961 
 6140000   0.97103068  -0.33290074      1728000    510.70441        30700        18993 
 6150000    1.0228052  -0.32401743      1728000    511.55952        30750        19028 
 6160000   0.95223309  -0.34088363      1728000    512.38493        30800        19061 
 6170000    1.0327765  -0.33263543      1728000    513.20015        30850        19089 
 6180000    1.0135165  -0.34083842      1728000     514.0129        30900        19124 
 6190000    1.0187273  -0.35912545      1728000    514.85105        30950        19159 
 6200000     1.058322  -0.33888571      1728000    515.71648        31000        19195 
 6210000   0.96457724  -0.34878264      1728000    516.60465        31050        19225 
 6220000    1.0191795   -0.3743327      1728000     517.4528        31100        19257 
 6230000   0.97299128  -0.36122128      1728000    518.27504        31150        19281 
 6240000     1.063384  -0.37727009      1728000    519.08922        31200        19310 
 6250000   0.96995656     -0.37257      1728000    519.92335        31250        19349 
 6260000    1.0002164  -0.38842296      1728000    520.74715        31300        19381 
 6270000    1.0247284  -0.37546318      1728000    521.59526        31350        19416 
 6280000    1.0006035  -0.37506374      1728000    522.46138        31400        19442 
 6290000    1.0229907  -0.37900483      1728000    523.31051        31450        19465 
 6300000   0.92870004  -0.37534982      1728000    524.21558        31500        19496 
 6310000    1.0000885  -0.36946155      1728000    525.06371        31550        19523 
 6320000   0.97989257   -0.3557057      1728000    525.91598        31600        19549 
 6330000    1.0114451  -0.36098465      1728000    526.81106        31650        19576 
 6340000   0.97904261  -0.37256996      1728000    527.71614        31700        19611 
 6350000    1.0261877  -0.35136473      1728000    528.58724        31750        19646 
 6360000    1.0313615  -0.34141341      1728000    529.41945        31800        19681 
 6370000   0.99635444  -0.35083739      1728000    530.27166        31850        19715 
 6380000    1.0019749  -0.37279439      1728000    531.10383        31900        19747 
 6390000     1.034306  -0.39198246      1728000    531.93416        31950        19777 
 6400000    1.0137377  -0.39850935      1728000    532.80729        32000        19807 
 6410000    1.0216756  -0.38294621      1728000    533.66287        32050        19834 
 6420000    1.0023124  -0.38471575      1728000    534.49701        32100        19865 
 6430000   0.98299844  -0.40231349      1728000    535.31839        32150        19894 
 6440000    1.0245327  -0.38557434      1728000    536.14002        32200        19931 
 6450000    1.0049985  -0.38308789      1728000     536.9672        32250        19959 
 6460000   0.95464915  -0.36858185      1728000    537.79634        32300        19996 
 6470000    1.0125088  -0.38003459      1728000    538.62065        32350        20022 
 6480000    1.0063184  -0.37771137      1728000     539.4959        32400        20048 
 6490000   0.95312233  -0.38718271      1728000    540.32805        32450        20078 
 6500000   0.96034263  -0.36411955      1728000    541.17278        32500        20106 
 6510000   0.98878927  -0.34514933      1728000    542.01917        32550        20133 
 6520000   0.99411907  -0.36564318      1728000    542.88109        32600        20163 
 6530000   0.99536633  -0.36173003      1728000     543.7191        32650        20194 
 6540000    1.0073468  -0.34083872      1728000    544.57033        32700        20223 
 6550000    1.0304243  -0.33631665      1728000    545.41294        32750        20248 
 6560000     1.071961  -0.33543467      1728000    546.29204        32800        20277 
 6570000    1.0266315  -0.35163729      1728000    547.11816        32850        20307 
 6580000     0.992257  -0.33544445      1728000    547.93833        32900        20339 
 6590000   0.98386668  -0.38402792      1728000    548.75215        32950        20373 
 6600000    1.0148881  -0.36966179      1728000     549.6053        33000        20401 
 6610000    1.1083009  -0.38519657      1728000    550.43637        33050        20439 
 6620000    0.9504853  -0.35884532      1728000    551.31747        33100        20470 
 6630000     0.995437  -0.34717377      1728000    552.13707        33150        20504 
 6640000    1.0212039  -0.37076386      1728000    552.95168        33200        20530 
 6650000    1.0228943  -0.37458282      1728000    553.78531        33250        20562 
 6660000   0.95769476  -0.38705655      1728000    554.62844        33300        20593 
 6670000   0.99962062  -0.39201741      1728000    555.46409        33350        20619 
 6680000   0.97254404  -0.36641787      1728000    556.29524        33400        20651 
 6690000   0.98840202  -0.36514151      1728000    557.12879        33450        20681 
 6700000   0.97645063  -0.37109764      1728000    557.96302        33500        20715 
 6710000    1.0092457  -0.36437565      1728000    558.77384        33550        20747 
 6720000   0.99021706    -0.368757      1728000    559.59501        33600        20784 
 6730000    1.0130753  -0.35219802      1728000    560.43215        33650        20814 
 6740000    1.0335386  -0.36228282      1728000    561.24521        33700        20843 
 6750000   0.99526347  -0.38007349      1728000    562.08134        33750        20875 
 6760000   0.98732606  -0.36109799      1728000    562.92357        33800        20911 
 6770000   0.97722533  -0.35966491      1728000    563.76783        33850        20941 
 6780000    1.0062671  -0.33960183      1728000     564.6159        33900        20969 
 6790000   0.97269965  -0.34930824      1728000    565.43861        33950        21000 
 6800000   0.96577354  -0.34588239      1728000    566.27975        34000        21029 
 6810000   0.90764252  -0.32990551      1728000    567.11889        34050        21058 
 6820000    1.0132102  -0.33546111      1728000    567.95303        34100        21092 
 6830000   0.98305827  -0.34859169      1728000    568.81215        34150        21124 
 6840000   0.98377959  -0.35135227      1728000    569.64631        34200        21157 
 6850000   0.96888379  -0.35352343      1728000    570.47383        34250        21187 
 6860000    1.0673632  -0.34463119      1728000    571.37392        34300        21219 
 6870000   0.99140305  -0.34678204      1728000    572.21805        34350        21246 
 6880000    1.0439765  -0.33487507      1728000    573.04425        34400        21278 
 6890000    1.0218018  -0.33746264      1728000    573.85273        34450        21305 
 6900000    1.0202149  -0.33628747      1728000     574.6719        34500        21338 
 6910000   0.91934577  -0.33124933      1728000     575.4981        34550        21372 
 6920000    1.0344882  -0.34213127      1728000    576.31437        34600        21401 
 6930000    1.0064664  -0.33252483      1728000     577.1311        34650        21438 
 6940000    1.0310374  -0.33888133      1728000    577.94178        34700        21474 
 6950000   0.98326154  -0.34158081      1728000    578.77322        34750        21508 
 6960000   0.98569169  -0.36185481      1728000    579.58514        34800        21542 
 6970000    1.0266885   -0.3547961      1728000     580.4252        34850        21570 
 6980000   0.99649386  -0.36084017      1728000    581.24707        34900        21596 
 6990000    1.0032494  -0.36438229      1728000    582.11704        34950        21618 
 7000000   0.97720158  -0.36192113      1728000    582.95646        35000        21649 
 7010000   0.94600398  -0.34332128      1728000    583.76807        35050        21677 
 7020000    1.0170649  -0.36562355      1728000    584.58603        35100        21700 
 7030000   0.98099786  -0.30943414      1728000    585.40119        35150        21737 
 7040000     1.044692  -0.31729978      1728000    586.24733        35200        21769 
 7050000   0.98738496  -0.29516457      1728000    587.08646        35250        21802 
 7060000    1.0090925  -0.29975257      1728000    587.89069        35300        21839 
 7070000    1.0111977  -0.30079725      1728000    588.71383        35350        21878 
 7080000    0.9588347  -0.33278104      1728000    589.56522        35400        21910 
 7090000   0.94879049  -0.32638818      1728000    590.40943        35450        21942 
 7100000   0.99260936   -0.3318314      1728000    591.24718        35500        21970 
 7110000   0.99661187  -0.34275711      1728000    592.05645        35550        22002 
 7120000   0.98412292  -0.33963052      1728000    592.87283        35600        22032 
 7130000    1.0377684  -0.33424754      1728000    593.68498        35650        22066 
 7140000   0.95172807  -0.33754652      1728000    594.49288        35700        22093 
 7150000    1.0801275  -0.34365137      1728000      595.346        35750        22125 
 7160000    1.0476691   -0.3264629      1728000    596.17638        35800        22155 
 7170000    1.0831145  -0.32870649      1728000    596.98284        35850        22181 
 7180000    1.0129573  -0.30582782      1728000    597.79672        35900        22213 
 7190000   0.95595697  -0.33587733      1728000    598.63639        35950        22242 
 7200000   0.98496598  -0.31971859      1728000    599.45417        36000        22279 
 7210000   0.99126591  -0.33791152      1728000    600.29766        36050        22314 
 7220000   0.97103099  -0.32383411      1728000    601.17506        36100        22343 
 7230000    1.0169007  -0.33614843      1728000    602.02319        36150        22371 
 7240000   0.97551286  -0.32094726      1728000    602.85033        36200        22402 
 7250000   0.95588519  -0.31698041      1728000     603.6716        36250        22435 
 7260000   0.97289858  -0.32865361      1728000    604.48499        36300        22467 
 7270000    0.9844234  -0.34016249      1728000    605.29517        36350        22502 
 7280000    1.0185479  -0.35003795      1728000     606.1373        36400        22531 
 7290000    0.9989613  -0.34373882      1728000     606.9656        36450        22565 
 7300000    1.0194741  -0.36496705      1728000    607.81073        36500        22592 
 7310000   0.99070202  -0.37133283      1728000    608.65786        36550        22620 
 7320000   0.95700544  -0.34978316      1728000    609.47509        36600        22657 
 7330000    1.0152122  -0.32585147      1728000    610.32222        36650        22689 
 7340000    1.0148406  -0.32745791      1728000    611.20632        36700        22727 
 7350000   0.91284011  -0.34552227      1728000    612.04547        36750        22765 
 7360000    1.0132547  -0.33884105      1728000    612.86992        36800        22801 
 7370000      1.01853  -0.35410079      1728000    613.82997        36850        22822 
 7380000   0.93744587  -0.35843078      1728000     614.6811        36900        22849 
 7390000    0.9676468  -0.34703904      1728000    615.52324        36950        22880 
 7400000   0.95017567  -0.34579926      1728000    616.41334        37000        22907 
 7410000   0.95187902  -0.36492317      1728000    617.25773        37050        22933 
 7420000    1.0579615  -0.38755203      1728000    618.09494        37100        22964 
 7430000   0.95068045  -0.35745751      1728000    618.92371        37150        22997 
 7440000    1.0310327  -0.38413517      1728000    619.79281        37200        23026 
 7450000    1.0691872  -0.34408703      1728000    620.65396        37250        23056 
 7460000   0.97954918   -0.3743704      1728000    621.50511        37300        23083 
 7470000   0.94869908  -0.38562478      1728000    622.36823        37350        23113 
 7480000   0.92324522  -0.36548264      1728000      623.217        37400        23145 
 7490000   0.99563786   -0.3986734      1728000    624.04225        37450        23170 
 7500000    1.0027034  -0.37259173      1728000    624.89596        37500        23199 
 7510000    1.0737571  -0.38747689      1728000    625.75806        37550        23227 
 7520000    0.9967004  -0.36913851      1728000    626.66814        37600        23260 
 7530000    1.0268624  -0.36851571      1728000    627.54926        37650        23294 
 7540000   0.96351126  -0.37212914      1728000    628.50828        37700        23318 
 7550000   0.89917646  -0.36632757      1728000    629.38638        37750        23343 
 7560000     1.033787  -0.35325457      1728000    630.20555        37800        23379 
 7570000    1.0147857  -0.35308512      1728000    631.05172        37850        23413 
 7580000   0.99612197  -0.37407076      1728000    631.88014        37900        23446 
 7590000   0.92984743  -0.35895966      1728000      632.713        37950        23477 
 7600000   0.99847648  -0.35349602      1728000     633.5392        38000        23511 
 7610000    1.0058507  -0.35687443      1728000    634.38536        38050        23548 
 7620000    1.0112318  -0.36720799      1728000    635.21651        38100        23578 
 7630000   0.95960094  -0.35256186      1728000    636.05486        38150        23609 
 7640000   0.95795223  -0.35085287      1728000    636.94597        38200        23638 
 7650000     0.957817   -0.3628343      1728000    637.78411        38250        23669 
 7660000    1.0412587  -0.35947483      1728000     638.6692        38300        23698 
 7670000   0.96104769  -0.35001178      1728000     639.5433        38350        23734 
 7680000   0.98351526  -0.34730665      1728000    640.36047        38400        23764 
 7690000    1.0215518  -0.34961537      1728000    641.18801        38450        23799 
 7700000   0.98849326  -0.34265013      1728000     642.0292        38500        23827 
 7710000    0.9796132  -0.37522706      1728000    642.86593        38550        23854 
 7720000   0.95214942  -0.36311044      1728000    643.71413        38600        23885 
 7730000   0.91395248  -0.36458465      1728000    644.58786        38650        23912 
 7740000   0.99719406  -0.36460966      1728000    645.41601        38700        23938 
 7750000    1.0765693  -0.37013975      1728000    646.25287        38750        23973 
 7760000   0.95571372  -0.37924232      1728000    647.08064        38800        24007 
 7770000    1.0131574  -0.36226499      1728000    647.89895        38850        24032 
 7780000   0.98795591  -0.36044328      1728000     648.7092        38900        24067 
 7790000   0.98226835  -0.36616653      1728000     649.5339        38950        24089 
 7800000    1.0083025  -0.38266415      1728000    650.36483        39000        24117 
 7810000    0.9845983  -0.38912032      1728000    651.19733        39050        24151 
 7820000    1.0149337  -0.38431007      1728000    652.04046        39100        24172 
 7830000    1.0362391  -0.37812875      1728000    652.85791        39150        24201 
 7840000    1.0038555  -0.36370752      1728000    653.71703        39200        24226 
 7850000     1.019518  -0.36179074      1728000    654.55903        39250        24260 
 7860000    1.0119235  -0.35912433      1728000     655.4042        39300        24293 
 7870000   0.96001428  -0.34434299      1728000    656.22837        39350        24325 
 7880000    1.0027198  -0.35817945      1728000     657.0625        39400        24350 
 7890000   0.98771923  -0.34880333      1728000    657.89597        39450        24383 
 7900000      1.00512   -0.3596132      1728000    658.75515        39500        24410 
 7910000    1.0266383  -0.36677638      1728000    659.57709        39550        24444 
 7920000    1.0444908   -0.3619112      1728000    660.40652        39600        24473 
 7930000   0.98729942  -0.35982222      1728000    661.24581        39650        24503 
 7940000    1.0334974  -0.35310381      1728000    662.08397        39700        24533 
 7950000    1.0472233  -0.36064092      1728000    662.89331        39750        24568 
 7960000    1.0032148  -0.35606115      1728000    663.69867        39800        24599 
 7970000   0.93302231  -0.37928903      1728000    664.54417        39850        24630 
 7980000    1.0094442  -0.37418288      1728000    665.35685        39900        24663 
 7990000    1.0259538  -0.35906159      1728000    666.20785        39950        24691 
 8000000    1.0464797  -0.36853869      1728000    667.06098        40000        24723 
 8010000    1.0538486  -0.36359353      1728000    667.87614        40050        24750 
 8020000   0.99385015   -0.3881298      1728000    668.69545        40100        24785 
 8030000   0.97047456  -0.35631897      1728000    669.50962        40150        24817 
 8040000    1.0541845   -0.3594536      1728000    670.31519        40200        24845 
 8050000    1.0554562  -0.35289204      1728000    671.15335        40250        24874 
 8060000    1.0426029  -0.35102318      1728000    671.97526        40300        24898 
 8070000     1.003331  -0.36854782      1728000    672.78962        40350        24926 
 8080000    1.0231991  -0.35666086      1728000    673.60513        40400        24959 
 8090000    1.0178234  -0.36412371      1728000    674.42403        40450        24986 
 8100000   0.95704601  -0.34956328      1728000    675.28358        40500        25005 
 8110000   0.96711517  -0.33359113      1728000    676.10194        40550        25038 
 8120000    1.0464107  -0.34479296      1728000     676.9254        40600        25070 
 8130000    1.0230116  -0.33768695      1728000    677.74798        40650        25101 
 8140000    1.0011274  -0.34985673      1728000    678.56425        40700        25131 
 8150000   0.97337364    -0.339652      1728000    679.39321        40750        25159 
 8160000    0.9744381  -0.33811527      1728000    680.20976        40800        25188 
 8170000   0.95049985  -0.33123674      1728000    681.04513        40850        25219 
 8180000    1.0095787   -0.3351032      1728000    681.87334        40900        25253 
 8190000   0.97997448  -0.34602061      1728000    682.69179        40950        25284 
 8200000   0.98642148  -0.33433959      1728000    683.50976        41000        25320 
 8210000      1.04256    -0.329573      1728000    684.31501        41050        25353 
 8220000   0.98559162   -0.3401005      1728000     685.1262        41100        25382 
 8230000    1.0191452   -0.3478462      1728000    685.93356        41150        25412 
 8240000    1.0511208  -0.37395275      1728000    686.75093        41200        25444 
 8250000    1.0172001  -0.36635327      1728000    687.56769        41250        25479 
 8260000    0.9877219  -0.36700352      1728000    688.38203        41300        25511 
 8270000     1.006249  -0.35101909      1728000    689.22609        41350        25538 
 8280000   0.93421417  -0.33840429      1728000    690.07098        41400        25568 
 8290000   0.96990889  -0.34127931      1728000    690.90736        41450        25593 
 8300000    1.0065172  -0.33229289      1728000    691.74397        41500        25628 
 8310000   0.93675783  -0.33252548      1728000    692.57072        41550        25660 
 8320000    1.0171678   -0.3257488      1728000     693.3832        41600        25686 
 8330000     1.049606   -0.3309939      1728000    694.20153        41650        25717 
 8340000    1.0536108  -0.30885236      1728000    695.01177        41700        25749 
 8350000   0.99479466  -0.34247176      1728000    695.83217        41750        25779 
 8360000    1.0223401  -0.36016363      1728000    696.65364        41800        25813 
 8370000    1.0147425   -0.3335675      1728000    697.47587        41850        25836 
 8380000   0.98231609  -0.37579497      1728000    698.30302        41900        25860 
 8390000    1.0468618  -0.34806734      1728000    699.11519        41950        25898 
 8400000   0.93821368  -0.36270182      1728000    699.95433        42000        25926 
 8410000   0.99492478  -0.34849717      1728000    700.82047        42050        25953 
 8420000   0.98144715  -0.36160513      1728000    701.66772        42100        25988 
 8430000   0.99128571  -0.38802306      1728000      702.509        42150        26013 
 8440000    1.0518179  -0.36619061      1728000    703.35178        42200        26045 
 8450000    1.0165671  -0.35389062      1728000    704.18988        42250        26076 
 8460000   0.99131071   -0.3662723      1728000    705.03403        42300        26106 
 8470000    1.0171087  -0.34944332      1728000    705.87717        42350        26141 
 8480000    1.0321915  -0.36085554      1728000    706.72354        42400        26174 
 8490000   0.97974033  -0.35000331      1728000    707.60983        42450        26207 
 8500000   0.98862162  -0.35588755      1728000    708.46923        42500        26236 
 8510000   0.97142169  -0.35549224      1728000    709.30639        42550        26266 
 8520000    1.0169108  -0.35313547      1728000    710.15367        42600        26303 
 8530000    1.0480992  -0.35446037      1728000    711.03078        42650        26341 
 8540000    1.0489103  -0.30572748      1728000     711.8899        42700        26374 
 8550000    1.0462993  -0.33377483      1728000    712.71211        42750        26411 
 8560000   0.94388019   -0.3375635      1728000     713.5454        42800        26445 
 8570000   0.99280056  -0.36933007      1728000    714.37099        42850        26479 
 8580000   0.98462997  -0.35076897      1728000    715.21732        42900        26510 
 8590000   0.97074206  -0.34102245      1728000    716.08463        42950        26541 
 8600000   0.97025853  -0.33945572      1728000    716.92088        43000        26572 
 8610000    1.0148942  -0.35058649      1728000      717.796        43050        26598 
 8620000    1.0165645  -0.37914808      1728000    718.66011        43100        26631 
 8630000    1.0558663  -0.36198835      1728000    719.49825        43150        26660 
 8640000    1.0068951  -0.38151397      1728000     720.3304        43200        26692 
 8650000    1.0119745  -0.37399882      1728000    721.24346        43250        26730 
 8660000   0.92081753  -0.37883789      1728000    722.07162        43300        26758 
 8670000    1.0416146  -0.38825655      1728000    722.90124        43350        26788 
 8680000     1.040037  -0.37121078      1728000     723.7197        43400        26825 
 8690000   0.97701435  -0.37468551      1728000    724.70769        43450        26853 
 8700000   0.94942708   -0.3651062      1728000    725.56376        43500        26886 
 8710000    1.0250421    -0.376395      1728000    726.41701        43550        26912 
 8720000   0.97156036  -0.37275143      1728000    727.39502        43600        26940 
 8730000   0.97993089  -0.38190322      1728000    728.24936        43650        26976 
 8740000   0.97812099  -0.33920932      1728000    729.07988        43700        27007 
 8750000   0.99426997  -0.34363674      1728000    729.90472        43750        27037 
 8760000   0.94449183  -0.33643838      1728000    730.74336        43800        27065 
 8770000    1.0003361  -0.33072163      1728000    731.56677        43850        27094 
 8780000    1.0070665  -0.33025669      1728000    732.38594        43900        27128 
 8790000   0.98251641  -0.33331662      1728000    733.20556        43950        27161 
 8800000     1.059392  -0.32644215      1728000    734.03296        44000        27194 
 8810000   0.99957471  -0.34658382      1728000    734.87168        44050        27223 
 8820000   0.99824996   -0.3482415      1728000    735.69685        44100        27253 
 8830000    1.0374802  -0.36768783      1728000    736.57694        44150        27285 
 8840000    1.0550329  -0.38345134      1728000    737.40709        44200        27313 
 8850000    1.0143373  -0.35874846      1728000    738.23912        44250        27348 
 8860000   0.99591678  -0.37151002      1728000    739.05616        44300        27383 
 8870000    1.0032111  -0.39977232      1728000    739.89854        44350        27414 
 8880000    1.0281429  -0.38002332      1728000    740.74878        44400        27444 
 8890000   0.95761057  -0.41221062      1728000    741.58217        44450        27471 
 8900000   0.95599775  -0.38629898      1728000    742.42431        44500        27503 
 8910000    0.9605311  -0.40359354      1728000    743.25376        44550        27528 
 8920000   0.99112829  -0.41775745      1728000    744.12685        44600        27555 
 8930000    1.0134105  -0.43742724      1728000    744.96101        44650        27585 
 8940000   0.96922972  -0.38627285      1728000    745.79237        44700        27614 
 8950000   0.99471483  -0.41837508      1728000    746.62182        44750        27644 
 8960000   0.97085093  -0.41315141      1728000    747.44768        44800        27672 
 8970000    1.0491707  -0.39187074      1728000    748.27014        44850        27703 
 8980000   0.97367793  -0.39753445      1728000     749.1176        44900        27736 
 8990000    1.0033746  -0.42060114      1728000    749.95216        44950        27763 
 9000000   0.94894128  -0.39028863      1728000    750.79233        45000        27783 
 9010000   0.97278453  -0.39291356      1728000    751.61355        45050        27810 
 9020000   0.98949131  -0.37991461      1728000    752.44972        45100        27843 
 9030000    1.0317153  -0.38698975      1728000    753.27187        45150        27867 
 9040000    1.0034191  -0.37585609      1728000    754.09778        45200        27892 
 9050000    1.0346639  -0.38856989      1728000       754.94        45250        27924 
 9060000    1.0040626  -0.36462097      1728000    755.77074        45300        27958 
 9070000    1.0377743   -0.3497843      1728000    756.62585        45350        27991 
 9080000   0.94709155  -0.36756193      1728000    757.45102        45400        28023 
 9090000   0.97752722  -0.35993491      1728000    758.26768        45450        28052 
 9100000   0.99344197  -0.34201385      1728000    759.09088        45500        28084 
 9110000    1.0443979  -0.34737141      1728000     759.9181        45550        28118 
 9120000   0.97920105  -0.33748719      1728000    760.72598        45600        28155 
 9130000    1.0022724  -0.33967886      1728000    761.53769        45650        28186 
 9140000   0.97440204  -0.33585705      1728000    762.38994        45700        28214 
 9150000    1.0367022  -0.32502315      1728000    763.20573        45750        28243 
 9160000    1.0179135  -0.33833947      1728000     764.0179        45800        28274 
 9170000    1.0415528  -0.32906151      1728000    764.82861        45850        28304 
 9180000    1.0198294  -0.32229457      1728000    765.63955        45900        28336 
 9190000     1.053613  -0.34258399      1728000    766.46878        45950        28369 
 9200000   0.93016149  -0.33449749      1728000    767.28595        46000        28402 
 9210000   0.95547781  -0.36383934      1728000    768.09553        46050        28433 
 9220000     1.040446  -0.33080133      1728000    768.91175        46100        28468 
 9230000    1.0143704   -0.3111489      1728000    769.71601        46150        28501 
 9240000   0.97755922   -0.3287703      1728000    770.52729        46200        28529 
 9250000    1.0822136  -0.34906547      1728000    771.35403        46250        28559 
 9260000   0.98657691  -0.33228241      1728000    772.32204        46300        28584 
 9270000    1.0183267  -0.35141097      1728000    773.21613        46350        28616 
 9280000   0.98880355   -0.3247116      1728000    774.04927        46400        28649 
 9290000   0.91305357  -0.34042737      1728000     774.8914        46450        28689 
 9300000   0.95001367  -0.35305797      1728000    775.76151        46500        28725 
 9310000   0.98518291  -0.37013685      1728000    776.59775        46550        28763 
 9320000   0.99104006  -0.36436806      1728000    777.43996        46600        28795 
 9330000     1.071483  -0.37101249      1728000    778.26916        46650        28822 
 9340000    1.0097381   -0.3599675      1728000    779.11182        46700        28852 
 9350000    1.0724936  -0.34654564      1728000    779.95899        46750        28883 
 9360000   0.95178455  -0.33831913      1728000    780.77818        46800        28915 
 9370000   0.91670977  -0.35002276      1728000    781.59177        46850        28948 
 9380000    1.0044625  -0.35474493      1728000    782.43191        46900        28975 
 9390000   0.99246283  -0.37074211      1728000    783.38193        46950        29010 
 9400000   0.96727153   -0.3528649      1728000    784.23905        47000        29047 
 9410000   0.99909841  -0.35241503      1728000    785.10318        47050        29070 
 9420000    1.0468238  -0.36371184      1728000    785.95829        47100        29098 
 9430000   0.94912218  -0.35839375      1728000    786.84039        47150        29128 
 9440000    1.0108362  -0.36657043      1728000     787.7055        47200        29153 
 9450000    1.0301592  -0.35844032      1728000    788.55463        47250        29180 
 9460000   0.98958451  -0.37365228      1728000    789.48268        47300        29207 
 9470000   0.96922058  -0.36442542      1728000    790.32883        47350        29241 
 9480000    1.0265345  -0.39389366      1728000    791.18593        47400        29273 
 9490000    1.0128472  -0.37476853      1728000    792.05604        47450        29304 
 9500000   0.98241074  -0.34080721      1728000    792.89418        47500        29335 
 9510000    1.0254325  -0.34993338      1728000    793.73642        47550        29363 
 9520000   0.98502228  -0.35157667      1728000    794.65047        47600        29396 
 9530000     1.005931  -0.34806733      1728000    795.58152        47650        29423 
 9540000   0.98710154  -0.35911697      1728000    796.41668        47700        29447 
 9550000    0.9910194    -0.350337      1728000    797.25212        47750        29476 
 9560000    0.9970376  -0.37170344      1728000    798.10626        47800        29506 
 9570000    1.0272546  -0.38273592      1728000    798.94039        47850        29538 
 9580000    1.0495468  -0.42107975      1728000    799.76785        47900        29570 
 9590000    1.0240691  -0.42014725      1728000    800.61964        47950        29594 
 9600000   0.98342304  -0.43265111      1728000    801.51582        48000        29628 
 9610000    1.0134753  -0.43298343      1728000    802.42187        48050        29653 
 9620000    1.0172983  -0.46061929      1728000    803.29398        48100        29681 
 9630000    1.0106381  -0.41849035      1728000    804.22203        48150        29709 
 9640000    1.0160089   -0.4420787      1728000    805.10313        48200        29742 
 9650000   0.99827324  -0.42058664      1728000    805.95925        48250        29775 
 9660000    1.0422935   -0.4266038      1728000    806.82237        48300        29800 
 9670000   0.99807702  -0.41569428      1728000    807.73644        48350        29826 
 9680000    1.0344305  -0.41948569      1728000    808.74839        48400        29851 
 9690000   0.98092324  -0.43049846      1728000    809.64263        48450        29882 
 9700000   0.99938306  -0.40462376      1728000     810.5587        48500        29917 
 9710000    1.0013667  -0.40751243      1728000    811.42381        48550        29945 
 9720000   0.98611562  -0.36576262      1728000     812.3069        48600        29979 
 9730000    1.0522171  -0.38656778      1728000    813.19705        48650        30012 
 9740000    1.0358983  -0.36744226      1728000    814.12612        48700        30044 
 9750000   0.92758198  -0.38122125      1728000    814.99121        48750        30077 
 9760000   0.96795873  -0.38677659      1728000    815.84138        48800        30109 
 9770000    1.0141395  -0.38027691      1728000    816.70348        48850        30138 
 9780000   0.96934523  -0.38196335      1728000    817.57259        48900        30169 
 9790000   0.99259504  -0.36086358      1728000    818.46373        48950        30192 
 9800000   0.94643741  -0.35642245      1728000    819.44573        49000        30223 
 9810000    0.9431785  -0.36067741      1728000    820.31484        49050        30252 
 9820000    1.0165302  -0.36006415      1728000    821.21192        49100        30282 
 9830000     1.048714  -0.35949601      1728000    822.07707        49150        30313 
 9840000   0.98939342  -0.34156778      1728000    822.95402        49200        30342 
 9850000   0.97741969  -0.38191373      1728000    823.79516        49250        30372 
 9860000     1.027344  -0.37777813      1728000    824.64283        49300        30396 
 9870000   0.98494759  -0.37537677      1728000    825.47996        49350        30427 
 9880000    1.0596209    -0.371089      1728000    826.31463        49400        30460 
 9890000    1.0499267  -0.37245319      1728000    827.15361        49450        30491 
 9900000   0.97281829  -0.36886347      1728000    827.99371        49500        30516 
 9910000   0.97250561  -0.37727706      1728000    828.95371        49550        30545 
 9920000   0.98285811  -0.37208053      1728000    829.80784        49600        30568 
 9930000   0.95751174  -0.34690374      1728000    830.64209        49650        30602 
 9940000   0.98398584  -0.37356529      1728000     831.4596        49700        30635 
 9950000     1.019379  -0.36896808      1728000    832.29088        49750        30663 
 9960000    1.0201096  -0.35897066      1728000     833.1045        49800        30691 
 9970000    1.0031917  -0.34544075      1728000    833.91291        49850        30724 
 9980000    1.0341329  -0.31560787      1728000    834.72752        49900        30763 
 9990000    1.0369747   -0.3405417      1728000    835.57475        49950        30796 
10000000   0.99910791  -0.34773555      1728000    836.39958        50000        30831 
10010000    1.0244077   -0.3586031      1728000    837.22473        50050        30858 
10020000    1.0325562   -0.3526889      1728000    838.05788        50100        30892 
10030000    1.0712089  -0.37014224      1728000    838.88255        50150        30923 
10040000   0.97669572  -0.34721707      1728000    839.69399        50200        30957 
10050000   0.96526639  -0.37810703      1728000    840.53716        50250        30989 
10060000    1.0469766  -0.35903319      1728000    841.37116        50300        31027 
10070000    1.0527036  -0.33781997      1728000    842.19245        50350        31064 
10080000   0.99525568  -0.31169791      1728000    843.00527        50400        31096 
10090000    1.0465032  -0.31024337      1728000    843.85552        50450        31129 
10100000   0.98619342  -0.33064012      1728000     844.6767        50500        31160 
10110000   0.95422738  -0.34367157      1728000    845.48786        50550        31195 
10120000   0.96783892   -0.3404053      1728000    846.31581        50600        31223 
10130000   0.97039593  -0.32888393      1728000    847.12996        50650        31256 
10140000   0.95802639  -0.34360905      1728000    847.96812        50700        31286 
10150000   0.94725456  -0.33081406      1728000    848.77233        50750        31323 
10160000   0.97507048  -0.33676648      1728000    849.58849        50800        31352 
10170000   0.95986194   -0.3475975      1728000    850.46679        50850        31386 
10180000    0.9547108  -0.36001609      1728000    851.29129        50900        31417 
10190000    1.0114044  -0.35258138      1728000    852.10076        50950        31453 
10200000   0.94511179  -0.35058994      1728000    852.97611        51000        31480 
10210000    1.0345667  -0.34236432      1728000    853.78862        51050        31514 
10220000    1.0230746  -0.35736668      1728000    854.59852        51100        31547 
10230000    0.9790676  -0.35780507      1728000    855.43569        51150        31577 
10240000   0.97484149  -0.33977211      1728000    856.26989        51200        31609 
10250000   0.98506164  -0.32852168      1728000    857.09756        51250        31642 
10260000   0.96732375  -0.33919403      1728000    857.92754        51300        31679 
10270000   0.98527374  -0.31996344      1728000    858.74884        51350        31709 
10280000     1.025188  -0.35051307      1728000    859.56361        51400        31741 
10290000    1.0081193  -0.33598069      1728000    860.38464        51450        31777 
10300000    1.0381602  -0.35723567      1728000    861.21323        51500        31808 
10310000   0.97281636   -0.3183503      1728000    862.05261        51550        31847 
10320000    1.0460341  -0.34165963      1728000     862.8977        51600        31875 
10330000   0.98781429  -0.32576372      1728000    863.73948        51650        31907 
10340000    1.0134212  -0.31946894      1728000    864.54254        51700        31942 
10350000     0.970878  -0.36394269      1728000     865.3716        51750        31973 
10360000   0.97760433  -0.33681332      1728000    866.21456        51800        31998 
10370000   0.93844684  -0.31790276      1728000    867.04501        51850        32032 
10380000    1.0362638   -0.3164496      1728000    867.86944        51900        32069 
10390000   0.96711175  -0.31330165      1728000    868.68946        51950        32103 
10400000   0.94665981  -0.29413797      1728000    869.53159        52000        32140 
10410000    1.0540634  -0.31106565      1728000    870.47664        52050        32180 
10420000   0.97474922  -0.33006253      1728000    871.34373        52100        32206 
10430000    1.0596419  -0.33989794      1728000    872.17988        52150        32239 
10440000    1.0039843  -0.32309905      1728000    873.00453        52200        32279 
10450000    1.0245026  -0.34514565      1728000    873.83686        52250        32308 
10460000   0.99851658  -0.32699017      1728000    874.67397        52300        32349 
10470000    1.0195487  -0.33579596      1728000     875.5361        52350        32383 
10480000    1.0306092  -0.33669829      1728000     876.4022        52400        32414 
10490000   0.98414635  -0.31836295      1728000    877.26531        52450        32447 
10500000   0.96556482  -0.30896598      1728000     878.1564        52500        32477 
10510000     1.034374  -0.31472896      1728000    879.28225        52550        32511 
10520000    1.0003133  -0.30979808      1728000    880.35415        52600        32543 
10530000    1.0012233  -0.31469975      1728000    881.42705        52650        32581 
10540000    1.0034041  -0.32097422      1728000    882.44301        52700        32613 
10550000   0.97332685  -0.34427841      1728000    883.46396        52750        32649 
10560000   0.99904796  -0.33589525      1728000    884.38102        52800        32683 
10570000    1.0142728  -0.32771796      1728000    885.27311        52850        32713 
10580000    1.0144982  -0.31305519      1728000    886.12272        52900        32749 
10590000    1.0042896  -0.34114088      1728000    887.01481        52950        32781 
10600000    1.0286261   -0.3545762      1728000      887.862        53000        32810 
10610000    1.0667785  -0.35618794      1728000    888.67396        53050        32838 
10620000    1.0342795   -0.3575005      1728000    889.49478        53100        32865 
10630000   0.97301361    -0.353045      1728000    890.32606        53150        32898 
10640000    1.0098401  -0.37907359      1728000    891.15521        53200        32922 
10650000   0.94875867  -0.34465082      1728000     891.9866        53250        32950 
10660000   0.97418451  -0.36141433      1728000    892.80839        53300        32980 
10670000    1.0333809   -0.3597793      1728000     893.6453        53350        33011 
10680000    1.0097024  -0.35076298      1728000    894.47256        53400        33043 
10690000   0.95659092  -0.34172214      1728000    895.29573        53450        33077 
10700000   0.96609813  -0.39108837      1728000    896.14585        53500        33106 
10710000   0.94383863  -0.36217727      1728000    897.03495        53550        33133 
10720000    1.0376004  -0.37860729      1728000    897.89807        53600        33164 
10730000     1.105356  -0.36447092      1728000    898.75817        53650        33192 
10740000    1.0418407  -0.35547113      1728000    899.59559        53700        33222 
10750000     1.044672  -0.37572169      1728000    900.43662        53750        33249 
10760000    1.0144171  -0.36864919      1728000    901.31721        53800        33274 
10770000    1.0057324  -0.40039175      1728000    902.18832        53850        33302 
10780000    1.0122327  -0.38052696      1728000    903.03647        53900        33327 
10790000    1.0093769  -0.39148044      1728000    903.88959        53950        33354 
10800000   0.96319677   -0.3705991      1728000    904.76371        54000        33385 
10810000    1.0249129  -0.37586469      1728000    905.59784        54050        33418 
10820000   0.91380394  -0.37730113      1728000    906.49892        54100        33446 
10830000     1.019631  -0.36005667      1728000    907.36104        54150        33477 
10840000    1.0407766  -0.38264403      1728000    908.22615        54200        33508 
10850000    1.0253467  -0.39868974      1728000    909.09929        54250        33533 
10860000   0.99732588    -0.407468      1728000    909.97539        54300        33562 
10870000    1.0803031  -0.35428006      1728000    910.84349        54350        33590 
10880000    1.0715531  -0.37032245      1728000    911.82249        54400        33618 
10890000    1.0102177  -0.37810441      1728000    912.80249        54450        33650 
10900000   0.96681728  -0.37770045      1728000    913.84542        54500        33676 
10910000   0.96952052  -0.36060148      1728000    914.74849        54550        33708 
10920000   0.99528271  -0.37196138      1728000     915.6146        54600        33740 
10930000    1.0025879  -0.37779014      1728000    916.50969        54650        33772 
10940000    1.0496597  -0.36966264      1728000    917.42974        54700        33803 
10950000    1.0225151  -0.35018682      1728000    918.27788        54750        33832 
10960000     0.996502  -0.37182021      1728000    919.12601        54800        33864 
10970000    1.0081356  -0.37405576      1728000    919.96916        54850        33895 
10980000    1.0307974  -0.36494366      1728000    920.81953        54900        33928 
10990000     1.014942  -0.35138317      1728000    921.67763        54950        33965 
11000000    1.0833963  -0.35834968      1728000    922.53491        55000        33997 
11010000    1.0052883  -0.35874823      1728000    923.38104        55050        34025 
11020000   0.97775498  -0.34718296      1728000    924.23918        55100        34058 
11030000   0.93341579  -0.34866842      1728000    925.10851        55150        34088 
11040000   0.96363641  -0.36592042      1728000    925.94898        55200        34118 
11050000   0.99109218  -0.35101782      1728000     926.8412        55250        34150 
11060000    1.0028852  -0.35660844      1728000    927.78126        55300        34182 
11070000    1.0385427  -0.35984209      1728000     928.6117        55350        34215 
11080000    1.0225915  -0.34902666      1728000    929.47996        55400        34252 
11090000   0.94526734  -0.36331951      1728000    930.34242        55450        34278 
11100000    1.0167554  -0.35874644      1728000    931.24057        55500        34305 
11110000   0.94565361  -0.36279435      1728000    932.08284        55550        34337 
11120000   0.97485396  -0.36363975      1728000    932.96645        55600        34363 
11130000   0.98898491  -0.36048942      1728000    933.83641        55650        34393 
11140000   0.94291839  -0.33587311      1728000    934.70359        55700        34426 
11150000   0.94919891  -0.34837582      1728000    935.55153        55750        34462 
11160000   0.98353215  -0.32647846      1728000    936.41748        55800        34495 
11170000   0.97331437  -0.34577025      1728000    937.26348        55850        34525 
11180000   0.99675058  -0.35005649      1728000    938.11854        55900        34559 
11190000    1.0670606  -0.35072306      1728000     938.9481        55950        34586 
11200000    1.0127659  -0.34684593      1728000    939.77714        56000        34615 
11210000    1.0399489  -0.35868137      1728000    940.60928        56050        34652 
11220000    1.0183656  -0.35119332      1728000    941.45443        56100        34687 
11230000   0.99241403  -0.36063027      1728000    942.34753        56150        34718 
11240000   0.98431908   -0.3506803      1728000    943.19068        56200        34753 
11250000   0.99208175  -0.36780239      1728000    944.01425        56250        34786 
11260000    0.9671999  -0.35945487      1728000    944.84149        56300        34820 
11270000   0.92338645  -0.36429992      1728000    945.67982        56350        34847 
11280000   0.95600036  -0.35654835      1728000    946.82665        56400        34876 
11290000    1.0219733   -0.3441184      1728000     947.6598        56450        34902 
11300000   0.97167821   -0.3073937      1728000    948.48182        56500        34931 
11310000   0.97004909  -0.32247113      1728000     949.3042        56550        34966 
11320000   0.88277037  -0.31736959      1728000    950.11636        56600        34997 
11330000   0.95685363  -0.34592867      1728000    950.98047        56650        35030 
11340000    0.9766378   -0.3271965      1728000    951.85158        56700        35057 
11350000     1.058466  -0.29489204      1728000    952.67174        56750        35087 
11360000   0.96543391   -0.3230041      1728000    953.51587        56800        35121 
11370000      1.01371  -0.33706788      1728000    954.34438        56850        35157 
11380000   0.96647184  -0.32734853      1728000    955.15355        56900        35192 
11390000   0.94799725  -0.34119689      1728000    956.00076        56950        35219 
11400000   0.92615706   -0.3205679      1728000    956.86869        57000        35252 
11410000   0.93897538  -0.35326936      1728000    957.74779        57050        35277 
11420000    1.0731485  -0.36101419      1728000    958.57004        57100        35303 
11430000    1.0337493  -0.36040946      1728000    959.39651        57150        35327 
11440000    1.0623757  -0.35317913      1728000    960.20674        57200        35358 
11450000   0.99284207  -0.35210583      1728000    961.02192        57250        35388 
11460000    1.0087069  -0.36162908      1728000    961.83812        57300        35420 
11470000   0.98300779  -0.34901941      1728000    962.67629        57350        35451 
11480000   0.99163445  -0.37388983      1728000    963.49047        57400        35477 
11490000    1.0140387   -0.3430198      1728000    964.31966        57450        35512 
11500000   0.97864793  -0.33137109      1728000    965.14824        57500        35541 
11510000    1.0026583  -0.34548712      1728000    965.98136        57550        35567 
11520000    1.0002427  -0.31345029      1728000    966.87345        57600        35599 
11530000   0.97511212  -0.32799493      1728000    967.70961        57650        35629 
11540000    1.0189321  -0.32633481      1728000    968.54274        57700        35655 
11550000   0.99890687  -0.32238617      1728000    969.39188        57750        35687 
11560000   0.95729202  -0.31106467      1728000    970.21103        57800        35722 
11570000   0.97437216  -0.34390096      1728000    971.11031        57850        35750 
11580000   0.97483285  -0.32744816      1728000    971.94347        57900        35783 
11590000   0.95739595  -0.33537237      1728000    972.75611        57950        35820 
11600000    1.0026959   -0.3681994      1728000    973.60927        58000        35849 
11610000    1.0212537  -0.34482921      1728000    974.43043        58050        35883 
11620000    1.0269266  -0.32135977      1728000     975.2566        58100        35919 
11630000   0.98345597   -0.3373524      1728000    976.14569        58150        35951 
11640000    1.0148376  -0.33705672      1728000    976.96864        58200        35984 
11650000    1.0000292  -0.31467675      1728000    977.77453        58250        36025 
11660000    1.0928039  -0.31275294      1728000    978.62223        58300        36052 
11670000   0.95303406  -0.31201087      1728000    979.49869        58350        36086 
11680000   0.99562015  -0.31770029      1728000    980.37445        58400        36119 
11690000    1.0287594  -0.31937636      1728000    981.21904        58450        36150 
11700000    1.0275017   -0.3270357      1728000    982.10239        58500        36177 
11710000   0.94549663  -0.31626371      1728000    982.90974        58550        36204 
11720000     1.007097  -0.33194627      1728000    983.75301        58600        36241 
11730000    1.0458354  -0.34457082      1728000    984.68705        58650        36274 
11740000   0.97611519  -0.34276156      1728000    985.69102        58700        36307 
11750000     1.029449  -0.35005892      1728000    986.59909        58750        36343 
11760000    1.0390412  -0.34288088      1728000    987.46222        58800        36374 
11770000   0.97300282  -0.36504284      1728000    988.30136        58850        36406 
11780000    1.0786782  -0.35534754      1728000    989.14749        58900        36433 
11790000     1.001348   -0.3396636      1728000    989.96967        58950        36459 
11800000   0.94685535  -0.34498209      1728000    990.82577        59000        36495 
11810000   0.98004707  -0.34015861      1728000    991.66093        59050        36531 
11820000    1.0437831  -0.33749234      1728000    992.49121        59100        36559 
11830000   0.97202972  -0.35337123      1728000    993.30599        59150        36595 
11840000   0.96124259  -0.36502587      1728000    994.15608        59200        36627 
11850000    1.0361674  -0.35061374      1728000    994.97433        59250        36660 
11860000    1.0265371  -0.33246168      1728000    995.80549        59300        36694 
11870000    1.0352926  -0.35366494      1728000    996.63065        59350        36729 
11880000    1.0132708   -0.3166635      1728000    997.48077        59400        36763 
11890000    1.0224819   -0.3308619      1728000    998.30194        59450        36797 
11900000   0.97900124   -0.3207847      1728000    999.15704        59500        36831 
11910000    1.0167098  -0.31044941      1728000    999.98021        59550        36860 
11920000   0.98605781  -0.28790927      1728000    1000.8044        59600        36891 
11930000   0.91625035   -0.3102189      1728000    1001.6425        59650        36925 
11940000    1.0735412   -0.3025791      1728000    1002.4857        59700        36959 
11950000   0.99709101  -0.29433016      1728000     1003.294        59750        36996 
11960000    1.0183564  -0.30252434      1728000    1004.1201        59800        37024 
11970000   0.96065913  -0.31644883      1728000    1004.9562        59850        37059 
11980000    1.0110898  -0.32184883      1728000    1005.8251        59900        37086 
11990000    1.0201845  -0.32302531      1728000    1006.6752        59950        37116 
12000000   0.97898212  -0.34077918      1728000    1007.5393        60000        37146 
12010000    0.9693499  -0.34373723      1728000    1008.3655        60050        37174 
12020000   0.99147756  -0.34196442      1728000    1009.1817        60100        37208 
12030000     1.017771  -0.33324002      1728000    1009.9898        60150        37236 
12040000   0.96910884  -0.34315504      1728000    1010.7911        60200        37270 
12050000    1.0532058  -0.34362675      1728000    1011.6001        60250        37297 
12060000   0.99552091  -0.34518212      1728000    1012.4294        60300        37323 
12070000    1.0765259  -0.32399317      1728000    1013.2463        60350        37356 
12080000    1.0207988  -0.34523585      1728000    1014.0524        60400        37386 
12090000    1.0479849  -0.33991246      1728000    1014.8594        60450        37417 
12100000   0.96238667  -0.36728643      1728000    1015.7059        60500        37450 
12110000   0.96236575  -0.35435023      1728000    1016.5583        60550        37484 
12120000   0.97410168  -0.35753003      1728000    1017.3865        60600        37517 
12130000   0.98036435  -0.35939279      1728000    1018.2288        60650        37550 
12140000   0.97949908  -0.36826963      1728000     1019.056        60700        37585 
12150000   0.98546932  -0.36521463      1728000    1019.8737        60750        37610 
12160000   0.95649121   -0.3624542      1728000    1020.7215        60800        37641 
12170000    1.0322219  -0.36148978      1728000    1021.5284        60850        37675 
12180000   0.98045605  -0.37435505      1728000    1022.3444        60900        37703 
12190000    1.0697549  -0.35549294      1728000    1023.1782        60950        37732 
12200000    1.0116532   -0.3329444      1728000    1023.9964        61000        37762 
12210000    1.0168089  -0.34367987      1728000    1024.8005        61050        37794 
12220000    1.0264134   -0.3574922      1728000    1025.6183        61100        37830 
12230000    1.0429948  -0.34998873      1728000    1026.4423        61150        37858 
12240000   0.98925551  -0.35103471      1728000    1027.2704        61200        37888 
12250000    1.0326862  -0.36634851      1728000    1028.0953        61250        37916 
12260000   0.98783889  -0.35802467      1728000    1028.9132        61300        37943 
12270000    1.0157624  -0.36571487      1728000    1029.7484        61350        37977 
12280000    1.0023782  -0.37155916      1728000    1030.5834        61400        38005 
12290000   0.97388949  -0.39596988      1728000    1031.4293        61450        38038 
12300000    0.9699255  -0.39081718      1728000    1032.2963        61500        38072 
12310000    1.0571472  -0.38207106      1728000    1033.1186        61550        38100 
12320000    1.0412978   -0.3778274      1728000    1033.9445        61600        38129 
12330000   0.99708112  -0.34879184      1728000     1034.862        61650        38163 
12340000    1.0551979  -0.37240128      1728000    1035.7132        61700        38193 
12350000   0.93336259  -0.37876973      1728000    1036.6161        61750        38225 
12360000    1.0284385  -0.38275696      1728000    1037.5023        61800        38256 
12370000   0.96287786  -0.37898425      1728000    1038.3955        61850        38280 
12380000    1.0644856  -0.39051477      1728000    1039.2543        61900        38313 
12390000   0.97770114  -0.39241555      1728000    1040.1255        61950        38351 
12400000    1.0212521  -0.38581577      1728000    1040.9635        62000        38377 
12410000   0.95632742  -0.39122477      1728000    1041.8094        62050        38403 
12420000    1.0299974   -0.3770752      1728000    1042.6754        62100        38427 
12430000    1.0021724  -0.37652638      1728000    1043.5465        62150        38452 
12440000   0.99936772  -0.38075468      1728000    1044.3751        62200        38478 
12450000   0.97431047  -0.36591975      1728000    1045.2613        62250        38512 
12460000    1.0131549    -0.364455      1728000    1046.0883        62300        38546 
12470000    1.0150436  -0.37733704      1728000    1046.9275        62350        38578 
12480000    1.0029146   -0.3567975      1728000    1047.7727        62400        38613 
12490000    1.0150641  -0.35539841      1728000    1048.6098        62450        38645 
12500000   0.97517426  -0.34907051      1728000     1049.451        62500        38674 
12510000   0.92582133  -0.35033195      1728000    1050.2752        62550        38706 
12520000    1.0288361  -0.34968313      1728000    1051.1393        62600        38736 
12530000    1.0006664  -0.33603174      1728000    1051.9655        62650        38769 
12540000    1.0004689  -0.34228589      1728000    1052.7857        62700        38799 
12550000    1.0199032  -0.34315217      1728000    1053.6145        62750        38826 
12560000    1.0267833  -0.34003052      1728000    1054.4576        62800        38854 
12570000     1.027259  -0.32020919      1728000    1055.3397        62850        38885 
12580000   0.99772195  -0.32521805      1728000    1056.1709        62900        38916 
12590000   0.97675525  -0.33636866      1728000    1056.9904        62950        38940 
12600000   0.94582479  -0.31622906      1728000     1057.818        63000        38972 
12610000    0.9708553   -0.3247758      1728000    1058.6361        63050        39007 
12620000     1.007243  -0.31977229      1728000    1059.5102        63100        39037 
12630000   0.96120876  -0.33043515      1728000    1060.3304        63150        39068 
12640000   0.95481803  -0.35124027      1728000    1061.1705        63200        39101 
12650000    1.0070737  -0.34757122      1728000    1061.9957        63250        39132 
12660000    1.0179617  -0.33608444      1728000    1062.8518        63300        39165 
12670000   0.97444946  -0.34615245      1728000    1063.6652        63350        39194 
12680000   0.99447407  -0.34502263      1728000    1064.4863        63400        39224 
12690000   0.96983142  -0.33683546      1728000    1065.3434        63450        39254 
12700000    1.0079394  -0.34551478      1728000    1066.2196        63500        39287 
12710000   0.98742917  -0.33755095      1728000    1067.0629        63550        39321 
12720000    1.0034934   -0.3214207      1728000     1067.896        63600        39352 
12730000   0.96691531  -0.31005986      1728000    1068.7262        63650        39384 
12740000    1.0935304  -0.30693786      1728000    1069.6753        63700        39423 
12750000    1.0225683  -0.35017463      1728000    1070.4954        63750        39450 
12760000    1.0218426  -0.37495545      1728000    1071.3331        63800        39480 
12770000   0.96538193  -0.38379559      1728000    1072.1724        63850        39511 
12780000    1.0355414  -0.36599747      1728000    1072.9812        63900        39540 
12790000   0.95064026  -0.38162367      1728000    1073.8143        63950        39575 
12800000   0.98950889  -0.35306122      1728000     1074.664        64000        39608 
12810000   0.96993917  -0.36681087      1728000    1075.4753        64050        39638 
12820000   0.97235684  -0.34623688      1728000    1076.3124        64100        39666 
12830000    1.0312547  -0.35629185      1728000     1077.133        64150        39698 
12840000    1.0289995  -0.33568549      1728000    1077.9424        64200        39736 
12850000    1.0390575    -0.319681      1728000    1078.7533        64250        39771 
12860000    1.0209404  -0.34351232      1728000    1079.5653        64300        39805 
12870000    1.0441422  -0.36399496      1728000    1080.3868        64350        39837 
12880000    1.0257835  -0.35870258      1728000    1081.1982        64400        39869 
12890000    1.0413151  -0.32608321      1728000    1082.0174        64450        39901 
12900000   0.93569047   -0.3509401      1728000    1082.8382        64500        39930 
12910000    1.0338179  -0.34815125      1728000    1083.6516        64550        39959 
12920000    1.0139196   -0.3314434      1728000    1084.4622        64600        39993 
12930000    0.9822234  -0.32769978      1728000    1085.2686        64650        40029 
12940000     1.003897  -0.32919618      1728000    1086.0883        64700        40066 
12950000    1.0182843   -0.3472646      1728000    1086.9053        64750        40099 
12960000   0.96422926  -0.36796354      1728000    1087.7133        64800        40134 
12970000    1.0257284  -0.35969367      1728000    1088.5263        64850        40164 
12980000   0.96878803  -0.38345404      1728000    1089.3454        64900        40193 
12990000    1.0288903  -0.34872721      1728000    1090.1552        64950        40224 
13000000   0.99318946  -0.35146885      1728000    1091.0022        65000        40256 
13010000   0.96924398   -0.3768562      1728000    1091.8132        65050        40290 
13020000    1.0575244  -0.37088312      1728000    1092.6562        65100        40319 
13030000    0.9456997  -0.36167148      1728000    1093.4673        65150        40349 
13040000   0.94579884  -0.35966083      1728000    1094.2903        65200        40379 
13050000   0.97280167  -0.36479321      1728000    1095.1002        65250        40409 
13060000    1.0196413  -0.37858137      1728000    1095.9273        65300        40440 
13070000   0.99761468  -0.36661291      1728000    1096.7393        65350        40471 
13080000   0.98012029  -0.35806418      1728000    1097.5532        65400        40502 
13090000   0.99762208  -0.36132935      1728000    1098.3653        65450        40539 
13100000    1.0132513  -0.34885094      1728000    1099.1761        65500        40570 
13110000   0.99821537  -0.35073202      1728000    1099.9849        65550        40603 
13120000    1.0529054  -0.36378987      1728000    1100.7931        65600        40639 
13130000   0.95684428  -0.35076417      1728000    1101.6165        65650        40667 
13140000   0.95018372  -0.32761234      1728000    1102.4549        65700        40697 
13150000   0.92586756  -0.32196487      1728000    1103.2783        65750        40724 
13160000   0.99169863   -0.3270914      1728000     1104.085        65800        40757 
13170000   0.96684214  -0.33365406      1728000    1104.8964        65850        40789 
13180000    1.0155824  -0.30589744      1728000     1105.714        65900        40823 
13190000   0.99331139  -0.32451407      1728000    1106.6052        65950        40857 
13200000   0.89008881  -0.34984284      1728000    1107.4752        66000        40889 
13210000   0.97218108  -0.34381427      1728000      1108.29        66050        40912 
13220000   0.98553552  -0.31974938      1728000    1109.1031        66100        40940 
13230000    1.0138321   -0.3234892      1728000    1109.9535        66150        40971 
13240000   0.95302301  -0.32678286      1728000    1110.8121        66200        41006 
13250000    1.0322258   -0.3267088      1728000    1111.6318        66250        41038 
13260000    1.0125204  -0.36192163      1728000    1112.4422        66300        41073 
13270000    1.0197164  -0.33079795      1728000    1113.2631        66350        41098 
13280000    0.9929765  -0.34098567      1728000    1114.0933        66400        41132 
13290000    1.0331058  -0.32130635      1728000    1114.8962        66450        41165 
13300000    1.0046994  -0.31323975      1728000    1115.7152        66500        41193 
13310000    1.0376222   -0.3227194      1728000     1116.541        66550        41225 
13320000    1.0412444  -0.31109857      1728000    1117.3732        66600        41259 
13330000     1.024084  -0.32200954      1728000     1118.293        66650        41292 
13340000   0.94306073  -0.32426357      1728000    1119.0982        66700        41324 
13350000   0.99339709  -0.30543635      1728000    1119.9292        66750        41359 
13360000   0.91601936  -0.32626804      1728000    1120.7492        66800        41389 
13370000   0.94502807  -0.31938909      1728000    1121.5572        66850        41423 
13380000     1.069331  -0.34638392      1728000    1122.3961        66900        41453 
13390000   0.97474449  -0.33974447      1728000    1123.2133        66950        41481 
13400000   0.97710929  -0.35308341      1728000     1124.036        67000        41512 
13410000    1.0169538  -0.34728755      1728000     1124.867        67050        41545 
13420000   0.98227641  -0.35980162      1728000    1125.6801        67100        41579 
13430000   0.98337282  -0.35319487      1728000    1126.5599        67150        41616 
13440000    1.0041169  -0.36303145      1728000    1127.5182        67200        41647 
13450000    1.0173717  -0.34195549      1728000    1128.3453        67250        41682 
13460000    1.0479042  -0.33995581      1728000    1129.1572        67300        41715 
13470000   0.97915781  -0.34250757      1728000    1129.9972        67350        41748 
13480000   0.99145132  -0.31630992      1728000    1130.8331        67400        41778 
13490000   0.95087583  -0.35138657      1728000    1131.6582        67450        41803 
13500000   0.99037591  -0.33240367      1728000    1132.4882        67500        41833 
13510000   0.99790896   -0.3503405      1728000    1133.2992        67550        41863 
13520000    1.0638334  -0.33673381      1728000    1134.1321        67600        41891 
13530000   0.96534773  -0.33947332      1728000    1134.9932        67650        41921 
13540000    1.0233235  -0.32958422      1728000    1135.8011        67700        41953 
13550000    1.0541482  -0.33802442      1728000     1136.629        67750        41988 
13560000   0.97371754  -0.30787431      1728000     1137.452        67800        42022 
13570000   0.99647962  -0.34310385      1728000    1138.2571        67850        42058 
13580000     0.978346  -0.34401826      1728000    1139.0533        67900        42094 
13590000   0.99606671  -0.33159992      1728000    1139.8859        67950        42127 
13600000   0.95158052  -0.33465448      1728000     1140.716        68000        42158 
13610000    1.0234698  -0.37249311      1728000     1141.595        68050        42194 
13620000   0.92190373  -0.34998418      1728000    1142.4379        68100        42230 
13630000   0.98509992  -0.33632624      1728000    1143.2711        68150        42257 
13640000   0.99434866  -0.34091364      1728000     1144.108        68200        42289 
13650000     1.034077  -0.36188117      1728000    1144.9212        68250        42317 
13660000   0.99132794    -0.360661      1728000    1145.7352        68300        42346 
13670000    0.9820546  -0.36781675      1728000    1146.5499        68350        42372 
13680000    1.0248609  -0.36127555      1728000    1147.4309        68400        42406 
13690000    1.0051332  -0.36826945      1728000    1148.2756        68450        42437 
13700000   0.97924869  -0.34731174      1728000    1149.1998        68500        42472 
13710000   0.97103439  -0.37106584      1728000    1150.0031        68550        42502 
13720000   0.99563241  -0.34836975      1728000    1150.8212        68600        42534 
13730000    1.0406896   -0.3632303      1728000    1151.6382        68650        42564 
13740000    1.0153557  -0.35499247      1728000     1152.443        68700        42595 
13750000    1.0264361   -0.3577074      1728000    1153.2482        68750        42629 
13760000     1.001356  -0.38900515      1728000    1154.0622        68800        42659 
13770000    0.9966449  -0.37705976      1728000    1154.8869        68850        42690 
13780000   0.97424088  -0.35677975      1728000    1155.7189        68900        42723 
13790000    1.0247985  -0.36299419      1728000    1156.5941        68950        42755 
13800000    1.0558519  -0.34683304      1728000    1157.4582        69000        42785 
13810000    1.0029585  -0.34409071      1728000    1158.2782        69050        42816 
13820000      1.07159   -0.3521277      1728000    1159.0911        69100        42851 
13830000    1.0121108  -0.34673996      1728000    1159.9141        69150        42881 
13840000     1.052246  -0.36097094      1728000    1160.7321        69200        42914 
13850000    1.0148724  -0.37540023      1728000    1161.5429        69250        42950 
13860000   0.93033545  -0.35119576      1728000    1162.4081        69300        42981 
13870000   0.94935763  -0.35186388      1728000     1163.244        69350        43013 
13880000    1.0267325  -0.36511231      1728000    1164.0671        69400        43045 
13890000    1.0413156  -0.33042116      1728000    1164.8931        69450        43081 
13900000   0.98940216    -0.338176      1728000    1165.7501        69500        43112 
13910000   0.98246938  -0.34264164      1728000    1166.5699        69550        43149 
13920000    1.0091647  -0.33778651      1728000    1167.4207        69600        43179 
13930000   0.94694373  -0.34290979      1728000    1168.2548        69650        43213 
13940000    1.0070234  -0.35905294      1728000    1169.0771        69700        43246 
13950000    0.9984351  -0.35016187      1728000    1169.9082        69750        43275 
13960000   0.99648576  -0.35414505      1728000     1170.753        69800        43303 
13970000    1.0426756  -0.33918187      1728000    1171.5641        69850        43335 
13980000    1.0049982  -0.32135267      1728000    1172.3682        69900        43367 
13990000   0.99898398  -0.30995292      1728000    1173.1802        69950        43401 
14000000   0.95251491  -0.33370385      1728000    1174.0441        70000        43433 
14010000   0.95940986  -0.30873421      1728000    1174.8971        70050        43465 
14020000   0.98043595  -0.30250201      1728000    1175.7378        70100        43495 
14030000   0.99601775  -0.30976473      1728000    1176.5507        70150        43531 
14040000    1.0259054  -0.30246603      1728000    1177.4128        70200        43564 
14050000    1.0082055   -0.3148436      1728000    1178.2717        70250        43597 
14060000    1.0240241  -0.31631999      1728000    1179.0821        70300        43627 
14070000   0.98692226  -0.29557774      1728000     1179.892        70350        43663 
14080000    1.0767046  -0.33303782      1728000    1180.7132        70400        43696 
14090000   0.94898344    -0.321237      1728000    1181.5671        70450        43724 
14100000   0.98301823  -0.32755172      1728000     1182.413        70500        43758 
14110000   0.99316774  -0.34928989      1728000     1183.236        70550        43789 
14120000   0.95278795  -0.33354477      1728000    1184.0818        70600        43815 
14130000     1.020579  -0.34413495      1728000    1184.9828        70650        43843 
14140000    1.0579364  -0.35147084      1728000    1185.8973        70700        43882 
14150000    1.0129108  -0.35759473      1728000    1186.7245        70750        43909 
14160000   0.98552306  -0.35146184      1728000    1187.5464        70800        43941 
14170000   0.95529154  -0.35123341      1728000     1188.383        70850        43979 
14180000    1.0065399  -0.34502041      1728000    1189.2359        70900        44011 
14190000   0.95825226   -0.3696667      1728000     1190.075        70950        44044 
14200000   0.95848024   -0.3604593      1728000    1190.9092        71000        44082 
14210000    1.0268769  -0.37171684      1728000    1191.7523        71050        44109 
14220000    1.0017776  -0.34322838      1728000    1192.5779        71100        44141 
14230000   0.99387996  -0.37320856      1728000    1193.3971        71150        44170 
14240000   0.98458045  -0.34450391      1728000    1194.2071        71200        44205 
14250000   0.98002656   -0.3666104      1728000     1195.014        71250        44233 
14260000    1.0188794  -0.34925299      1728000    1195.8389        71300        44262 
14270000    1.0057731  -0.35963134      1728000    1196.6709        71350        44289 
14280000    1.0648833  -0.33779312      1728000    1197.5091        71400        44318 
14290000    1.0279419  -0.33478516      1728000    1198.3209        71450        44349 
14300000      1.10098  -0.34170867      1728000     1199.141        71500        44381 
14310000     1.048322  -0.34381637      1728000    1199.9591        71550        44422 
14320000   0.99937316  -0.32456484      1728000    1200.7894        71600        44451 
14330000    1.0091943   -0.3383517      1728000    1201.6377        71650        44481 
14340000    1.0147713  -0.33568602      1728000    1202.5338        71700        44511 
14350000    1.0330313  -0.34276148      1728000    1203.3818        71750        44546 
14360000   0.94869071  -0.36602664      1728000     1204.222        71800        44578 
14370000    1.0751634  -0.32934256      1728000     1205.117        71850        44609 
14380000    1.0146946  -0.34732439      1728000    1205.9482        71900        44644 
14390000   0.98815113  -0.32219122      1728000    1206.7953        71950        44681 
14400000     1.019299  -0.33423749      1728000    1207.6404        72000        44712 
14410000   0.99045503  -0.33312999      1728000    1208.4627        72050        44733 
14420000   0.92974317  -0.33415197      1728000    1209.2869        72100        44769 
14430000   0.99889024  -0.34329827      1728000    1210.1197        72150        44804 
14440000     0.931876   -0.3493141      1728000    1210.9698        72200        44835 
14450000   0.97297294  -0.35374631      1728000    1211.7874        72250        44876 
14460000    1.0209422  -0.35264917      1728000    1212.6106        72300        44908 
14470000   0.92567031  -0.35009663      1728000    1213.4397        72350        44942 
14480000    1.0431901  -0.35606743      1728000    1214.2829        72400        44969 
14490000    1.0278433   -0.3686825      1728000    1215.1219        72450        44996 
14500000   0.96655847  -0.35302377      1728000    1215.9811        72500        45019 
14510000   0.98138245  -0.36436185      1728000     1216.793        72550        45056 
14520000   0.91229481  -0.33422845      1728000     1217.632        72600        45090 
14530000     1.010018  -0.35194877      1728000    1218.4958        72650        45120 
14540000   0.97978063  -0.32966193      1728000    1219.3405        72700        45152 
14550000    1.0248709  -0.33815175      1728000    1220.2023        72750        45181 
14560000    1.0282505  -0.34794291      1728000    1221.0564        72800        45210 
14570000    1.0539726  -0.32814404      1728000    1221.8677        72850        45237 
14580000    1.0342081  -0.33024759      1728000     1222.682        72900        45266 
14590000   0.96786137  -0.34074156      1728000    1223.4841        72950        45297 
14600000    1.0370186  -0.32869142      1728000     1224.299        73000        45332 
14610000    1.0001983  -0.32607378      1728000    1225.1041        73050        45362 
14620000    1.0032794  -0.32565493      1728000     1225.904        73100        45397 
14630000    1.0157968  -0.32951074      1728000      1226.71        73150        45427 
14640000   0.98445382  -0.33858165      1728000    1227.5141        73200        45458 
14650000   0.98255246  -0.32463783      1728000    1228.3371        73250        45494 
14660000    1.0121811  -0.33465286      1728000    1229.1798        73300        45527 
14670000   0.96629195  -0.33613469      1728000    1230.0131        73350        45564 
14680000    1.0419681  -0.34439385      1728000     1230.855        73400        45596 
14690000     1.032394  -0.33171518      1728000    1231.6739        73450        45624 
14700000   0.97535266  -0.34207741      1728000    1232.5794        73500        45652 
14710000   0.97989574  -0.33213154      1728000    1233.4325        73550        45688 
14720000   0.98105872   -0.3549154      1728000    1234.2559        73600        45720 
14730000    1.0191699  -0.36133537      1728000    1235.0821        73650        45754 
14740000   0.93769015  -0.33047713      1728000    1235.9036        73700        45783 
14750000    1.0644592  -0.32507421      1728000    1236.7276        73750        45815 
14760000   0.95288306  -0.34752823      1728000     1237.551        73800        45853 
14770000    1.0216828  -0.34360085      1728000     1238.454        73850        45879 
14780000   0.99112904  -0.33132195      1728000    1239.3621        73900        45907 
14790000    1.0492097  -0.35471253      1728000    1240.1844        73950        45934 
14800000   0.95398608  -0.35298068      1728000    1241.0041        74000        45964 
14810000    1.0420957  -0.32592065      1728000    1241.8329        74050        45992 
14820000    1.0411588  -0.35162179      1728000     1242.655        74100        46025 
14830000     1.086054  -0.38107145      1728000       1243.6        74150        46055 
14840000    1.0254581  -0.37159494      1728000    1244.4332        74200        46089 
14850000     1.051154  -0.36809622      1728000    1245.2598        74250        46120 
14860000   0.99573089  -0.37121416      1728000     1246.091        74300        46154 
14870000   0.94141616  -0.37509541      1728000    1246.9059        74350        46183 
14880000    1.0185278  -0.35393648      1728000    1247.7429        74400        46213 
14890000    1.0318409  -0.36749544      1728000    1248.5419        74450        46247 
14900000    1.0213003  -0.35359419      1728000    1249.4366        74500        46271 
14910000    1.0204767  -0.37027224      1728000     1250.291        74550        46299 
14920000    1.0308411  -0.35626634      1728000    1251.1101        74600        46331 
14930000   0.98445505  -0.35092166      1728000    1251.9259        74650        46363 
14940000    1.0476096  -0.33851815      1728000     1252.741        74700        46396 
14950000     1.004572  -0.35093425      1728000    1253.5501        74750        46424 
14960000   0.98237107  -0.36338708      1728000    1254.3629        74800        46455 
14970000    1.0511956  -0.37331743      1728000     1255.176        74850        46488 
14980000   0.98740753  -0.41070082      1728000     1256.003        74900        46517 
14990000   0.91192964  -0.39339852      1728000     1256.829        74950        46549 
15000000   0.98053421  -0.40537208      1728000    1257.7021        75000        46582 
15010000    1.0465709  -0.37623766      1728000     1258.524        75050        46616 
15020000   0.98635577  -0.39193298      1728000    1259.3398        75100        46644 
15030000   0.98305696    -0.404143      1728000     1260.169        75150        46670 
15040000    1.0199906  -0.40413401      1728000    1260.9901        75200        46699 
15050000   0.99859875  -0.37624438      1728000    1261.8349        75250        46728 
15060000    1.0292882  -0.36379962      1728000    1262.6771        75300        46755 
15070000   0.91836122  -0.37924507      1728000    1263.5259        75350        46780 
15080000   0.99260882  -0.38729581      1728000    1264.3498        75400        46812 
15090000   0.99909029  -0.40092401      1728000     1265.203        75450        46841 
15100000   0.96892198   -0.4146927      1728000    1266.0619        75500        46869 
15110000   0.93880072  -0.38085324      1728000    1266.9078        75550        46906 
15120000   0.93130728  -0.39494286      1728000    1267.7779        75600        46934 
15130000   0.98434418  -0.35285308      1728000     1268.629        75650        46963 
15140000    1.0648842   -0.3347572      1728000    1269.5159        75700        46997 
15150000   0.97845812  -0.36091441      1728000    1270.3498        75750        47028 
15160000    1.0220948  -0.33585113      1728000    1271.1937        75800        47058 
15170000   0.99048054   -0.3451593      1728000    1272.1467        75850        47090 
15180000    0.9956953  -0.33898632      1728000    1272.9757        75900        47122 
15190000   0.97624874  -0.32040733      1728000    1273.8407        75950        47156 
15200000   0.98997196    -0.338928      1728000    1274.7257        76000        47189 
15210000    1.0173815  -0.35117182      1728000    1275.5619        76050        47221 
15220000    1.0014607  -0.35755394      1728000    1276.4006        76100        47251 
15230000    1.0109104  -0.33200355      1728000    1277.2242        76150        47283 
15240000    1.0099201  -0.36310571      1728000    1278.0624        76200        47311 
15250000    1.0059404  -0.32718521      1728000     1278.889        76250        47343 
15260000    1.0190238   -0.3403381      1728000    1279.7187        76300        47373 
15270000    1.0132227  -0.33257065      1728000     1280.542        76350        47408 
15280000    1.0567797  -0.34872711      1728000    1281.3646        76400        47442 
15290000    1.0094176  -0.34987187      1728000    1282.2517        76450        47472 
15300000    1.0260702  -0.36159155      1728000    1283.0811        76500        47502 
15310000   0.98752097  -0.36676685      1728000    1283.9168        76550        47532 
15320000    0.9916944  -0.35426826      1728000      1284.75        76600        47559 
15330000   0.96691838   -0.3659576      1728000    1285.5849        76650        47591 
15340000   0.99452592  -0.36002175      1728000    1286.4515        76700        47623 
15350000    1.0273131  -0.37108372      1728000    1287.2986        76750        47653 
15360000    1.0095276  -0.38672101      1728000    1288.1219        76800        47686 
15370000    1.0799007  -0.41144208      1728000     1288.944        76850        47712 
15380000    1.0568748  -0.41738938      1728000     1289.803        76900        47738 
15390000   0.97438204  -0.39625084      1728000      1290.63        76950        47761 
15400000    1.0142933  -0.39171503      1728000    1291.4899        77000        47790 
15410000    1.0028542  -0.38803289      1728000     1292.332        77050        47821 
15420000   0.98331607   -0.4117547      1728000    1293.1839        77100        47851 
15430000   0.98781579  -0.38666624      1728000     1294.022        77150        47880 
15440000   0.94985686   -0.4181491      1728000     1294.843        77200        47915 
15450000    1.0259718  -0.41526915      1728000    1295.6868        77250        47945 
15460000    1.0401579  -0.39589015      1728000    1296.5432        77300        47978 
15470000   0.95793911  -0.39448152      1728000    1297.3675        77350        48013 
15480000    1.0112102  -0.37397366      1728000    1298.1878        77400        48044 
15490000     1.003132  -0.37205803      1728000    1299.0138        77450        48070 
15500000   0.99323599  -0.40390365      1728000    1299.8599        77500        48101 
15510000   0.98079443  -0.38116262      1728000    1300.6909        77550        48133 
15520000   0.98980519  -0.39947406      1728000    1301.5686        77600        48164 
15530000    1.0187379  -0.39366332      1728000    1302.4936        77650        48188 
15540000   0.99618779  -0.38028693      1728000    1303.3747        77700        48220 
15550000    1.0187435  -0.36104695      1728000    1304.2318        77750        48248 
15560000   0.99440373  -0.37426105      1728000     1305.079        77800        48275 
15570000     1.030475  -0.36909158      1728000    1305.8869        77850        48299 
15580000    0.8736948  -0.37558365      1728000    1306.8288        77900        48330 
15590000    1.0076204  -0.34472136      1728000     1307.672        77950        48356 
15600000   0.97605098  -0.37920207      1728000    1308.4929        78000        48390 
15610000    1.0199101  -0.37082565      1728000    1309.3188        78050        48414 
15620000   0.92375591  -0.37028018      1728000     1310.131        78100        48451 
15630000    1.0162992   -0.3849886      1728000    1310.9578        78150        48476 
15640000    0.9520202  -0.40896559      1728000    1311.8059        78200        48505 
15650000    1.0017615  -0.39321958      1728000    1312.6288        78250        48529 
15660000     1.026668  -0.39870417      1728000    1313.5147        78300        48560 
15670000    1.0076873  -0.38895747      1728000    1314.3635        78350        48595 
15680000   0.95667066  -0.35685767      1728000    1315.1815        78400        48628 
15690000    1.0045252  -0.36892138      1728000    1316.0167        78450        48661 
15700000   0.92766844  -0.34666096      1728000    1316.8646        78500        48694 
15710000    1.0414276  -0.34895334      1728000    1317.7005        78550        48724 
15720000    1.0302047  -0.34839434      1728000      1318.58        78600        48756 
15730000    1.0208927  -0.34690387      1728000    1319.3978        78650        48786 
15740000    1.0576767  -0.34385218      1728000    1320.2129        78700        48806 
15750000   0.95397938   -0.3225625      1728000    1321.0603        78750        48834 
15760000    1.0451955   -0.3702442      1728000    1321.9004        78800        48860 
15770000    1.0182578  -0.34428239      1728000    1322.7524        78850        48889 
15780000   0.97541655  -0.35268853      1728000    1323.5698        78900        48924 
15790000    1.0022394  -0.35433088      1728000     1324.412        78950        48958 
15800000   0.94807049  -0.34899598      1728000    1325.2691        79000        48994 
15810000   0.94378078  -0.35827628      1728000    1326.0888        79050        49026 
15820000    1.0131018  -0.36960685      1728000     1326.911        79100        49056 
15830000    1.0110935  -0.36707597      1728000      1327.74        79150        49090 
15840000    1.0209399  -0.33859932      1728000    1328.5742        79200        49123 
15850000    1.0287171   -0.3531487      1728000    1329.3844        79250        49153 
15860000   0.96481647  -0.35785213      1728000    1330.2098        79300        49190 
15870000    1.0308352  -0.36026019      1728000    1331.0349        79350        49219 
15880000   0.93805172  -0.36851821      1728000    1331.9377        79400        49246 
15890000    1.0010012  -0.35476385      1728000    1332.8129        79450        49274 
15900000   0.97078079  -0.37318652      1728000    1333.6469        79500        49302 
15910000    1.0556806  -0.38382103      1728000    1334.4836        79550        49333 
15920000   0.96081732  -0.38082387      1728000    1335.2948        79600        49365 
15930000   0.98953702  -0.36995961      1728000    1336.1405        79650        49391 
15940000   0.96557214  -0.36876399      1728000    1336.9607        79700        49425 
15950000   0.99027425   -0.3611328      1728000    1337.8009        79750        49453 
15960000   0.98569614  -0.36067061      1728000      1338.63        79800        49485 
15970000   0.92946277  -0.35090094      1728000    1339.4648        79850        49512 
15980000     1.048402  -0.37007925      1728000    1340.3195        79900        49543 
15990000    1.0163869  -0.31707742      1728000    1341.1746        79950        49578 
16000000   0.93834867  -0.33015941      1728000    1342.0427        80000        49612 
16010000   0.99803738  -0.33513431      1728000    1342.8879        80050        49643 
16020000    1.0462252  -0.35410124      1728000    1343.7511        80100        49671 
16030000    1.0207702  -0.37806039      1728000    1344.6222        80150        49703 
16040000   0.98404922  -0.36998604      1728000    1345.5073        80200        49736 
16050000    0.9586168  -0.38887047      1728000    1346.3575        80250        49761 
16060000   0.93958913  -0.37858016      1728000    1347.2036        80300        49785 
16070000   0.98551169  -0.34583696      1728000    1348.0108        80350        49815 
16080000    1.0246509  -0.34005104      1728000    1348.8167        80400        49844 
16090000    1.0154853  -0.33707359      1728000    1349.6379        80450        49874 
16100000   0.96979973  -0.33233936      1728000    1350.4956        80500        49909 
16110000    1.0585543  -0.32208043      1728000    1351.3235        80550        49939 
16120000    1.0282294  -0.34268032      1728000    1352.1846        80600        49971 
16130000   0.94290835   -0.3264162      1728000    1353.0008        80650        50004 
16140000    0.9911843  -0.33742321      1728000    1353.8139        80700        50032 
16150000    1.0237723  -0.32611422      1728000    1354.6667        80750        50058 
16160000   0.93224447  -0.32273578      1728000    1355.4808        80800        50089 
16170000    1.0585433  -0.33408748      1728000    1356.2978        80850        50120 
16180000    1.0320957  -0.33731262      1728000    1357.1119        80900        50149 
16190000    1.0447995  -0.33212635      1728000    1357.9449        80950        50180 
16200000    1.0769269  -0.33403324      1728000    1358.7636        81000        50210 
16210000    1.0553117  -0.34207604      1728000    1359.5747        81050        50246 
16220000    1.0887836  -0.33084145      1728000    1360.3938        81100        50277 
16230000    1.0489931  -0.33977971      1728000    1361.1957        81150        50302 
16240000   0.97945744  -0.32347532      1728000    1362.0088        81200        50331 
16250000   0.99883356  -0.35502297      1728000     1362.842        81250        50359 
16260000    1.0515917  -0.34196902      1728000    1363.6851        81300        50388 
16270000     1.025785  -0.33843359      1728000    1364.5213        81350        50417 
16280000   0.97586367  -0.34865494      1728000    1365.3645        81400        50448 
16290000    1.0514932  -0.33848245      1728000    1366.1996        81450        50478 
16300000   0.97451643  -0.33034225      1728000    1367.0837        81500        50507 
16310000   0.99748467  -0.35847358      1728000    1367.9268        81550        50536 
16320000   0.99650815  -0.33979107      1728000     1368.774        81600        50565 
16330000   0.97955734  -0.35394773      1728000    1369.5868        81650        50594 
16340000   0.99750534  -0.36924197      1728000    1370.4048        81700        50624 
16350000    1.0266164  -0.35085432      1728000    1371.2479        81750        50654 
16360000    1.0093092  -0.34782053      1728000    1372.0838        81800        50676 
16370000    1.0212698  -0.34526694      1728000    1372.8945        81850        50706 
16380000   0.95554014  -0.33761359      1728000    1373.7586        81900        50741 
16390000     1.001001  -0.34525879      1728000    1374.6428        81950        50773 
16400000   0.93941653  -0.32613829      1728000    1375.4596        82000        50803 
16410000    1.0443897  -0.33179985      1728000    1376.2749        82050        50836 
16420000    1.0025435  -0.31548913      1728000    1377.1008        82100        50877 
16430000   0.97197405   -0.3116395      1728000    1377.9207        82150        50912 
16440000   0.99105645  -0.34840227      1728000    1378.7389        82200        50939 
16450000     1.016204  -0.32407733      1728000    1379.5729        82250        50967 
16460000   0.95782457  -0.33922354      1728000    1380.3909        82300        51003 
16470000    1.0344747  -0.31040462      1728000    1381.2027        82350        51036 
16480000    1.0088175  -0.34289037      1728000    1382.0768        82400        51070 
16490000   0.96800222  -0.32205681      1728000    1382.8938        82450        51102 
16500000   0.96087886  -0.33297036      1728000    1383.7638        82500        51135 
16510000    1.0233362  -0.32922449      1728000    1384.5799        82550        51169 
16520000    1.0293726  -0.37828075      1728000    1385.3988        82600        51201 
16530000   0.96055156  -0.34763646      1728000    1386.2178        82650        51231 
16540000    0.9922744  -0.36269333      1728000    1387.0379        82700        51267 
16550000    1.0518557  -0.35756112      1728000    1387.8479        82750        51295 
16560000    1.0190719  -0.37225552      1728000    1388.6667        82800        51330 
16570000   0.98139138  -0.35937895      1728000    1389.4778        82850        51361 
16580000   0.97624743  -0.35347658      1728000    1390.2948        82900        51388 
16590000    1.0050181  -0.37935442      1728000    1391.1155        82950        51421 
16600000   0.97164095  -0.37666889      1728000    1391.9378        83000        51448 
16610000    1.0243542  -0.39032737      1728000    1392.7589        83050        51470 
16620000   0.96537892  -0.38713062      1728000    1393.5818        83100        51497 
16630000    1.0313395   -0.3537969      1728000    1394.3988        83150        51528 
16640000    1.0731663  -0.35204696      1728000    1395.2058        83200        51561 
16650000    1.0489939   -0.3627344      1728000    1396.0186        83250        51592 
16660000   0.98924418  -0.36632649      1728000     1396.868        83300        51616 
16670000   0.95549184  -0.38293815      1728000    1397.6947        83350        51641 
16680000   0.99568449  -0.38989248      1728000    1398.5089        83400        51665 
16690000    1.0695417  -0.39454693      1728000    1399.3257        83450        51696 
16700000   0.96908426  -0.38871631      1728000    1400.1565        83500        51727 
16710000    1.0313445  -0.39101063      1728000    1400.9768        83550        51751 
16720000    1.0355845    -0.371421      1728000    1401.7927        83600        51779 
16730000    1.0242434  -0.39206782      1728000    1402.6125        83650        51812 
16740000    1.0140735  -0.36159241      1728000    1403.4635        83700        51840 
16750000   0.95003428  -0.36261913      1728000    1404.2985        83750        51871 
16760000    1.0299426  -0.36285981      1728000    1405.1198        83800        51901 
16770000   0.98056561  -0.39206782      1728000    1405.9489        83850        51929 
16780000   0.96635652  -0.37742892      1728000    1406.7656        83900        51959 
16790000     1.009598   -0.3597805      1728000    1407.5886        83950        51990 
16800000   0.93846641  -0.36704356      1728000    1408.4348        84000        52020 
16810000   0.99316242  -0.38350483      1728000    1409.2816        84050        52048 
16820000   0.98331421  -0.39225304      1728000    1410.1306        84100        52082 
16830000    1.0059816   -0.4087075      1728000    1410.9568        84150        52115 
16840000    1.0226089  -0.39881711      1728000    1411.8278        84200        52146 
16850000   0.92597606  -0.38240982      1728000    1412.6758        84250        52174 
16860000    1.0468884  -0.40658175      1728000    1413.5148        84300        52197 
16870000   0.98211512   -0.3893555      1728000    1414.3347        84350        52225 
16880000   0.96633161  -0.37571761      1728000    1415.1587        84400        52259 
16890000   0.96405493  -0.36099517      1728000    1415.9809        84450        52290 
16900000   0.97287205  -0.36977683      1728000    1416.8395        84500        52316 
16910000    1.0024698  -0.35505557      1728000    1417.6754        84550        52344 
16920000   0.98035613  -0.34129296      1728000    1418.5085        84600        52377 
16930000    1.0171849  -0.32478655      1728000     1419.341        84650        52404 
16940000   0.99573434   -0.3529078      1728000    1420.1804        84700        52433 
16950000    1.0329779  -0.36362944      1728000    1421.0046        84750        52462 
16960000     1.002023  -0.35349386      1728000    1421.8457        84800        52489 
16970000   0.95078451  -0.34698469      1728000    1422.6848        84850        52515 
16980000    1.0719177  -0.34942043      1728000    1423.5409        84900        52542 
16990000    1.0322696  -0.35760248      1728000    1424.3516        84950        52575 
17000000   0.96840829  -0.34088095      1728000    1425.1796        85000        52604 
17010000     1.073861  -0.33358447      1728000    1426.0078        85050        52636 
17020000   0.96346141  -0.34511008      1728000    1426.8217        85100        52672 
17030000   0.98446579  -0.35675966      1728000    1427.6397        85150        52698 
17040000     1.019809   -0.3394183      1728000    1428.4655        85200        52726 
17050000   0.94699051  -0.32434518      1728000    1429.2869        85250        52760 
17060000   0.95362105  -0.32222385      1728000    1430.1411        85300        52791 
17070000   0.92996309  -0.32430273      1728000    1430.9558        85350        52822 
17080000   0.96745584  -0.34098266      1728000    1431.7656        85400        52843 
17090000    1.0042983  -0.31669312      1728000    1432.6507        85450        52876 
17100000   0.92785346  -0.33451012      1728000    1433.4868        85500        52909 
17110000    1.0824499  -0.32711978      1728000    1434.3005        85550        52943 
17120000   0.97402986  -0.33831065      1728000    1435.1087        85600        52973 
17130000   0.98514837  -0.33550649      1728000    1435.9156        85650        53012 
17140000   0.96956929  -0.33508411      1728000    1436.7127        85700        53051 
17150000    1.0245087  -0.31408622      1728000    1437.5326        85750        53086 
17160000    1.0131493  -0.30496664      1728000    1438.3586        85800        53115 
17170000    1.0363833  -0.28991786      1728000    1439.1849        85850        53152 
17180000    1.0406471  -0.31102941      1728000    1440.0167        85900        53185 
17190000     1.050032  -0.30712298      1728000    1440.8617        85950        53219 
17200000    1.0168757  -0.30895006      1728000    1441.7097        86000        53252 
17210000   0.91203848  -0.31746423      1728000    1442.5355        86050        53285 
17220000   0.97542476  -0.32150306      1728000    1443.3656        86100        53318 
17230000    1.0391423  -0.32889677      1728000    1444.2497        86150        53347 
17240000     1.045826  -0.30609883      1728000    1445.1087        86200        53380 
17250000    1.0550835  -0.32191361      1728000    1445.9637        86250        53415 
17260000   0.95326482  -0.33504016      1728000    1446.8086        86300        53442 
17270000   0.95541473  -0.33078544      1728000    1447.6268        86350        53474 
17280000   0.97657142  -0.33427981      1728000    1448.4318        86400        53509 
17290000    1.0034101  -0.35526238      1728000    1449.2587        86450        53538 
17300000    1.0181408  -0.34473372      1728000    1450.0867        86500        53575 
17310000   0.97303946   -0.3433212      1728000    1450.9247        86550        53607 
17320000    1.0179687  -0.34568311      1728000    1451.7456        86600        53634 
17330000    1.0045787  -0.36344134      1728000    1452.6676        86650        53666 
17340000   0.99991579  -0.35680799      1728000    1453.5497        86700        53702 
17350000    1.0503368  -0.31881842      1728000    1454.3626        86750        53742 
17360000   0.95834327  -0.33514662      1728000    1455.1807        86800        53768 
17370000    1.0438874   -0.3371808      1728000    1456.0089        86850        53799 
17380000   0.97311654  -0.33134909      1728000    1456.8398        86900        53829 
17390000   0.99038645  -0.31764727      1728000    1457.6797        86950        53858 
17400000    1.0371411  -0.30384618      1728000    1458.4987        87000        53890 
17410000    1.0039116  -0.32203544      1728000    1459.3328        87050        53917 
17420000    1.0430875  -0.34691565      1728000    1460.2019        87100        53946 
17430000    1.0473106  -0.34509133      1728000    1461.0589        87150        53973 
17440000    1.0089508  -0.33998633      1728000    1461.8966        87200        54003 
17450000    0.9815093   -0.3356237      1728000    1462.7767        87250        54031 
17460000    1.0104586  -0.35392833      1728000      1463.59        87300        54066 
17470000    0.9616472  -0.33629714      1728000    1464.3992        87350        54100 
17480000     1.015196  -0.36330276      1728000    1465.2141        87400        54129 
17490000    1.0458788  -0.36065444      1728000    1466.0515        87450        54157 
17500000    0.9376616  -0.34533151      1728000    1466.9146        87500        54184 
17510000   0.95617178  -0.34381575      1728000    1467.7458        87550        54215 
17520000    1.0020981  -0.33498989      1728000    1468.5497        87600        54240 
17530000    1.0151692  -0.34297264      1728000    1469.3648        87650        54275 
17540000   0.97603565  -0.32646219      1728000    1470.1846        87700        54303 
17550000    1.0118112  -0.34986944      1728000    1471.0172        87750        54326 
17560000    1.0552573  -0.33541749      1728000     1471.839        87800        54357 
17570000    1.0325964  -0.32989354      1728000    1472.6622        87850        54388 
17580000    1.0664407  -0.34467997      1728000    1473.4786        87900        54417 
17590000    1.0006453  -0.33137917      1728000       1474.3        87950        54443 
17600000   0.96947086  -0.32395297      1728000    1475.1343        88000        54477 
17610000     1.032924  -0.34103796      1728000    1475.9486        88050        54506 
17620000    1.0004821  -0.33560307      1728000    1476.7618        88100        54536 
17630000    1.0484572  -0.33140808      1728000    1477.5709        88150        54557 
17640000      1.01069  -0.32103527      1728000    1478.3748        88200        54588 
17650000    1.0266586  -0.32378817      1728000    1479.2084        88250        54623 
17660000    1.0222498  -0.31119113      1728000    1480.0327        88300        54647 
17670000   0.99752878  -0.32016365      1728000    1480.8336        88350        54677 
17680000   0.98302329   -0.3289875      1728000    1481.6446        88400        54701 
17690000    1.0624838  -0.31737705      1728000    1482.4548        88450        54734 
17700000     1.012147  -0.34890111      1728000    1483.2667        88500        54767 
17710000   0.99996477  -0.32166864      1728000    1484.0686        88550        54793 
17720000    1.0117847  -0.36371103      1728000    1484.8848        88600        54820 
17730000    1.0035278  -0.36136747      1728000    1485.6906        88650        54853 
17740000   0.99148894  -0.36098788      1728000    1486.4896        88700        54878 
17750000   0.86533009  -0.35919117      1728000    1487.3157        88750        54911 
17760000    1.0016482  -0.34470655      1728000    1488.1197        88800        54944 
17770000   0.94793115  -0.35326056      1728000    1488.9267        88850        54973 
17780000    1.0252285  -0.35311755      1728000    1489.7347        88900        55003 
17790000    1.0131046  -0.38150795      1728000    1490.5476        88950        55031 
17800000    0.9662721  -0.33010382      1728000    1491.3657        89000        55062 
17810000    1.0088014  -0.34527837      1728000    1492.1975        89050        55093 
17820000    1.0250495  -0.34861689      1728000    1493.0336        89100        55125 
17830000    1.0132439  -0.34448792      1728000    1493.8478        89150        55165 
17840000   0.95176735  -0.31873803      1728000    1494.6466        89200        55199 
17850000    1.0525928  -0.34781797      1728000    1495.4467        89250        55234 
17860000    1.0132164  -0.35047503      1728000    1496.2505        89300        55264 
17870000   0.94162864  -0.34273989      1728000    1497.0996        89350        55298 
17880000    1.0430709  -0.34202159      1728000    1497.9234        89400        55328 
17890000    1.0442947  -0.36387675      1728000    1498.7337        89450        55355 
17900000    1.0016837  -0.34261669      1728000    1499.5594        89500        55381 
17910000   0.92910019  -0.34758893      1728000    1500.3736        89550        55410 
17920000    0.9702413  -0.31632953      1728000    1501.2065        89600        55439 
17930000   0.95514869  -0.33205512      1728000    1502.0794        89650        55474 
17940000   0.97379322  -0.33650978      1728000    1502.9854        89700        55508 
17950000    0.9955578  -0.29841304      1728000    1503.8535        89750        55538 
17960000   0.98565575   -0.3174755      1728000    1504.7028        89800        55571 
17970000   0.98086255  -0.30567811      1728000    1505.5081        89850        55599 
17980000   0.97107536  -0.29264282      1728000    1506.3532        89900        55632 
17990000    1.0264002  -0.28966467      1728000    1507.2073        89950        55663 
18000000    1.0150793  -0.30515442      1728000    1508.0777        90000        55697 
18010000    1.0442054  -0.31498723      1728000    1508.9209        90050        55737 
18020000   0.95004371  -0.34249225      1728000     1509.796        90100        55768 
18030000    0.9846377  -0.29593437      1728000    1510.6621        90150        55798 
18040000    1.0154387  -0.28559868      1728000    1511.4956        90200        55831 
18050000   0.99607097  -0.30652936      1728000     1512.326        90250        55867 
18060000    1.0281401  -0.29904478      1728000    1513.1555        90300        55894 
18070000   0.98736453  -0.30537746      1728000    1513.9901        90350        55933 
18080000    1.0067587  -0.31670103      1728000    1514.8129        90400        55959 
18090000    1.0063665  -0.32039043      1728000    1515.6395        90450        55989 
18100000   0.98697237   -0.3197898      1728000    1516.4686        90500        56024 
18110000   0.97077372  -0.33606282      1728000    1517.3198        90550        56054 
18120000   0.98138493  -0.31899144      1728000     1518.125        90600        56087 
18130000   0.99055773  -0.33859012      1728000    1518.9751        90650        56116 
18140000   0.96502449  -0.35208586      1728000    1519.7813        90700        56147 
18150000   0.95608099  -0.36553658      1728000    1520.6087        90750        56188 
18160000   0.98476552  -0.35590246      1728000    1521.4195        90800        56218 
18170000   0.99054158  -0.39079555      1728000    1522.2416        90850        56248 
18180000   0.95494681  -0.37690129      1728000    1523.0574        90900        56280 
18190000   0.95883123  -0.37964036      1728000    1523.9012        90950        56312 
18200000   0.98615766  -0.36974468      1728000    1524.7373        91000        56340 
18210000   0.98475264  -0.39115499      1728000    1525.5596        91050        56369 
18220000   0.97739354  -0.37074064      1728000    1526.3858        91100        56391 
18230000   0.94845285  -0.39681991      1728000    1527.2046        91150        56426 
18240000    1.0127676  -0.37237791      1728000    1528.0469        91200        56454 
18250000   0.96194952  -0.37415427      1728000    1528.8548        91250        56478 
18260000    1.0571289  -0.36328082      1728000    1529.6665        91300        56505 
18270000   0.99464958  -0.36296629      1728000    1530.5175        91350        56537 
18280000    1.0349452  -0.34893738      1728000    1531.3246        91400        56569 
18290000   0.95207787  -0.33984742      1728000    1532.1436        91450        56594 
18300000     1.036932  -0.36028555      1728000    1532.9865        91500        56625 
18310000   0.96771767  -0.36248919      1728000    1533.7927        91550        56658 
18320000   0.97376206  -0.35452328      1728000    1534.5956        91600        56691 
18330000   0.99043476  -0.36765079      1728000    1535.4076        91650        56719 
18340000   0.99330848  -0.36014937      1728000    1536.2696        91700        56751 
18350000    1.0189682  -0.36403936      1728000    1537.0904        91750        56786 
18360000   0.97085642  -0.36660111      1728000    1537.9066        91800        56816 
18370000    1.0048459  -0.37282025      1728000    1538.7196        91850        56846 
18380000    1.0466934  -0.36965921      1728000    1539.5316        91900        56877 
18390000     1.002227  -0.37461323      1728000    1540.3616        91950        56910 
18400000    1.0080991  -0.36957116      1728000    1541.1765        92000        56940 
18410000     1.047637  -0.39400455      1728000    1541.9906        92050        56971 
18420000     1.038038  -0.37932757      1728000    1542.8256        92100        57001 
18430000   0.99031533  -0.37976219      1728000    1543.6806        92150        57036 
18440000   0.99793176  -0.35206863      1728000    1544.5186        92200        57069 
18450000   0.97986766  -0.32948566      1728000    1545.3306        92250        57100 
18460000   0.98172144  -0.34925743      1728000    1546.1385        92300        57138 
18470000   0.98074815  -0.33556619      1728000    1546.9466        92350        57173 
18480000   0.99645809  -0.32692008      1728000    1547.7615        92400        57206 
18490000   0.97350745  -0.34075549      1728000    1548.5746        92450        57234 
18500000    0.9947817  -0.33915345      1728000    1549.4044        92500        57269 
18510000    1.0012293  -0.35769993      1728000     1550.245        92550        57297 
18520000    1.0287837  -0.33765217      1728000    1551.0816        92600        57336 
18530000   0.98738482  -0.35395594      1728000    1551.9197        92650        57368 
18540000     1.032161  -0.35253896      1728000    1552.7609        92700        57400 
18550000    1.0662535  -0.34270851      1728000     1553.607        92750        57428 
18560000    0.9569394  -0.35704519      1728000    1554.4631        92800        57458 
18570000    1.0438384  -0.35305869      1728000    1555.2844        92850        57486 
18580000   0.97294894  -0.37597913      1728000    1556.1176        92900        57512 
18590000    1.0341087  -0.35753389      1728000    1556.9445        92950        57539 
18600000    1.0145609  -0.35410066      1728000    1557.7815        93000        57567 
18610000   0.96757941  -0.36196771      1728000    1558.6025        93050        57598 
18620000   0.96133424  -0.36578711      1728000    1559.4244        93100        57632 
18630000    0.9971091  -0.38669267      1728000    1560.2816        93150        57659 
18640000    1.0636669  -0.36661498      1728000    1561.0911        93200        57694 
18650000    1.0066755  -0.36961462      1728000    1561.9218        93250        57725 
18660000    1.0206404  -0.35997272      1728000    1562.7306        93300        57756 
18670000    1.0333543   -0.3542671      1728000    1563.5515        93350        57785 
18680000   0.99275209  -0.37913729      1728000    1564.4224        93400        57819 
18690000    1.0283179  -0.34997222      1728000    1565.3604        93450        57843 
18700000   0.99261639  -0.37331129      1728000    1566.2046        93500        57877 
18710000   0.95038895  -0.33296469      1728000    1567.0228        93550        57912 
18720000   0.98431933  -0.32862875      1728000    1567.8454        93600        57948 
18730000    1.0043358  -0.33612319      1728000    1568.6626        93650        57977 
18740000    1.0632668  -0.33162657      1728000    1569.4877        93700        58011 
18750000   0.99461142  -0.31563096      1728000    1570.3149        93750        58047 
18760000    1.0186109  -0.34760677      1728000    1571.1483        93800        58082 
18770000     1.030589  -0.30928397      1728000    1572.0094        93850        58118 
18780000    1.0417116  -0.31193014      1728000    1572.8486        93900        58149 
18790000   0.99249658   -0.3114295      1728000    1573.6866        93950        58183 
18800000   0.97601446  -0.33213379      1728000    1574.5347        94000        58211 
18810000   0.97929678   -0.3253942      1728000    1575.3578        94050        58240 
18820000    0.9818486   -0.3320843      1728000     1576.174        94100        58273 
18830000   0.90678404  -0.30731806      1728000    1577.0222        94150        58308 
18840000   0.98397314   -0.3448332      1728000    1577.8703        94200        58335 
18850000    1.0281237   -0.3329143      1728000    1578.7534        94250        58366 
18860000    1.0008844  -0.31858746      1728000    1579.6754        94300        58401 
18870000    1.0189015  -0.32188223      1728000    1580.5915        94350        58427 
18880000    1.0451159  -0.34024674      1728000    1581.4976        94400        58467 
18890000    0.9840416  -0.32544845      1728000    1582.4396        94450        58498 
18900000   0.98380473  -0.33695888      1728000    1583.3227        94500        58530 
18910000   0.97200149   -0.3397071      1728000    1584.1783        94550        58562 
18920000     1.018019  -0.31321569      1728000    1585.0684        94600        58601 
18930000    1.0059678  -0.32295817      1728000    1585.9395        94650        58637 
18940000   0.98655452  -0.32378273      1728000    1586.8049        94700        58673 
18950000   0.95660016  -0.35093491      1728000    1587.6204        94750        58704 
18960000   0.99984306  -0.34375928      1728000    1588.4745        94800        58738 
18970000    0.9643096  -0.36023154      1728000    1589.2915        94850        58767 
18980000    0.9776266  -0.32864142      1728000    1590.1074        94900        58802 
18990000    1.0013469  -0.33222045      1728000    1590.9144        94950        58834 
19000000    1.0034311  -0.34121702      1728000    1591.7733        95000        58870 
19010000   0.99582352   -0.3602411      1728000    1592.5956        95050        58898 
19020000   0.94803441  -0.34703427      1728000    1593.4035        95100        58930 
19030000   0.99217789  -0.35963444      1728000    1594.2125        95150        58961 
19040000   0.95781613  -0.38671307      1728000    1595.0206        95200        58994 
19050000    1.0032319  -0.38642038      1728000     1595.856        95250        59023 
19060000    1.0167188  -0.37961512      1728000    1596.6756        95300        59059 
19070000    1.0303667  -0.37587371      1728000    1597.5146        95350        59095 
19080000    1.0218817  -0.37530824      1728000    1598.4126        95400        59128 
19090000    1.0220882  -0.37430607      1728000    1599.2202        95450        59159 
19100000    1.0084538  -0.37856522      1728000    1600.0376        95500        59192 
19110000   0.96863161  -0.35511172      1728000    1600.8715        95550        59222 
19120000   0.98344868  -0.37506311      1728000    1601.6877        95600        59255 
19130000     0.992229  -0.35378305      1728000    1602.5294        95650        59281 
19140000    1.0037759  -0.35950512      1728000    1603.3704        95700        59311 
19150000   0.96431254  -0.36393564      1728000    1604.1904        95750        59336 
19160000   0.96111529  -0.34888718      1728000    1605.0275        95800        59369 
19170000    1.0193912  -0.34771607      1728000    1605.8375        95850        59397 
19180000    1.0201004  -0.36478484      1728000    1606.6505        95900        59426 
19190000    1.0388053  -0.36672367      1728000    1607.4715        95950        59456 
19200000    1.0488042  -0.35698808      1728000    1608.3104        96000        59489 
19210000   0.94396293  -0.37104372      1728000    1609.1525        96050        59510 
19220000    0.9783224  -0.35677182      1728000    1609.9735        96100        59535 
19230000   0.97316313  -0.36409369      1728000    1610.8013        96150        59566 
19240000   0.92594868  -0.39193303      1728000    1611.6361        96200        59595 
19250000    1.0307526  -0.40562329      1728000    1612.4567        96250        59627 
19260000   0.97447217  -0.39567165      1728000    1613.3008        96300        59655 
19270000    1.0333752   -0.3750771      1728000    1614.1125        96350        59688 
19280000    1.0857917  -0.36930549      1728000    1614.9259        96400        59719 
19290000    1.0391048  -0.41345882      1728000    1615.7579        96450        59746 
19300000    1.0544581  -0.36497411      1728000    1616.5882        96500        59776 
19310000   0.93724088  -0.36182496      1728000    1617.4017        96550        59804 
19320000   0.92875723  -0.37025537      1728000      1618.21        96600        59827 
19330000   0.95419864  -0.35452613      1728000    1619.0124        96650        59851 
19340000   0.98495838  -0.36565341      1728000    1619.8192        96700        59884 
19350000    1.0721173  -0.32604453      1728000    1620.6484        96750        59918 
19360000     1.032744  -0.31448163      1728000    1621.4914        96800        59949 
19370000    1.0080341  -0.34525774      1728000    1622.3045        96850        59977 
19380000   0.99068538  -0.34855399      1728000    1623.1624        96900        60005 
19390000   0.98786521  -0.35618126      1728000    1623.9974        96950        60038 
19400000    1.0358725  -0.35163178      1728000    1624.8372        97000        60062 
19410000    1.0355262  -0.36944855      1728000    1625.6923        97050        60096 
19420000    1.0555423  -0.36452166      1728000    1626.5694        97100        60130 
19430000    1.0372086  -0.38130495      1728000    1627.4268        97150        60158 
19440000   0.98457013  -0.36119456      1728000    1628.2316        97200        60191 
19450000   0.98601791  -0.35050263      1728000    1629.0386        97250        60218 
19460000   0.99582973  -0.33718071      1728000    1629.8513        97300        60248 
19470000   0.99190787  -0.35041764      1728000    1630.6944        97350        60276 
19480000   0.90738051  -0.36019649      1728000    1631.5416        97400        60308 
19490000    1.0324577  -0.36237404      1728000    1632.4047        97450        60334 
19500000   0.93926083  -0.35357002      1728000    1633.2738        97500        60366 
19510000   0.98646826  -0.35272402      1728000    1634.1244        97550        60397 
19520000    1.0512242  -0.34128687      1728000    1634.9704        97600        60428 
19530000   0.96445875  -0.35370592      1728000    1635.8334        97650        60463 
19540000   0.97009063  -0.32348132      1728000    1636.6843        97700        60497 
19550000    1.0039062  -0.31675394      1728000    1637.5256        97750        60529 
19560000    1.0180043  -0.33837293      1728000    1638.3398        97800        60561 
19570000    1.0327332  -0.33074467      1728000    1639.1739        97850        60596 
19580000    1.0526192  -0.32443059      1728000    1640.0062        97900        60629 
19590000     1.008714  -0.32860459      1728000    1640.8128        97950        60656 
19600000   0.95988222   -0.3357367      1728000    1641.6489        98000        60685 
19610000    1.0286655  -0.34333344      1728000    1642.4685        98050        60716 
19620000    1.0480331  -0.34150064      1728000    1643.2916        98100        60751 
19630000   0.90888345  -0.32232319      1728000    1644.1278        98150        60782 
19640000    1.0089816    -0.312965      1728000     1644.927        98200        60813 
19650000    1.0543155  -0.31787908      1728000    1645.7534        98250        60846 
19660000    1.0419413  -0.31257268      1728000    1646.6944        98300        60875 
19670000   0.95680884  -0.34727579      1728000    1647.5318        98350        60911 
19680000    1.0292415  -0.35753457      1728000    1648.3426        98400        60945 
19690000    1.0594777  -0.36229567      1728000    1649.1917        98450        60978 
19700000   0.96215433   -0.3747738      1728000    1650.0143        98500        61014 
19710000    1.0058605   -0.3654517      1728000    1650.8343        98550        61045 
19720000    1.0604501  -0.35560742      1728000    1651.6446        98600        61077 
19730000   0.95957832  -0.35631546      1728000    1652.4788        98650        61110 
19740000    1.0397466  -0.33549445      1728000    1653.3329        98700        61139 
19750000    1.0272563  -0.32262149      1728000    1654.1376        98750        61174 
19760000    1.0535889  -0.33310799      1728000    1654.9482        98800        61207 
19770000   0.94872111  -0.35779719      1728000    1655.7594        98850        61237 
19780000   0.96301732  -0.33238248      1728000    1656.5935        98900        61270 
19790000    1.0311215   -0.3279564      1728000    1657.4045        98950        61300 
19800000   0.98320307  -0.34134068      1728000    1658.2435        99000        61329 
19810000   0.99908763  -0.31722489      1728000    1659.0774        99050        61363 
19820000   0.96208433  -0.33110245      1728000    1659.9264        99100        61396 
19830000    1.0711663  -0.34400126      1728000    1660.7544        99150        61425 
19840000    1.0393018  -0.36111067      1728000    1661.6014        99200        61460 
19850000    1.0172225  -0.34474832      1728000    1662.4595        99250        61484 
19860000    0.9629696  -0.36165149      1728000    1663.2777        99300        61511 
19870000    1.0381859  -0.36886638      1728000      1664.08        99350        61546 
19880000   0.97780342  -0.34960823      1728000    1664.8834        99400        61579 
19890000   0.97795992  -0.35543709      1728000    1665.6845        99450        61613 
19900000    1.0047508  -0.34456627      1728000    1666.5044        99500        61642 
19910000    1.0111725  -0.37357545      1728000    1667.3365        99550        61678 
19920000   0.97465665  -0.36218522      1728000    1668.1516        99600        61710 
19930000    1.0184397  -0.36619454      1728000    1668.9433        99650        61742 
19940000   0.96082249  -0.35738014      1728000    1669.7473        99700        61762 
19950000    0.9880454   -0.3373853      1728000    1670.5634        99750        61789 
19960000    0.9674831  -0.34699834      1728000    1671.3653        99800        61823 
19970000     1.021126  -0.37772234      1728000    1672.1766        99850        61848 
19980000    1.0213517  -0.34593289      1728000    1673.0122        99900        61878 
19990000   0.98797232  -0.33579342      1728000    1673.8264        99950        61905 
20000000     1.007041  -0.33538653      1728000    1674.6844       100000        61932 
20010000    1.0183928  -0.35033704      1728000    1675.4895       100050        61961 
20020000    1.0217242  -0.36141264      1728000    1676.3025       100100        61993 
20030000    1.0205368  -0.37748717      1728000    1677.1453       100150        62020 
20040000   0.91483129  -0.35930101      1728000    1677.9616       100200        62050 
20050000   0.98497784  -0.36420048      1728000    1678.7994       100250        62081 
20060000    1.0093949  -0.36296286      1728000    1679.6104       100300        62107 
20070000    1.0166032  -0.37182029      1728000    1680.4154       100350        62143 
20080000    1.0688806  -0.36789298      1728000    1681.2193       100400        62179 
20090000    1.0192894  -0.36356832      1728000    1682.0683       100450        62216 
20100000   0.99321047  -0.37469202      1728000    1682.9556       100500        62246 
20110000    1.0178606  -0.36863378      1728000    1683.8156       100550        62282 
20120000   0.95759837   -0.3797235      1728000    1684.6522       100600        62314 
20130000   0.96793863  -0.38123643      1728000    1685.4712       100650        62343 
20140000   0.96805672  -0.38659343      1728000    1686.2955       100700        62370 
20150000    1.0099671  -0.38470871      1728000    1687.1184       100750        62403 
20160000    1.0111889   -0.3907037      1728000    1687.9502       100800        62429 
20170000    1.0094674  -0.39828995      1728000    1688.7925       100850        62462 
20180000   0.97764813  -0.37436993      1728000    1689.6085       100900        62490 
20190000   0.97329616  -0.36379052      1728000    1690.4306       100950        62519 
20200000   0.96412843  -0.37118555      1728000    1691.2946       101000        62547 
20210000   0.97190096  -0.37479866      1728000    1692.1155       101050        62576 
20220000   0.98484059  -0.39156119      1728000    1692.9236       101100        62607 
20230000   0.93541631  -0.36578692      1728000    1693.7355       101150        62640 
20240000   0.96283159  -0.39681738      1728000    1694.5476       101200        62665 
20250000   0.98302572  -0.37023696      1728000    1695.3514       101250        62699 
20260000    1.0234425  -0.38008593      1728000    1696.1623       101300        62731 
20270000    1.0480586   -0.3822719      1728000    1696.9816       101350        62760 
20280000   0.96192258   -0.3745727      1728000    1697.8097       101400        62789 
20290000   0.98084967  -0.36774292      1728000    1698.6262       101450        62822 
20300000   0.92660166  -0.36958703      1728000    1699.4385       101500        62855 
20310000    1.0074731  -0.32786106      1728000    1700.2444       101550        62888 
20320000    1.0208424  -0.35691752      1728000    1701.0569       101600        62921 
20330000    1.0443133  -0.35768707      1728000    1701.8627       101650        62951 
20340000   0.95865099  -0.36362612      1728000    1702.6905       101700        62980 
20350000    1.0367729  -0.36772813      1728000    1703.5152       101750        63008 
20360000     1.012461  -0.33445105      1728000     1704.332       101800        63042 
20370000    1.0308961  -0.32986851      1728000    1705.1347       101850        63074 
20380000   0.95598894  -0.33981028      1728000    1705.9575       101900        63101 
20390000   0.97856733   -0.3552793      1728000    1706.8175       101950        63122 
20400000    0.9641656  -0.33912294      1728000    1707.6505       102000        63150 
20410000    1.0135127  -0.36764601      1728000    1708.4906       102050        63184 
20420000    0.9642724  -0.35293397      1728000    1709.3447       102100        63216 
20430000    1.0286635  -0.35878582      1728000    1710.1781       102150        63247 
20440000   0.94943144  -0.37649692      1728000    1711.0262       102200        63278 
20450000    1.0033834  -0.35211352      1728000    1711.8844       102250        63307 
20460000    1.0547127  -0.33024877      1728000    1712.7425       102300        63340 
20470000    1.0331168  -0.34682783      1728000    1713.5927       102350        63372 
20480000    1.0341676  -0.34171211      1728000    1714.4019       102400        63406 
20490000    1.0167885  -0.35380983      1728000    1715.2202       102450        63435 
20500000    1.0265352  -0.37035419      1728000    1716.0963       102500        63462 
20510000    1.0294062  -0.35203436      1728000    1716.9285       102550        63497 
20520000    1.0884043  -0.39200711      1728000    1717.7546       102600        63528 
20530000    1.0249942  -0.39624598      1728000    1718.6267       102650        63551 
20540000    1.0034851    -0.404388      1728000    1719.4948       102700        63579 
20550000   0.99992293  -0.38817733      1728000    1720.3142       102750        63606 
20560000    1.0005626  -0.38612256      1728000    1721.1502       102800        63630 
20570000    1.0018513  -0.36934473      1728000    1722.0134       102850        63657 
20580000    1.0584198  -0.39065132      1728000    1722.8667       102900        63685 
20590000    1.0240472  -0.40939522      1728000    1723.7145       102950        63720 
20600000    1.0317637  -0.39392514      1728000    1724.6061       103000        63746 
20610000   0.96990304  -0.39338515      1728000    1725.4633       103050        63770 
20620000    1.0279414  -0.39278032      1728000    1726.2995       103100        63800 
20630000    1.0018672  -0.37960285      1728000    1727.1406       103150        63829 
20640000   0.97665993   -0.3869491      1728000    1727.9519       103200        63859 
20650000   0.94838294  -0.37492451      1728000    1728.7654       103250        63890 
20660000   0.99350983  -0.37649809      1728000    1729.5843       103300        63925 
20670000   0.95797413  -0.34967153      1728000    1730.4024       103350        63951 
20680000    1.0390695   -0.3574183      1728000    1731.2212       103400        63980 
20690000    1.0194733  -0.36014338      1728000    1732.0403       103450        64009 
20700000    1.0085805  -0.36698407      1728000    1732.8635       103500        64040 
20710000    1.0445525  -0.35678662      1728000    1733.6872       103550        64075 
20720000    1.0016556  -0.34166967      1728000    1734.5215       103600        64108 
20730000   0.99799977   -0.3469455      1728000    1735.3244       103650        64142 
20740000   0.99990495  -0.36775896      1728000    1736.1705       103700        64173 
20750000   0.99508566  -0.33902017      1728000    1736.9911       103750        64205 
20760000    1.0034596  -0.35313085      1728000    1737.8103       103800        64240 
20770000    1.0434266  -0.33860841      1728000    1738.6574       103850        64267 
20780000    1.0298014  -0.33108859      1728000    1739.4771       103900        64296 
20790000    1.0028411  -0.35312642      1728000    1740.3113       103950        64327 
20800000   0.98381542  -0.35170623      1728000    1741.1376       104000        64359 
20810000    1.0276699   -0.3587769      1728000    1741.9678       104050        64388 
20820000   0.98155018  -0.33586011      1728000    1742.8016       104100        64415 
20830000    1.0045357  -0.33052453      1728000      1743.62       104150        64445 
20840000     1.047615  -0.32860034      1728000    1744.4274       104200        64473 
20850000    1.0752077  -0.32437836      1728000    1745.2651       104250        64503 
20860000    1.0201326  -0.35910518      1728000    1746.0776       104300        64540 
20870000    1.0101257  -0.34755699      1728000    1746.9198       104350        64571 
20880000    1.0441236  -0.33721585      1728000     1747.744       104400        64597 
20890000      1.02724  -0.33983776      1728000    1748.5754       104450        64623 
20900000    1.0647476  -0.35376523      1728000    1749.4024       104500        64651 
20910000    1.0464705  -0.33818453      1728000    1750.2191       104550        64688 
20920000     1.011411  -0.33396502      1728000    1751.0365       104600        64720 
20930000    1.0006487  -0.32861042      1728000    1751.8686       104650        64750 
20940000   0.99409166  -0.31669301      1728000    1752.6874       104700        64779 
20950000     1.039065  -0.31748298      1728000    1753.5025       104750        64813 
20960000    1.0139227   -0.3276812      1728000    1754.3074       104800        64842 
20970000    1.0061022  -0.33957453      1728000    1755.1252       104850        64873 
20980000   0.95195522  -0.33401208      1728000    1755.9403       104900        64909 
20990000    1.0136953  -0.36194012      1728000    1756.7692       104950        64940 
21000000    0.9449146  -0.35115466      1728000    1757.6104       105000        64969 
21010000    1.0192711   -0.3509802      1728000    1758.4201       105050        65005 
21020000    1.0222224  -0.33054088      1728000    1759.2306       105100        65037 
21030000   0.98212708  -0.32613772      1728000    1760.0541       105150        65065 
21040000   0.97818403  -0.31814942      1728000    1760.8647       105200        65095 
21050000    1.0492946  -0.31729155      1728000    1761.7298       105250        65121 
21060000   0.96661915  -0.33238184      1728000    1762.5617       105300        65153 
21070000   0.97185968  -0.32682181      1728000    1763.3695       105350        65187 
21080000    1.0155075  -0.33422111      1728000    1764.1982       105400        65220 
21090000    1.0823137  -0.31961118      1728000    1765.0135       105450        65252 
21100000    1.0918041  -0.31583557      1728000    1765.8359       105500        65284 
21110000   0.97068427  -0.31805543      1728000     1766.652       105550        65317 
21120000    1.0252026  -0.31938749      1728000    1767.5062       105600        65352 
21130000   0.98514263  -0.31576094      1728000    1768.3222       105650        65388 
21140000   0.97538336  -0.32795013      1728000    1769.1344       105700        65424 
21150000    1.0711133  -0.31702849      1728000    1769.9532       105750        65454 
21160000   0.93833356  -0.33119695      1728000    1770.7794       105800        65486 
21170000    1.0485057  -0.32135505      1728000    1771.6001       105850        65523 
21180000   0.98237828   -0.3245365      1728000    1772.4203       105900        65556 
21190000   0.95530129   -0.3341716      1728000    1773.2268       105950        65590 
21200000    1.0487754  -0.37551754      1728000    1774.0652       106000        65620 
21210000   0.99597329  -0.36718503      1728000    1774.8967       106050        65653 
21220000     0.988274  -0.34286475      1728000     1775.744       106100        65677 
21230000   0.96579002  -0.34255121      1728000    1776.5673       106150        65704 
21240000    1.0419488  -0.36599861      1728000    1777.3925       106200        65736 
21250000    1.0027731  -0.36267301      1728000     1778.224       106250        65765 
21260000    1.0602175  -0.34071276      1728000    1779.0555       106300        65796 
21270000   0.93354584  -0.37305084      1728000    1779.8745       106350        65823 
21280000   0.98206869  -0.34703378      1728000    1780.6959       106400        65851 
21290000   0.99494646  -0.35847165      1728000    1781.5106       106450        65882 
21300000    1.0356972  -0.36991151      1728000    1782.3469       106500        65916 
21310000    1.0579757  -0.37288841      1728000    1783.2082       106550        65947 
21320000   0.99222779  -0.38631378      1728000    1784.0525       106600        65975 
21330000   0.96553525  -0.37431824      1728000     1784.866       106650        66003 
21340000   0.92644176  -0.38080463      1728000    1785.6782       106700        66036 
21350000   0.99013136  -0.39055486      1728000    1786.4975       106750        66074 
21360000   0.95580643  -0.39059951      1728000    1787.3157       106800        66102 
21370000   0.97459684  -0.40175405      1728000     1788.143       106850        66126 
21380000    1.0347624  -0.38776978      1728000    1789.0203       106900        66155 
21390000    1.0536109  -0.38193574      1728000    1789.8436       106950        66187 
21400000    0.9466331  -0.38004524      1728000     1790.676       107000        66218 
21410000   0.99880717  -0.40916408      1728000    1791.4891       107050        66245 
21420000    1.0411268  -0.39231602      1728000    1792.3033       107100        66276 
21430000   0.98051214  -0.37745464      1728000    1793.1216       107150        66301 
21440000    1.0335957  -0.38931153      1728000    1793.9458       107200        66332 
21450000    1.0208971   -0.3696783      1728000    1794.7722       107250        66360 
21460000   0.98705587  -0.37949728      1728000    1795.6073       107300        66395 
21470000    1.0412475  -0.39862167      1728000    1796.4403       107350        66425 
21480000     1.026381  -0.36461874      1728000    1797.2597       107400        66461 
21490000    1.0249755  -0.38906652      1728000    1798.0812       107450        66492 
21500000    1.0138869  -0.38012435      1728000     1798.903       107500        66529 
21510000   0.96996547  -0.40913421      1728000    1799.7401       107550        66557 
21520000   0.89498197  -0.39148352      1728000    1800.5674       107600        66586 
21530000    1.0043008  -0.38625706      1728000    1801.3968       107650        66616 
21540000    1.0168469  -0.37984892      1728000    1802.2301       107700        66648 
21550000    1.0771976  -0.37434898      1728000    1803.0553       107750        66675 
21560000    1.0244314  -0.37710185      1728000    1803.8684       107800        66708 
21570000    1.0240634  -0.37894033      1728000    1804.7022       107850        66740 
21580000   0.93145142  -0.37902131      1728000    1805.5236       107900        66767 
21590000    1.0531906  -0.37650086      1728000    1806.3518       107950        66797 
21600000    1.0611386  -0.37749047      1728000    1807.1874       108000        66828 
21610000   0.98468313  -0.38042899      1728000    1808.0134       108050        66859 
21620000    1.0488913  -0.38334311      1728000    1808.8407       108100        66886 
21630000   0.96577879  -0.39799452      1728000    1809.6678       108150        66919 
21640000    1.0085332  -0.38598086      1728000    1810.4923       108200        66949 
21650000    1.0059283  -0.36727385      1728000    1811.3151       108250        66972 
21660000   0.94675348  -0.35619892      1728000    1812.1653       108300        67005 
21670000   0.95262871  -0.35382643      1728000    1812.9935       108350        67038 
21680000   0.96797882  -0.33923823      1728000    1813.7921       108400        67074 
21690000    1.0469935  -0.34219728      1728000    1814.6075       108450        67101 
21700000   0.98811852  -0.36504669      1728000    1815.4281       108500        67128 
21710000   0.91369893    -0.346525      1728000    1816.2415       108550        67161 
21720000   0.97045262  -0.36010851      1728000    1817.0886       108600        67191 
21730000   0.98479556  -0.35097283      1728000    1817.9148       108650        67224 
21740000   0.99777503  -0.36361924      1728000    1818.7373       108700        67254 
21750000     1.017177  -0.36460582      1728000    1819.5471       108750        67286 
21760000    1.0166591  -0.35000551      1728000    1820.3596       108800        67315 
21770000    1.0673117  -0.35360166      1728000    1821.1792       108850        67343 
21780000   0.96497925  -0.38526483      1728000    1822.0134       108900        67370 
21790000    1.0071941  -0.38475722      1728000    1822.8665       108950        67401 
21800000   0.98293374  -0.38227307      1728000    1823.6882       109000        67428 
21810000    1.0323038  -0.38735953      1728000    1824.5174       109050        67452 
21820000    1.0445024  -0.35804064      1728000    1825.3386       109100        67480 
21830000    1.0251728  -0.36776036      1728000    1826.1846       109150        67511 
21840000   0.99821023  -0.38919024      1728000    1827.0064       109200        67542 
21850000    1.0145089  -0.38918391      1728000    1827.8333       109250        67571 
21860000    1.0681909  -0.36366549      1728000    1828.6574       109300        67597 
21870000   0.95020891  -0.40706054      1728000    1829.4761       109350        67628 
21880000    1.0244588  -0.39907575      1728000    1830.3419       109400        67660 
21890000    1.0095609  -0.42354325      1728000    1831.1834       109450        67695 
21900000   0.94751228  -0.39790036      1728000    1832.0372       109500        67715 
21910000     1.042644  -0.41011352      1728000    1832.8884       109550        67736 
21920000    1.0054886  -0.40407187      1728000    1833.7133       109600        67764 
21930000     1.037421  -0.39085818      1728000    1834.5381       109650        67797 
21940000    1.0138093   -0.3710866      1728000    1835.3613       109700        67828 
21950000   0.95837544  -0.36715731      1728000     1836.193       109750        67852 
21960000   0.98225453  -0.35714328      1728000    1837.0131       109800        67889 
21970000   0.99827682  -0.39358901      1728000    1837.8344       109850        67921 
21980000   0.99702822   -0.3758982      1728000    1838.7025       109900        67952 
21990000   0.96101026  -0.34169532      1728000    1839.5349       109950        67988 
22000000   0.92441112  -0.34331111      1728000    1840.3533       110000        68016 
22010000   0.99043989  -0.33667364      1728000    1841.1718       110050        68053 
22020000   0.97273951  -0.31833718      1728000     1841.991       110100        68082 
22030000   0.97994257  -0.32209465      1728000    1842.8111       110150        68114 
22040000    1.0276785  -0.31772704      1728000    1843.6284       110200        68143 
22050000    1.0449197  -0.34196655      1728000    1844.4563       110250        68174 
22060000   0.94565899  -0.34250041      1728000    1845.2819       110300        68200 
22070000    1.0287276  -0.32679985      1728000    1846.1233       110350        68228 
22080000   0.93911296   -0.3398968      1728000    1846.9433       110400        68261 
22090000    0.9827722  -0.35375023      1728000    1847.7813       110450        68289 
22100000    1.0267321  -0.35550168      1728000    1848.6042       110500        68322 
22110000    1.0347219  -0.36666375      1728000    1849.4309       110550        68352 
22120000   0.92697489  -0.35312701      1728000     1850.254       110600        68388 
22130000    1.0737981  -0.35546066      1728000    1851.0721       110650        68415 
22140000    0.9992832  -0.35605416      1728000    1851.8924       110700        68450 
22150000   0.95848375  -0.37116216      1728000    1852.7141       110750        68486 
22160000   0.97441915  -0.36945438      1728000    1853.5604       110800        68523 
22170000    1.0056146  -0.36569474      1728000    1854.3895       110850        68555 
22180000   0.95839589   -0.3997864      1728000    1855.2258       110900        68586 
22190000   0.97954152  -0.41965877      1728000    1856.0989       110950        68609 
22200000     1.000085   -0.4010365      1728000    1856.9443       111000        68637 
22210000    1.0140065  -0.36748906      1728000    1857.7749       111050        68666 
22220000    1.0852905  -0.35880051      1728000    1858.6019       111100        68697 
22230000    1.0115403  -0.37983783      1728000    1859.4253       111150        68730 
22240000    1.0788967  -0.36688016      1728000    1860.2662       111200        68765 
22250000    1.0539284  -0.37677588      1728000    1861.0803       111250        68801 
22260000   0.92854879  -0.35842273      1728000    1861.9011       111300        68832 
22270000    1.0848618   -0.3720637      1728000    1862.7604       111350        68863 
22280000    1.0191313  -0.37183606      1728000     1863.622       111400        68885 
22290000    1.0176985  -0.39103805      1728000    1864.4498       111450        68916 
22300000    1.0080139  -0.37930085      1728000    1865.2731       111500        68948 
22310000    0.9818115  -0.36676569      1728000    1866.0993       111550        68980 
22320000    1.0043053  -0.39522271      1728000    1866.9245       111600        69009 
22330000   0.97616278  -0.39369695      1728000    1867.7369       111650        69035 
22340000   0.99784514  -0.38341704      1728000    1868.5492       111700        69065 
22350000    1.0456318  -0.36181015      1728000    1869.3675       111750        69100 
22360000    1.0003493  -0.34194659      1728000    1870.1792       111800        69127 
22370000    1.0180959  -0.36800763      1728000         1871       111850        69164 
22380000   0.89288784  -0.34310295      1728000    1871.8251       111900        69195 
22390000   0.99014253  -0.36783912      1728000    1872.6482       111950        69234 
22400000    1.0254767  -0.36202273      1728000    1873.4904       112000        69262 
22410000   0.97997112  -0.36561535      1728000    1874.3115       112050        69295 
22420000    1.0286929  -0.35258855      1728000    1875.1432       112100        69330 
22430000    1.0112282  -0.35482165      1728000    1875.9668       112150        69363 
22440000   0.97799498  -0.36680246      1728000    1876.7932       112200        69397 
22450000     0.988369  -0.35625385      1728000    1877.6114       112250        69428 
22460000   0.99661124  -0.34263653      1728000    1878.4256       112300        69459 
22470000    1.0374329   -0.3509035      1728000    1879.2373       112350        69487 
22480000   0.97063306  -0.33958508      1728000    1880.0561       112400        69514 
22490000   0.96699618  -0.32699039      1728000    1880.8762       112450        69542 
22500000    1.0252619  -0.34886365      1728000    1881.7084       112500        69573 
22510000   0.98193983  -0.35658482      1728000    1882.5341       112550        69604 
22520000   0.96320832  -0.34008222      1728000    1883.3873       112600        69634 
22530000    1.0478326  -0.34079887      1728000    1884.2231       112650        69664 
22540000   0.96434761  -0.35811491      1728000    1885.0539       112700        69698 
22550000    1.0265187  -0.36820508      1728000    1885.8712       112750        69724 
22560000    1.0127907  -0.36831839      1728000    1886.7394       112800        69749 
22570000   0.96275623  -0.36060392      1728000    1887.5685       112850        69775 
22580000   0.96154354  -0.36336174      1728000     1888.401       112900        69805 
22590000   0.97751304  -0.37338121      1728000    1889.2342       112950        69832 
22600000   0.95689131  -0.38176547      1728000    1890.0526       113000        69863 
22610000     1.031448  -0.36952981      1728000    1890.8643       113050        69895 
22620000    1.0176646   -0.3781375      1728000    1891.6886       113100        69925 
22630000    1.0723981  -0.36971292      1728000    1892.4985       113150        69953 
22640000    1.0364663  -0.38332471      1728000    1893.3309       113200        69984 
22650000    1.0454868  -0.37217006      1728000    1894.1485       113250        70010 
22660000   0.93852164  -0.37828089      1728000    1894.9613       113300        70040 
22670000   0.97195304  -0.39198437      1728000    1895.7826       113350        70069 
22680000    1.0815268  -0.36340658      1728000    1896.5942       113400        70100 
22690000    1.0348179  -0.38496068      1728000    1897.4546       113450        70125 
22700000    1.0163111   -0.3594648      1728000    1898.2741       113500        70153 
22710000   0.97578935  -0.36367897      1728000     1899.082       113550        70180 
22720000    1.0304639  -0.37397296      1728000    1899.9183       113600        70209 
22730000    0.9381616  -0.34281725      1728000    1900.7222       113650        70241 
22740000    1.0253522  -0.34770971      1728000    1901.5353       113700        70274 
22750000   0.97743949  -0.36936903      1728000    1902.3543       113750        70310 
22760000   0.99516353  -0.38098711      1728000    1903.1741       113800        70340 
22770000   0.99247723  -0.38998469      1728000    1903.9942       113850        70366 
22780000   0.95466033  -0.38333557      1728000    1904.8192       113900        70388 
22790000   0.98599291  -0.36867646      1728000    1905.6439       113950        70414 
22800000    1.0564291  -0.36064763      1728000    1906.4771       114000        70447 
22810000    1.0174709  -0.37571624      1728000    1907.3133       114050        70472 
22820000   0.95917359  -0.38775993      1728000     1908.136       114100        70501 
22830000    1.0857225  -0.38574124      1728000     1908.961       114150        70530 
22840000    1.0347044  -0.41361704      1728000     1909.785       114200        70558 
22850000     1.003161  -0.40472821      1728000    1910.6192       114250        70584 
22860000    1.0005071  -0.37049245      1728000    1911.4719       114300        70620 
22870000   0.99298543  -0.37684298      1728000    1912.2892       114350        70649 
22880000   0.95931069  -0.35729619      1728000    1913.1073       114400        70678 
22890000    1.0122867  -0.33270654      1728000    1913.9302       114450        70701 
22900000    1.0338094  -0.34216015      1728000    1914.7461       114500        70730 
22910000   0.98240769  -0.33212042      1728000    1915.5432       114550        70762 
22920000   0.97901345  -0.33197244      1728000    1916.3509       114600        70802 
22930000   0.99556655  -0.34092897      1728000    1917.1603       114650        70834 
22940000   0.97551424  -0.31465448      1728000    1917.9632       114700        70873 
22950000    1.0152228  -0.31685694      1728000    1918.7686       114750        70911 
22960000   0.99162711   -0.3279917      1728000    1919.5673       114800        70942 
22970000    1.0256353  -0.33809732      1728000    1920.3906       114850        70972 
22980000    1.0297131  -0.34413401      1728000    1921.2033       114900        71001 
22990000   0.94892501  -0.35225214      1728000    1922.0222       114950        71035 
23000000   0.98914985  -0.35344978      1728000     1922.844       115000        71063 
23010000   0.99865455   -0.3618522      1728000    1923.6501       115050        71094 
23020000    1.0125869  -0.34464658      1728000     1924.463       115100        71122 
23030000   0.97237388  -0.37195946      1728000     1925.305       115150        71152 
23040000    0.9951171  -0.38900219      1728000     1926.132       115200        71181 
23050000   0.98764332     -0.39535      1728000    1926.9762       115250        71206 
23060000    1.0014894  -0.39148516      1728000    1927.8042       115300        71232 
23070000   0.95442973  -0.40125607      1728000    1928.6271       115350        71264 
23080000   0.99976678  -0.42509182      1728000     1929.448       115400        71290 
23090000    1.0137213  -0.43200617      1728000    1930.2651       115450        71317 
23100000    1.0479349  -0.40512855      1728000    1931.0861       115500        71349 
23110000     1.070151  -0.43147481      1728000     1931.925       115550        71370 
23120000     1.009075  -0.41763415      1728000    1932.7551       115600        71400 
23130000   0.97491718  -0.41594668      1728000    1933.5877       115650        71428 
23140000    1.0130156  -0.40127303      1728000     1934.405       115700        71457 
23150000   0.89813748   -0.3900233      1728000    1935.2221       115750        71487 
23160000     1.072385  -0.38624104      1728000    1936.0409       115800        71510 
23170000    1.0197048  -0.39208442      1728000    1936.8698       115850        71540 
23180000   0.98099529  -0.40378548      1728000    1937.6969       115900        71564 
23190000    1.0270886  -0.42052739      1728000    1938.5271       115950        71588 
23200000    1.0355684  -0.40018142      1728000    1939.3742       116000        71621 
23210000    1.0530285  -0.40188841      1728000    1940.1971       116050        71648 
23220000   0.97078552  -0.40292508      1728000    1941.0362       116100        71673 
23230000   0.91570227  -0.38900286      1728000    1941.8592       116150        71702 
23240000    1.0090558  -0.38803389      1728000    1942.6731       116200        71734 
23250000    1.0499032  -0.41155249      1728000    1943.4882       116250        71769 
23260000    1.0058305  -0.36692568      1728000     1944.311       116300        71795 
23270000     1.056992  -0.38516524      1728000    1945.1271       116350        71827 
23280000    0.9796916  -0.37966621      1728000    1945.9432       116400        71856 
23290000    1.0064034  -0.38221561      1728000    1946.7892       116450        71883 
23300000    1.0145898  -0.38069355      1728000    1947.6258       116500        71917 
23310000   0.98911293   -0.3826991      1728000    1948.4572       116550        71942 
23320000    1.0487222  -0.37044102      1728000     1949.311       116600        71981 
23330000   0.98189876  -0.36395179      1728000    1950.1349       116650        72020 
23340000   0.98664762  -0.33714572      1728000    1950.9871       116700        72053 
23350000    0.9726219  -0.35663318      1728000     1951.802       116750        72087 
23360000    1.0357351  -0.35440032      1728000    1952.6121       116800        72120 
23370000   0.99326326  -0.35458929      1728000    1953.4962       116850        72149 
23380000   0.97289068  -0.37091265      1728000    1954.3172       116900        72184 
23390000    1.0032015  -0.37001455      1728000    1955.1352       116950        72209 
23400000   0.98573047  -0.34483616      1728000     1955.955       117000        72246 
23410000    1.0178068  -0.35239885      1728000    1956.7711       117050        72271 
23420000   0.98976364  -0.36076005      1728000    1957.6039       117100        72298 
23430000    1.0484885  -0.33900468      1728000    1958.4361       117150        72328 
23440000   0.97627495  -0.34732013      1728000    1959.2621       117200        72355 
23450000   0.95691573  -0.33684132      1728000    1960.0948       117250        72389 
23460000    1.0757511  -0.35748869      1728000    1960.9481       117300        72414 
23470000    1.0136732  -0.32474284      1728000     1961.772       117350        72443 
23480000    1.0030123  -0.35330158      1728000    1962.5812       117400        72476 
23490000    1.0447938  -0.34345815      1728000     1963.395       117450        72508 
23500000    1.0114231  -0.34303076      1728000     1964.219       117500        72539 
23510000    1.0364092  -0.35036435      1728000    1965.0472       117550        72576 
23520000   0.98507367  -0.38259794      1728000    1965.8731       117600        72605 
23530000   0.88700733  -0.35467237      1728000    1966.7037       117650        72634 
23540000    0.9546284   -0.3498821      1728000    1967.5559       117700        72667 
23550000    1.0361071  -0.35239453      1728000    1968.3913       117750        72691 
23560000   0.99494285  -0.35791545      1728000    1969.2318       117800        72731 
23570000    1.0787731  -0.34747587      1728000     1970.065       117850        72757 
23580000   0.98083239  -0.34465049      1728000    1970.9022       117900        72794 
23590000   0.97775952  -0.34781297      1728000    1971.7503       117950        72821 
23600000   0.97409166  -0.37520657      1728000      1972.58       118000        72852 
23610000   0.98352614  -0.35735047      1728000    1973.4061       118050        72882 
23620000    1.0265552  -0.37855597      1728000    1974.2201       118100        72910 
23630000   0.97168287  -0.37340784      1728000     1975.093       118150        72942 
23640000   0.99294971  -0.37006687      1728000    1975.9824       118200        72970 
23650000   0.93274604  -0.37697003      1728000    1976.8945       118250        73007 
23660000    0.9711447  -0.39560908      1728000    1977.8035       118300        73032 
23670000   0.97417838  -0.34232179      1728000    1978.6487       118350        73061 
23680000    1.0407131  -0.37089309      1728000    1979.4838       118400        73090 
23690000    1.0085188   -0.3488923      1728000    1980.3479       118450        73121 
23700000   0.94380851  -0.36123735      1728000    1981.1811       118500        73153 
23710000     1.046813  -0.35553698      1728000    1982.0162       118550        73183 
23720000    1.0448832   -0.3678329      1728000    1982.8455       118600        73206 
23730000    1.0418252  -0.36288478      1728000    1983.6746       118650        73237 
23740000    0.9808406  -0.38827833      1728000    1984.5014       118700        73264 
23750000   0.99234661   -0.4238375      1728000    1985.3537       118750        73293 
23760000   0.97958633  -0.38108806      1728000     1986.232       118800        73323 
23770000    1.0394097  -0.37594424      1728000    1987.0822       118850        73356 
23780000    1.0009532   -0.3785512      1728000    1987.9448       118900        73386 
23790000   0.97118899  -0.37629294      1728000    1988.7931       118950        73418 
23800000    1.0447306  -0.38481579      1728000    1989.6512       119000        73439 
23810000    0.9175684  -0.37270819      1728000    1990.4917       119050        73471 
23820000    1.0384278  -0.36978767      1728000    1991.3223       119100        73504 
23830000   0.98875022  -0.36427018      1728000    1992.1491       119150        73535 
23840000    0.9487551  -0.35592947      1728000    1992.9722       119200        73561 
23850000    1.0104253  -0.34761062      1728000    1993.8088       119250        73593 
23860000       1.0038  -0.36605808      1728000    1994.6341       119300        73623 
23870000    1.0096604  -0.35514891      1728000    1995.4549       119350        73655 
23880000    1.1055139  -0.36165863      1728000    1996.3136       119400        73682 
23890000   0.96599622  -0.35183192      1728000    1997.1598       119450        73712 
23900000    1.0275344  -0.37335205      1728000     1997.987       119500        73750 
23910000   0.99726874  -0.36736429      1728000    1998.8292       119550        73783 
23920000    1.0246513  -0.37540231      1728000    1999.6419       119600        73812 
23930000   0.99499775  -0.37447098      1728000      2000.46       119650        73844 
23940000   0.99482125  -0.35677427      1728000    2001.2822       119700        73875 
23950000    0.9886444  -0.37220386      1728000    2002.1128       119750        73901 
23960000    1.0516417  -0.34608193      1728000    2002.9381       119800        73932 
23970000   0.95972847  -0.35913973      1728000    2003.7511       119850        73964 
23980000    1.0426149  -0.37454045      1728000    2004.5828       119900        73998 
23990000   0.94523227  -0.37629506      1728000    2005.4098       119950        74025 
24000000   0.98933977  -0.37338517      1728000    2006.2548       120000        74056 
24010000   0.99823543   -0.3905772      1728000    2007.1094       120050        74080 
24020000   0.95102376  -0.38153716      1728000    2007.9525       120100        74116 
24030000    1.0125615  -0.36792001      1728000    2008.7816       120150        74140 
24040000    1.0758729  -0.35377987      1728000    2009.6268       120200        74169 
24050000    1.0085488  -0.35876198      1728000    2010.4449       120250        74199 
24060000    1.0457954  -0.37524186      1728000    2011.2491       120300        74234 
24070000    1.0247562   -0.3402981      1728000    2012.0695       120350        74266 
24080000    1.0342246   -0.3787385      1728000    2012.8818       120400        74290 
24090000   0.99941556  -0.37710368      1728000    2013.7012       120450        74329 
24100000    1.0715088  -0.36836356      1728000    2014.5583       120500        74360 
24110000   0.94241168  -0.36074417      1728000    2015.3848       120550        74393 
24120000    1.0001706  -0.35553711      1728000    2016.2379       120600        74424 
24130000    1.0004376  -0.35821734      1728000    2017.0841       120650        74456 
24140000   0.91650891  -0.36942029      1728000    2017.9102       120700        74490 
24150000     1.035533   -0.3423466      1728000    2018.7737       120750        74517 
24160000    1.0101169  -0.35374643      1728000    2019.6029       120800        74549 
24170000   0.97994652  -0.36578151      1728000    2020.4233       120850        74580 
24180000     1.000561  -0.35255775      1728000    2021.2488       120900        74608 
24190000    1.0303132  -0.34766126      1728000    2022.1189       120950        74638 
24200000    1.0470376  -0.36163609      1728000    2023.1079       121000        74667 
24210000    0.9987574  -0.37916784      1728000    2024.0609       121050        74692 
24220000    1.0220751  -0.38070975      1728000    2024.9001       121100        74720 
24230000   0.98262979  -0.35713636      1728000    2025.7162       121150        74754 
24240000   0.98314353  -0.39401034      1728000    2026.5407       121200        74786 
24250000   0.94064138  -0.38891674      1728000     2027.365       121250        74818 
24260000   0.98559382  -0.35652139      1728000    2028.1931       121300        74849 
24270000   0.94489397  -0.34639427      1728000    2029.0422       121350        74876 
24280000   0.99478259   -0.3420588      1728000    2029.8558       121400        74912 
24290000    1.0397464  -0.34712685      1728000     2030.693       121450        74938 
24300000   0.96154679  -0.37666031      1728000    2031.5695       121500        74963 
24310000   0.98726403  -0.35114492      1728000    2032.5785       121550        74992 
24320000    0.9849217   -0.3221701      1728000    2033.4268       121600        75023 
24330000    1.0255685  -0.35176476      1728000     2034.237       121650        75056 
24340000     1.003799  -0.34094972      1728000    2035.0552       121700        75090 
24350000    1.0489762  -0.34746366      1728000    2035.8719       121750        75119 
24360000    1.0786318  -0.35684643      1728000    2036.7468       121800        75146 
24370000   0.99935348  -0.37007303      1728000    2037.6407       121850        75174 
24380000    1.0316902  -0.37364194      1728000    2038.5318       121900        75208 
24390000   0.99388415  -0.38671785      1728000    2039.4048       121950        75238 
24400000   0.94910133  -0.37822779      1728000    2040.2768       122000        75262 
24410000    1.0027384  -0.37494429      1728000    2041.1048       122050        75292 
24420000   0.99356435  -0.37512835      1728000    2041.9258       122100        75326 
24430000    1.0251561  -0.34973935      1728000    2042.7409       122150        75356 
24440000    1.0226075  -0.36311099      1728000    2043.6029       122200        75384 
24450000   0.99298627  -0.37795523      1728000    2044.4947       122250        75414 
24460000     1.014139  -0.39912761      1728000    2045.3383       122300        75445 
24470000    1.0582178  -0.38874085      1728000    2046.1825       122350        75477 
24480000    1.0143523  -0.38310455      1728000    2047.0137       122400        75504 
24490000    1.0612591    -0.371234      1728000    2047.8373       122450        75531 
24500000    1.0005767  -0.39570585      1728000    2048.6538       122500        75566 
24510000    0.9581251  -0.40790938      1728000    2049.4717       122550        75600 
24520000   0.93341032  -0.37923869      1728000    2050.2988       122600        75630 
24530000    1.1253769  -0.36626766      1728000    2051.1168       122650        75660 
24540000   0.97787752  -0.37696616      1728000    2051.9413       122700        75690 
24550000   0.98970943  -0.34817738      1728000    2052.7568       122750        75723 
24560000    1.0125736   -0.3619467      1728000     2053.574       122800        75750 
24570000    0.9555407  -0.35588865      1728000    2054.3825       122850        75779 
24580000    1.0617157  -0.36052492      1728000    2055.1916       122900        75808 
24590000    0.9591267  -0.36079894      1728000    2055.9998       122950        75843 
24600000      1.00659  -0.33875067      1728000     2056.845       123000        75876 
24610000   0.99388253  -0.36889233      1728000    2057.6516       123050        75907 
24620000    1.0289066  -0.36503193      1728000    2058.4669       123100        75940 
24630000   0.96149761  -0.36617632      1728000    2059.2847       123150        75969 
24640000    1.0036933  -0.35128539      1728000    2060.0939       123200        76000 
24650000   0.99995821  -0.35812137      1728000    2060.9078       123250        76029 
24660000    1.0684297  -0.37167401      1728000    2061.7194       123300        76063 
24670000   0.99333624  -0.35423682      1728000    2062.5499       123350        76091 
24680000    1.0290341  -0.35871763      1728000    2063.3767       123400        76121 
24690000   0.99180682  -0.36743026      1728000    2064.1879       123450        76151 
24700000   0.96414075  -0.35937999      1728000    2065.0068       123500        76177 
24710000    1.0093167  -0.35228823      1728000    2065.8239       123550        76206 
24720000   0.93739545  -0.36698729      1728000    2066.6326       123600        76238 
24730000    1.0045326  -0.36861478      1728000    2067.4649       123650        76269 
24740000    1.0035169   -0.3677646      1728000    2068.2807       123700        76295 
24750000    1.0139936  -0.38995024      1728000    2069.0935       123750        76321 
24760000    1.0023413  -0.35105919      1728000    2069.9087       123800        76351 
24770000   0.98051196   -0.3670603      1728000    2070.7437       123850        76382 
24780000    1.0229904  -0.35834945      1728000    2071.5667       123900        76410 
24790000    0.9667974  -0.35798808      1728000    2072.3868       123950        76434 
24800000    1.0116883  -0.36450751      1728000    2073.2142       124000        76462 
24810000    1.0296473  -0.41106334      1728000    2074.0354       124050        76492 
24820000     1.014776  -0.38829721      1728000    2074.8757       124100        76514 
24830000    1.0203907  -0.42300988      1728000    2075.6877       124150        76539 
24840000   0.95129104  -0.36969073      1728000     2076.508       124200        76571 
24850000   0.99822627  -0.37200462      1728000    2077.3298       124250        76600 
24860000   0.98636193  -0.36354626      1728000    2078.1568       124300        76623 
24870000    1.0045734  -0.37636416      1728000    2078.9834       124350        76655 
24880000    1.0493122  -0.34740653      1728000    2079.8118       124400        76684 
24890000    1.0028639   -0.3619301      1728000    2080.6278       124450        76711 
24900000    1.0182914  -0.37139714      1728000    2081.5669       124500        76739 
24910000    1.0280701  -0.35075479      1728000    2082.4138       124550        76772 
24920000     0.993394  -0.34710157      1728000    2083.2328       124600        76805 
24930000    1.0735648  -0.33992144      1728000    2084.0476       124650        76837 
24940000    1.0510032  -0.35522551      1728000    2084.8616       124700        76866 
24950000     1.008786  -0.34487201      1728000    2085.6828       124750        76900 
24960000   0.98351517  -0.37142767      1728000    2086.5067       124800        76931 
24970000   0.97169552  -0.36520779      1728000    2087.3328       124850        76957 
24980000    1.0313957  -0.35754644      1728000    2088.1518       124900        76990 
24990000    1.0472591  -0.35518285      1728000    2088.9678       124950        77025 
25000000    1.0444339  -0.35952367      1728000    2089.7887       125000        77049 
25010000    1.0224462  -0.34637086      1728000    2090.5976       125050        77082 
25020000    1.0819774  -0.33648162      1728000    2091.4378       125100        77114 
25030000    1.0676151  -0.36593422      1728000    2092.2566       125150        77147 
25040000   0.99358526  -0.35511418      1728000    2093.0788       125200        77174 
25050000   0.99767668  -0.36789128      1728000    2093.8897       125250        77210 
25060000    1.0338451  -0.36916831      1728000    2094.7067       125300        77244 
25070000    1.0334196  -0.33958339      1728000     2095.548       125350        77275 
25080000   0.97314169  -0.30229882      1728000    2096.3613       125400        77307 
25090000    0.9995783  -0.31541769      1728000    2097.1835       125450        77339 
25100000    1.0182931   -0.3215188      1728000     2098.009       125500        77375 
25110000   0.98449728  -0.33840699      1728000    2098.8261       125550        77403 
25120000   0.96346037  -0.33019552      1728000     2099.639       125600        77436 
25130000   0.99256853   -0.3240795      1728000    2100.4467       125650        77469 
25140000   0.97984853   -0.3218776      1728000    2101.2588       125700        77499 
25150000     1.027045  -0.33869748      1728000    2102.0697       125750        77536 
25160000     1.012988  -0.33153787      1728000    2102.8757       125800        77566 
25170000    1.0181263  -0.35184672      1728000    2103.6818       125850        77600 
25180000    1.0295922  -0.35892522      1728000    2104.5018       125900        77630 
25190000   0.94340747  -0.35997832      1728000    2105.3188       125950        77658 
25200000    1.0069524  -0.38448273      1728000    2106.1543       126000        77691 
25210000    1.0088349  -0.38349629      1728000     2106.977       126050        77723 
25220000   0.98868276  -0.37218707      1728000    2107.7876       126100        77748 
25230000   0.96875085  -0.34678188      1728000    2108.5976       126150        77778 
25240000    1.0102082  -0.38048903      1728000    2109.4178       126200        77804 
25250000    1.0187223  -0.34725197      1728000    2110.2358       126250        77828 
25260000    1.0010818  -0.34157257      1728000    2111.0357       126300        77861 
25270000    1.0021836  -0.35135867      1728000    2111.8495       126350        77894 
25280000   0.95032505  -0.35557919      1728000    2112.6687       126400        77921 
25290000   0.98876933  -0.36898823      1728000    2113.4892       126450        77951 
25300000   0.98696968   -0.3791187      1728000    2114.3161       126500        77981 
25310000    1.0044136  -0.35150214      1728000    2115.1326       126550        78017 
25320000    1.0491954  -0.35713536      1728000    2115.9459       126600        78051 
25330000   0.96493366  -0.39090397      1728000    2116.7645       126650        78085 
25340000   0.98065365  -0.35785387      1728000    2117.5919       126700        78117 
25350000    1.0400943  -0.34264703      1728000    2118.3991       126750        78145 
25360000    1.0136598  -0.37410092      1728000    2119.2184       126800        78176 
25370000   0.95965164   -0.3675048      1728000    2120.0356       126850        78204 
25380000   0.97790276  -0.36731196      1728000    2120.8527       126900        78233 
25390000   0.98063133  -0.37817977      1728000    2121.6706       126950        78258 
25400000    1.0148784  -0.38838218      1728000    2122.5237       127000        78283 
25410000    1.0361787  -0.37741466      1728000    2123.3768       127050        78314 
25420000    1.0508272  -0.35888464      1728000    2124.1833       127100        78351 
25430000   0.96342895  -0.37292335      1728000    2124.9897       127150        78383 
25440000    1.0066398  -0.35197365      1728000    2125.8026       127200        78412 
25450000   0.97104301  -0.36068871      1728000    2126.6348       127250        78444 
25460000    1.0005585  -0.40216399      1728000    2127.4577       127300        78470 
25470000   0.99673246   -0.3802236      1728000    2128.2926       127350        78497 
25480000   0.96944486  -0.37870419      1728000    2129.1357       127400        78526 
25490000   0.98397256  -0.38104085      1728000    2129.9656       127450        78562 
25500000     1.058977  -0.35802089      1728000    2130.8139       127500        78591 
25510000   0.98385503  -0.37994787      1728000    2131.7018       127550        78616 
25520000    1.0436196  -0.37888752      1728000    2132.5413       127600        78641 
25530000   0.99153246  -0.37095318      1728000    2133.3736       127650        78666 
25540000   0.98056674  -0.38155889      1728000    2134.1897       127700        78696 
25550000   0.97422502  -0.36703463      1728000    2135.0077       127750        78725 
25560000   0.98579452   -0.3542035      1728000    2135.8327       127800        78756 
25570000   0.96482672  -0.32126918      1728000    2136.6736       127850        78793 
25580000   0.97378836   -0.3344061      1728000    2137.4937       127900        78822 
25590000   0.95102757  -0.33785756      1728000    2138.3377       127950        78857 
25600000    1.0315572  -0.34691947      1728000    2139.1817       128000        78882 
25610000    1.0267423  -0.36087721      1728000    2140.0367       128050        78918 
25620000   0.95549483  -0.35223599      1728000    2140.8756       128100        78952 
25630000   0.95188011  -0.35389338      1728000    2141.7069       128150        78977 
25640000   0.98253364  -0.33080073      1728000    2142.5216       128200        79005 
25650000    1.0279453  -0.32315392      1728000    2143.3497       128250        79036 
25660000   0.99224168  -0.34790119      1728000    2144.1639       128300        79068 
25670000    1.0239172  -0.34139557      1728000    2144.9817       128350        79095 
25680000   0.99897761  -0.38061793      1728000    2145.7977       128400        79130 
25690000   0.95680607  -0.34998347      1728000    2146.6193       128450        79158 
25700000    1.0563899    -0.348677      1728000    2147.4554       128500        79182 
25710000    1.0195435  -0.35993461      1728000    2148.2787       128550        79214 
25720000    1.0380135  -0.37544335      1728000     2149.093       128600        79249 
25730000   0.98899543  -0.35953617      1728000    2149.9105       128650        79276 
25740000    1.0015383  -0.34402507      1728000    2150.7218       128700        79308 
25750000   0.99685971  -0.37865565      1728000    2151.5986       128750        79335 
25760000    1.0348038  -0.36900173      1728000     2152.426       128800        79369 
25770000    1.0258224  -0.38898448      1728000    2153.2537       128850        79403 
25780000    1.0196594  -0.36678835      1728000    2154.0736       128900        79427 
25790000   0.99468831  -0.35385786      1728000    2154.8837       128950        79456 
25800000   0.97660909  -0.35819059      1728000    2155.7089       129000        79486 
25810000   0.99155327   -0.3625416      1728000    2156.5187       129050        79517 
25820000    1.0557363  -0.34637489      1728000    2157.3328       129100        79549 
25830000    1.0300944  -0.32113506      1728000    2158.1516       129150        79580 
25840000   0.92472772  -0.35417096      1728000    2158.9576       129200        79615 
25850000    1.0239365  -0.32566399      1728000    2159.7645       129250        79649 
25860000    1.0110593  -0.32323652      1728000    2160.5836       129300        79681 
25870000    1.0093535  -0.30761299      1728000    2161.3934       129350        79710 
25880000    1.0017454  -0.31962331      1728000    2162.2257       129400        79744 
25890000    1.0251242  -0.30160261      1728000    2163.0394       129450        79777 
25900000    0.9307345  -0.31363577      1728000    2163.8617       129500        79809 
25910000     0.984539  -0.30551784      1728000    2164.6908       129550        79840 
25920000   0.97049704  -0.32520215      1728000    2165.4975       129600        79878 
25930000   0.98255052  -0.32517346      1728000    2166.3076       129650        79906 
25940000   0.97798333  -0.34925717      1728000    2167.1286       129700        79942 
25950000   0.95721755  -0.31567026      1728000    2167.9437       129750        79975 
25960000   0.99006555  -0.32251834      1728000    2168.7685       129800        80007 
25970000    1.0078211  -0.31096246      1728000    2169.5846       129850        80042 
25980000   0.99236564  -0.31216333      1728000    2170.4186       129900        80072 
25990000    1.0572547  -0.32086194      1728000    2171.2304       129950        80100 
26000000    1.0309073  -0.31835655      1728000    2172.0566       130000        80125 
26010000   0.97901031  -0.32202508      1728000    2172.8646       130050        80155 
26020000   0.99400816  -0.29990025      1728000    2173.6957       130100        80181 
26030000   0.95629472  -0.32787054      1728000    2174.5226       130150        80211 
26040000    0.9811419  -0.32854211      1728000    2175.3375       130200        80243 
26050000   0.95077071  -0.35779431      1728000    2176.1536       130250        80270 
26060000    1.0060568  -0.34558618      1728000    2176.9647       130300        80301 
26070000    1.0148785  -0.34040257      1728000    2177.7666       130350        80331 
26080000    1.0063872  -0.34002521      1728000    2178.5705       130400        80359 
26090000    1.0428189  -0.33631481      1728000    2179.3766       130450        80384 
26100000   0.94412198  -0.33147514      1728000    2180.1955       130500        80413 
26110000   0.99368059  -0.30209158      1728000    2181.0035       130550        80446 
26120000    1.0104007  -0.31496975      1728000    2181.8086       130600        80481 
26130000    1.0024274  -0.32760579      1728000    2182.6176       130650        80512 
26140000   0.96201723  -0.33782775      1728000    2183.4556       130700        80542 
26150000   0.98252619  -0.31919991      1728000    2184.2656       130750        80573 
26160000   0.97752086  -0.33516609      1728000    2185.0743       130800        80608 
26170000     1.006327  -0.34613905      1728000    2185.8894       130850        80643 
26180000   0.95624512  -0.31915998      1728000    2186.7156       130900        80673 
26190000    1.0136524  -0.38452074      1728000    2187.5346       130950        80706 
26200000    1.0045842  -0.35530329      1728000    2188.3725       131000        80739 
26210000    1.0315139  -0.34062816      1728000    2189.1787       131050        80771 
26220000    1.0017241  -0.35120785      1728000    2189.9915       131100        80801 
26230000    1.0288075  -0.35318105      1728000    2190.8206       131150        80835 
26240000   0.99562668   -0.3402244      1728000    2191.6316       131200        80868 
26250000    1.0982881  -0.35372025      1728000    2192.4436       131250        80900 
26260000   0.95325788  -0.35752813      1728000    2193.2657       131300        80936 
26270000    0.9767687  -0.35794533      1728000    2194.1033       131350        80965 
26280000    1.0202104  -0.33465415      1728000    2194.9125       131400        81002 
26290000    1.0247525  -0.34858703      1728000    2195.7247       131450        81040 
26300000   0.94773778  -0.31032762      1728000     2196.552       131500        81080 
26310000    1.0079915   -0.3185111      1728000    2197.3598       131550        81114 
26320000    0.9894809  -0.31578229      1728000    2198.1769       131600        81152 
26330000   0.94253359  -0.32247545      1728000    2199.0145       131650        81187 
26340000    1.0084576  -0.32506307      1728000    2199.8329       131700        81224 
26350000    0.9443556  -0.32737495      1728000    2200.6467       131750        81258 
26360000    1.0559654  -0.34904816      1728000     2201.455       131800        81292 
26370000    1.0342294  -0.36454488      1728000    2202.2788       131850        81319 
26380000   0.96848166  -0.36656315      1728000    2203.0945       131900        81350 
26390000   0.94028963  -0.34361263      1728000    2203.9055       131950        81382 
26400000   0.98263486  -0.34830009      1728000    2204.7275       132000        81416 
26410000   0.98148464  -0.33353177      1728000    2205.5395       132050        81450 
26420000    1.0054322  -0.34475576      1728000    2206.3615       132100        81481 
26430000   0.96335751  -0.33960867      1728000    2207.1695       132150        81510 
26440000    1.0522606  -0.34979752      1728000    2207.9714       132200        81542 
26450000    1.0345455  -0.35073532      1728000    2208.7828       132250        81566 
26460000    1.0029195  -0.36931837      1728000    2209.5916       132300        81602 
26470000     1.028125  -0.37694428      1728000    2210.4383       132350        81630 
26480000   0.98965522  -0.37567117      1728000    2211.2614       132400        81660 
26490000    1.0036028  -0.37237238      1728000    2212.0805       132450        81692 
26500000   0.95946996   -0.3709775      1728000    2212.9036       132500        81725 
26510000    1.0350065  -0.36070808      1728000    2213.7105       132550        81759 
26520000    1.0357621  -0.36704364      1728000    2214.5496       132600        81792 
26530000    1.0295607  -0.35033965      1728000    2215.3714       132650        81823 
26540000   0.94763179   -0.3724772      1728000    2216.2124       132700        81857 
26550000    0.9752331  -0.36139368      1728000    2217.0577       132750        81892 
26560000   0.93510508  -0.34240043      1728000    2217.9269       132800        81921 
26570000    1.0510064  -0.35961051      1728000     2218.809       132850        81953 
26580000   0.94695318   -0.3478498      1728000    2219.6841       132900        81983 
26590000   0.96153292  -0.37247965      1728000    2220.5116       132950        82013 
26600000   0.96683317  -0.35233366      1728000    2221.3425       133000        82042 
26610000     1.003685  -0.34763361      1728000     2222.265       133050        82071 
26620000    1.0186394  -0.37603775      1728000     2223.237       133100        82106 
26630000    1.0442379   -0.3859708      1728000    2224.1151       133150        82131 
26640000    1.0437799  -0.36071727      1728000    2224.9962       133200        82160 
26650000    1.0024038  -0.36684237      1728000    2225.9425       133250        82194 
26660000    1.0095448  -0.37096193      1728000    2226.7806       133300        82218 
26670000   0.98166059  -0.36307658      1728000    2227.6043       133350        82246 
26680000    1.0058141  -0.36480152      1728000    2228.4287       133400        82274 
26690000    1.0104909  -0.34711113      1728000    2229.2437       133450        82304 
26700000   0.96768479  -0.34059246      1728000    2230.0773       133500        82332 
26710000    1.0379712   -0.3360062      1728000    2230.8985       133550        82370 
26720000    1.0330933  -0.34365011      1728000    2231.8086       133600        82398 
26730000   0.98546677  -0.34857671      1728000    2232.6477       133650        82427 
26740000   0.98787174  -0.35460275      1728000    2233.4998       133700        82465 
26750000    0.9466513  -0.36672818      1728000     2234.324       133750        82495 
26760000   0.97872925   -0.3600307      1728000    2235.1512       133800        82528 
26770000    1.0055511  -0.36469492      1728000    2235.9705       133850        82564 
26780000    1.0343811  -0.37174783      1728000    2236.7885       133900        82595 
26790000     1.024311  -0.36992638      1728000    2237.6306       133950        82628 
26800000     1.026124  -0.38214817      1728000    2238.4855       134000        82651 
26810000   0.97990885   -0.3990008      1728000    2239.3216       134050        82681 
26820000   0.98124572  -0.37314764      1728000    2240.1855       134100        82715 
26830000   0.96470931   -0.3633529      1728000    2241.0115       134150        82748 
26840000    1.0159519  -0.35541825      1728000    2241.8608       134200        82782 
26850000   0.98056326  -0.41634721      1728000    2242.7224       134250        82812 
26860000      1.04289  -0.39264596      1728000    2243.5665       134300        82841 
26870000    1.0005201  -0.39080625      1728000    2244.3945       134350        82871 
26880000    1.0663815  -0.36434621      1728000    2245.2294       134400        82894 
26890000   0.97617942  -0.35983734      1728000    2246.0722       134450        82927 
26900000    1.0184762  -0.34286582      1728000    2246.9515       134500        82960 
26910000    1.0394044  -0.33193557      1728000    2247.8065       134550        82993 
26920000   0.98039599  -0.31373374      1728000    2248.6475       134600        83028 
26930000   0.92175087   -0.3495837      1728000    2249.4967       134650        83058 
26940000    1.0232564  -0.34259668      1728000    2250.3564       134700        83090 
26950000    1.0409357  -0.31791921      1728000    2251.2105       134750        83126 
26960000   0.99480954  -0.32626533      1728000    2252.0495       134800        83163 
26970000    1.0042876  -0.30612956      1728000    2252.9014       134850        83195 
26980000   0.97997773   -0.3346735      1728000    2253.7796       134900        83234 
26990000    1.0242827  -0.33491569      1728000    2254.6515       134950        83262 
27000000    1.0227064  -0.34484036      1728000    2255.5633       135000        83300 
27010000   0.99211143  -0.34662345      1728000    2256.4025       135050        83330 
27020000   0.97520947   -0.3249346      1728000     2257.284       135100        83360 
27030000   0.96660917  -0.33804722      1728000    2258.1491       135150        83393 
27040000    1.0477591  -0.34604265      1728000    2259.0372       135200        83423 
27050000   0.98929625  -0.34643279      1728000    2259.8984       135250        83455 
27060000    1.0048102  -0.36936696      1728000    2260.7455       135300        83486 
27070000      1.04522  -0.33511423      1728000    2261.6217       135350        83511 
27080000    1.0652136  -0.33737842      1728000    2262.4859       135400        83543 
27090000    1.0433586  -0.32280883      1728000     2263.331       135450        83570 
27100000   0.98804679  -0.32181952      1728000    2264.1773       135500        83600 
27110000    1.0457832  -0.31277323      1728000    2264.9905       135550        83640 
27120000   0.97849294  -0.33484191      1728000    2265.8236       135600        83678 
27130000   0.99478092  -0.34911957      1728000    2266.6589       135650        83716 
27140000    0.9818328  -0.35546789      1728000    2267.4904       135700        83742 
27150000    1.0684539  -0.36480393      1728000    2268.3298       135750        83769 
27160000     0.975448  -0.37833057      1728000    2269.1641       135800        83802 
27170000   0.99252084  -0.40118341      1728000    2269.9898       135850        83831 
27180000   0.93911084  -0.38183459      1728000    2270.8288       135900        83857 
27190000    1.0184475  -0.39850986      1728000    2271.6949       135950        83882 
27200000   0.99423809  -0.37501493      1728000    2272.5283       136000        83914 
27210000   0.98712574  -0.38903508      1728000    2273.3725       136050        83942 
27220000    1.0153291  -0.37337017      1728000    2274.1857       136100        83971 
27230000    1.0031727  -0.36120493      1728000    2275.0001       136150        84005 
27240000     1.054659  -0.36176128      1728000    2275.8515       136200        84035 
27250000   0.96953873  -0.39059256      1728000    2276.6674       136250        84070 
27260000    1.0095491  -0.35400284      1728000    2277.4997       136300        84102 
27270000    1.0586817  -0.37661673      1728000    2278.3304       136350        84128 
27280000   0.97124184  -0.34860116      1728000    2279.1693       136400        84154 
27290000    0.9379911  -0.34821195      1728000    2279.9876       136450        84185 
27300000    1.0539938   -0.3557689      1728000    2280.8073       136500        84211 
27310000   0.98835482  -0.36870799      1728000    2281.6376       136550        84240 
27320000    1.0049075  -0.36912369      1728000    2282.4805       136600        84275 
27330000   0.95729426  -0.37606261      1728000    2283.3125       136650        84309 
27340000    1.0332748  -0.36469521      1728000    2284.1305       136700        84344 
27350000    1.0046177  -0.37571478      1728000    2284.9905       136750        84367 
27360000    1.0361559  -0.37629616      1728000    2285.8055       136800        84397 
27370000   0.92158903  -0.39044083      1728000    2286.6464       136850        84422 
27380000    1.0197326  -0.39554467      1728000    2287.4664       136900        84453 
27390000     1.001118  -0.39864374      1728000    2288.2924       136950        84486 
27400000    1.0306335  -0.37931942      1728000    2289.1545       137000        84521 
27410000    1.0235594  -0.35388602      1728000    2289.9724       137050        84555 
27420000    1.0072799  -0.35494039      1728000    2290.8194       137100        84588 
27430000    1.0097383  -0.37750422      1728000    2291.6563       137150        84613 
27440000    1.1386521   -0.3604063      1728000    2292.4834       137200        84641 
27450000   0.99184799  -0.37480024      1728000    2293.3713       137250        84671 
27460000    0.9747562  -0.36040272      1728000    2294.2275       137300        84705 
27470000   0.98968795   -0.3561673      1728000    2295.0723       137350        84742 
27480000    1.0018752  -0.34402693      1728000    2295.9703       137400        84768 
27490000   0.98945374  -0.33360256      1728000    2296.7855       137450        84805 
27500000   0.99210479  -0.32984457      1728000    2297.6136       137500        84839 
27510000   0.95922319  -0.32554081      1728000    2298.4325       137550        84867 
27520000   0.98769634  -0.33259947      1728000    2299.2494       137600        84900 
27530000    1.0304924   -0.3388722      1728000    2300.0745       137650        84932 
27540000   0.96894856  -0.34519552      1728000    2300.8942       137700        84966 
27550000    1.0219409  -0.35169303      1728000    2301.7205       137750        84992 
27560000     1.059457  -0.36203002      1728000    2302.5485       137800        85025 
27570000    1.0230707  -0.38154379      1728000    2303.3793       137850        85051 
27580000   0.92011243  -0.34921985      1728000    2304.3311       137900        85086 
27590000    1.0021212  -0.37407213      1728000    2305.1354       137950        85116 
27600000    1.0521988  -0.37826609      1728000    2305.9493       138000        85142 
27610000    1.0071626  -0.38735495      1728000    2306.7773       138050        85175 
27620000    1.0306668  -0.38022978      1728000    2307.5875       138100        85199 
27630000    1.0093062  -0.37874141      1728000    2308.4094       138150        85229 
27640000    1.0112117  -0.38248731      1728000    2309.2182       138200        85257 
27650000   0.99504697  -0.38328342      1728000    2310.0216       138250        85290 
27660000   0.98038476  -0.38802579      1728000    2310.8314       138300        85319 
27670000   0.94186605  -0.38533246      1728000    2311.6424       138350        85348 
27680000   0.96121378  -0.39027143      1728000    2312.4565       138400        85374 
27690000   0.99810734  -0.38148174      1728000    2313.2744       138450        85398 
27700000   0.94882212  -0.37604526      1728000    2314.0855       138500        85426 
27710000    1.0359026  -0.36856106      1728000    2314.8973       138550        85454 
27720000    1.0273109  -0.38330079      1728000    2315.6994       138600        85481 
27730000    1.0029628  -0.34726729      1728000    2316.5342       138650        85506 
27740000    1.0363834   -0.3542747      1728000    2317.3635       138700        85534 
27750000     1.015061  -0.35398481      1728000    2318.1784       138750        85562 
27760000   0.98579596  -0.37905522      1728000    2318.9964       138800        85588 
27770000    1.0556328  -0.33692914      1728000    2319.8243       138850        85614 
27780000   0.97903013  -0.35407994      1728000    2320.6276       138900        85649 
27790000     1.004907  -0.33889412      1728000    2321.4325       138950        85682 
27800000    1.0753534   -0.3449401      1728000    2322.2401       139000        85713 
27810000    1.0642209  -0.36429797      1728000    2323.0732       139050        85742 
27820000   0.98529639  -0.34698114      1728000    2323.8943       139100        85770 
27830000   0.98897176  -0.37909324      1728000    2324.7287       139150        85802 
27840000   0.95613336  -0.37422003      1728000    2325.5532       139200        85836 
27850000    1.0192406  -0.37717409      1728000    2326.3704       139250        85860 
27860000   0.97204291  -0.37614415      1728000    2327.2124       139300        85893 
27870000    1.0486435  -0.36398477      1728000    2328.0363       139350        85924 
27880000   0.99123751  -0.37742301      1728000    2328.8546       139400        85954 
27890000   0.96072084  -0.38339316      1728000    2329.6724       139450        85979 
27900000   0.98093062   -0.3999688      1728000    2330.5074       139500        86005 
27910000    0.9787411  -0.38461176      1728000    2331.3174       139550        86037 
27920000    1.0510768  -0.40563691      1728000    2332.1535       139600        86060 
27930000   0.97412588  -0.37762105      1728000    2332.9924       139650        86091 
27940000    1.0437371  -0.34859871      1728000    2333.7994       139700        86116 
27950000    0.9584026  -0.37920405      1728000    2334.6084       139750        86145 
27960000    1.0315166  -0.37592778      1728000    2335.4161       139800        86176 
27970000   0.98095758  -0.37216585      1728000    2336.2314       139850        86207 
27980000     1.017621  -0.38012525      1728000    2337.0364       139900        86235 
27990000   0.92191262  -0.36545225      1728000    2337.8773       139950        86260 
28000000    0.9432425  -0.37490763      1728000    2338.6921       140000        86293 
28010000   0.94277294  -0.36169795      1728000    2339.4983       140050        86317 
28020000   0.97200198  -0.36958905      1728000    2340.3024       140100        86348 
28030000   0.97435656  -0.34998838      1728000    2341.1074       140150        86376 
28040000   0.96131794   -0.3556286      1728000    2341.9283       140200        86407 
28050000    1.0052006  -0.35010582      1728000    2342.7335       140250        86436 
28060000    1.0344186  -0.35952033      1728000    2343.5404       140300        86463 
28070000   0.92301641  -0.34303955      1728000    2344.3454       140350        86493 
28080000    1.0152707  -0.33633928      1728000    2345.1531       140400        86523 
28090000    1.0275638  -0.34362278      1728000    2345.9634       140450        86550 
28100000    1.0377695  -0.33683038      1728000    2346.7872       140500        86586 
28110000   0.96386406  -0.35650888      1728000    2347.5866       140550        86616 
28120000    0.9576685  -0.33780967      1728000    2348.4025       140600        86643 
28130000   0.94441475  -0.36615625      1728000    2349.2082       140650        86677 
28140000   0.98205457  -0.37105676      1728000    2350.0106       140700        86716 
28150000    1.0019378  -0.36521161      1728000    2350.8148       140750        86750 
28160000    1.0853127  -0.38399885      1728000     2351.629       140800        86783 
28170000   0.97062259  -0.37841904      1728000    2352.4439       140850        86816 
28180000    1.0501465  -0.38583168      1728000    2353.2563       140900        86850 
28190000    1.0164605  -0.37388661      1728000    2354.0655       140950        86879 
28200000     0.934284  -0.36342154      1728000    2354.8944       141000        86912 
28210000   0.99392445  -0.36325582      1728000    2355.7033       141050        86940 
28220000   0.96677083  -0.36919574      1728000    2356.5104       141100        86978 
28230000   0.98506767  -0.33735472      1728000    2357.3304       141150        87011 
28240000   0.96249442   -0.3384376      1728000    2358.1292       141200        87046 
28250000    1.0132473  -0.34283751      1728000    2358.9353       141250        87078 
28260000    1.0498914  -0.31975756      1728000    2359.7622       141300        87112 
28270000    0.9915228  -0.34824835      1728000    2360.5843       141350        87147 
28280000    1.0157388   -0.3527882      1728000     2361.403       141400        87176 
28290000   0.98420537  -0.34269964      1728000    2362.2192       141450        87205 
28300000   0.94838571  -0.36494712      1728000    2363.0725       141500        87234 
28310000    1.0320097  -0.36510234      1728000    2363.8912       141550        87254 
28320000    1.0093414  -0.36830042      1728000    2364.7044       141600        87284 
28330000    1.0187357  -0.37339391      1728000    2365.5107       141650        87313 
28340000    1.0217193  -0.35740361      1728000    2366.3277       141700        87346 
28350000   0.99111719   -0.3691232      1728000    2367.1668       141750        87377 
28360000    0.9901854  -0.33859449      1728000    2367.9694       141800        87408 
28370000   0.96938386  -0.33821143      1728000    2368.7787       141850        87438 
28380000    1.0422979  -0.34666733      1728000    2369.5759       141900        87472 
28390000   0.99214935  -0.35074123      1728000    2370.3814       141950        87508 
28400000    1.0078211  -0.36892554      1728000    2371.2053       142000        87544 
28410000    1.0062574  -0.32714043      1728000    2372.0263       142050        87575 
28420000    1.0304993  -0.32911471      1728000    2372.8496       142100        87611 
28430000   0.96573739  -0.34014837      1728000    2373.6514       142150        87648 
28440000    1.0162403   -0.3340536      1728000    2374.4594       142200        87681 
28450000    1.0317782  -0.34201875      1728000    2375.2683       142250        87716 
28460000   0.98345485  -0.37410322      1728000    2376.0843       142300        87753 
28470000    1.0219363  -0.37349817      1728000    2376.9023       142350        87787 
28480000   0.99239481  -0.40008761      1728000    2377.7273       142400        87809 
28490000    1.0212349  -0.37896375      1728000    2378.5737       142450        87836 
28500000    1.0682492  -0.38348964      1728000    2379.3957       142500        87870 
28510000    1.0388774   -0.3805665      1728000    2380.2102       142550        87894 
28520000   0.95530102  -0.38242629      1728000    2381.0462       142600        87922 
28530000    0.9978939  -0.34885299      1728000    2381.8604       142650        87947 
28540000    1.0218791  -0.38378485      1728000    2382.6713       142700        87982 
28550000    1.0078499  -0.38008449      1728000    2383.4963       142750        88009 
28560000   0.98493941  -0.35077338      1728000    2384.3203       142800        88034 
28570000    1.0547778  -0.32406001      1728000    2385.1282       142850        88063 
28580000    1.0122668  -0.32946321      1728000    2385.9381       142900        88092 
28590000   0.97399693  -0.34491636      1728000    2386.7543       142950        88120 
28600000   0.97936411  -0.35048933      1728000    2387.5823       143000        88155 
28610000    1.0112799  -0.31130739      1728000    2388.4012       143050        88189 
28620000    1.0453342  -0.30865218      1728000    2389.2012       143100        88226 
28630000   0.96413024  -0.31202156      1728000    2390.0183       143150        88256 
28640000   0.92724268  -0.30808579      1728000    2390.8193       143200        88284 
28650000    1.0490287  -0.31961134      1728000    2391.6213       143250        88317 
28660000    1.0217362  -0.32771787      1728000    2392.4312       143300        88350 
28670000    1.0292454  -0.34747943      1728000    2393.2373       143350        88386 
28680000    1.0263846  -0.33745345      1728000    2394.0373       143400        88419 
28690000   0.99843507  -0.33189885      1728000    2394.8632       143450        88450 
28700000   0.97518682  -0.33231884      1728000    2395.7157       143500        88483 
28710000    1.0105091  -0.31199565      1728000    2396.5143       143550        88518 
28720000   0.98021099  -0.30459245      1728000    2397.3203       143600        88549 
28730000    1.0394121  -0.31345819      1728000    2398.1273       143650        88583 
28740000    1.0106178  -0.31546061      1728000    2398.9453       143700        88607 
28750000    1.0142837  -0.32440966      1728000    2399.7531       143750        88643 
28760000    1.0173545  -0.31380082      1728000    2400.5713       143800        88675 
28770000    1.0484062   -0.3213867      1728000    2401.4013       143850        88707 
28780000    1.0081374  -0.34103896      1728000    2402.2373       143900        88743 
28790000   0.97856982  -0.32985749      1728000    2403.0592       143950        88774 
28800000    1.0099316  -0.33505773      1728000    2403.8863       144000        88814 
28810000   0.99087288  -0.32101745      1728000    2404.7083       144050        88845 
28820000    1.0096862  -0.33187359      1728000    2405.5393       144100        88871 
28830000   0.94979822  -0.32537874      1728000    2406.3752       144150        88905 
28840000   0.95772749  -0.32026284      1728000    2407.1972       144200        88931 
28850000   0.98238034  -0.33265662      1728000    2408.0162       144250        88963 
28860000    0.9619748   -0.3236701      1728000    2408.8472       144300        88992 
28870000   0.99217596  -0.32296766      1728000    2409.6621       144350        89022 
28880000    1.0293584  -0.36350293      1728000    2410.4743       144400        89056 
28890000    1.0257235  -0.32884145      1728000    2411.2932       144450        89090 
28900000   0.97686792  -0.34552995      1728000    2412.1343       144500        89121 
28910000   0.99475464  -0.34519037      1728000    2412.9451       144550        89151 
28920000   0.96709146  -0.35971714      1728000    2413.7573       144600        89185 
28930000   0.94106207  -0.34510126      1728000    2414.5663       144650        89221 
28940000    1.0544464  -0.36494685      1728000    2415.3923       144700        89247 
28950000    1.0323076  -0.34412464      1728000    2416.2102       144750        89274 
28960000    1.0656743  -0.33945899      1728000    2417.0361       144800        89306 
28970000   0.98482402  -0.31030364      1728000    2417.8341       144850        89345 
28980000   0.96572125  -0.35057925      1728000    2418.6421       144900        89384 
28990000    1.0701562  -0.36275581      1728000    2419.4553       144950        89412 
29000000   0.97618689  -0.35079994      1728000    2420.2812       145000        89444 
29010000    1.0624774  -0.36394489      1728000    2421.1012       145050        89473 
29020000    1.0175768  -0.32980336      1728000    2421.9233       145100        89503 
29030000    1.0535931  -0.33083061      1728000    2422.7379       145150        89535 
29040000    1.0045303  -0.35589872      1728000    2423.5563       145200        89565 
29050000   0.99639157  -0.33109361      1728000     2424.367       145250        89595 
29060000   0.99684816  -0.32025405      1728000    2425.1982       145300        89618 
29070000    1.0307923   -0.3371597      1728000    2426.0013       145350        89653 
29080000    1.0586288  -0.35965537      1728000    2426.8271       145400        89681 
29090000    1.0728333  -0.34491347      1728000    2427.6522       145450        89714 
29100000   0.99884033  -0.34383748      1728000    2428.4783       145500        89753 
29110000   0.96362214  -0.35232329      1728000    2429.3472       145550        89786 
29120000   0.92729728  -0.34189922      1728000    2430.1733       145600        89810 
29130000   0.98349211  -0.34623227      1728000    2430.9983       145650        89837 
29140000    1.0144295  -0.33213751      1728000    2431.8471       145700        89870 
29150000    1.0047459  -0.33065312      1728000    2432.6924       145750        89900 
29160000    1.0550443  -0.36569401      1728000    2433.5084       145800        89927 
29170000   0.97217097  -0.37157795      1728000    2434.3895       145850        89958 
29180000    1.0580301  -0.37084889      1728000    2435.2257       145900        89986 
29190000    1.0010246  -0.35815757      1728000    2436.0878       145950        90016 
29200000    0.9878059  -0.34245118      1728000    2436.9419       146000        90045 
29210000    0.9686575  -0.35889059      1728000     2437.825       146050        90071 
29220000    1.0195203  -0.36903143      1728000    2438.6437       146100        90103 
29230000    0.9874803  -0.35878098      1728000    2439.4621       146150        90139 
29240000   0.99687836  -0.36248939      1728000    2440.2835       146200        90169 
29250000   0.94423914  -0.35533335      1728000    2441.0972       146250        90202 
29260000    1.0166948  -0.35615232      1728000    2441.9232       146300        90232 
29270000   0.98245975  -0.36533478      1728000    2442.7491       146350        90267 
29280000   0.93967141  -0.34944459      1728000    2443.5831       146400        90299 
29290000    1.0121205  -0.34820508      1728000    2444.4142       146450        90332 
29300000    1.0614625  -0.36447692      1728000    2445.2704       146500        90362 
29310000    1.0228682   -0.3500687      1728000      2446.08       146550        90389 
29320000    1.0872719  -0.35150422      1728000    2446.8943       146600        90423 
29330000    1.0371669  -0.35064695      1728000    2447.7417       146650        90450 
29340000   0.99040754  -0.36213254      1728000    2448.5715       146700        90483 
29350000    1.0044859  -0.34589603      1728000    2449.3952       146750        90510 
29360000   0.94228569  -0.34066161      1728000    2450.2092       146800        90543 
29370000    1.0030216   -0.3661353      1728000    2451.0211       146850        90574 
29380000    1.0915265  -0.33636571      1728000    2451.8641       146900        90606 
29390000   0.97362357  -0.34035318      1728000    2452.6731       146950        90642 
29400000   0.96225122  -0.35849654      1728000     2453.501       147000        90677 
29410000   0.98360515  -0.33878342      1728000    2454.3122       147050        90706 
29420000   0.96093363  -0.34524464      1728000    2455.1342       147100        90738 
29430000   0.92893133  -0.32742302      1728000    2455.9692       147150        90768 
29440000    1.0132064  -0.33780834      1728000    2456.7813       147200        90800 
29450000   0.91904069  -0.31719926      1728000    2457.5862       147250        90835 
29460000   0.98284168  -0.34341147      1728000    2458.3932       147300        90870 
29470000    1.0010435  -0.32091891      1728000    2459.2092       147350        90897 
29480000   0.97058423  -0.34500175      1728000    2460.0191       147400        90927 
29490000   0.91371993  -0.31223852      1728000    2460.8521       147450        90962 
29500000   0.95782714  -0.34466865      1728000    2461.6822       147500        90990 
29510000    1.0145169  -0.34151111      1728000    2462.5041       147550        91018 
29520000    0.9824607  -0.35515548      1728000    2463.3272       147600        91052 
29530000    0.9913056  -0.33736119      1728000    2464.1502       147650        91081 
29540000    1.0142825  -0.33493949      1728000    2464.9811       147700        91108 
29550000    1.0188887  -0.35129472      1728000    2465.7981       147750        91142 
29560000     1.006285  -0.34931866      1728000    2466.6231       147800        91178 
29570000    1.0235847  -0.36637037      1728000    2467.4452       147850        91212 
29580000   0.95317643  -0.38084036      1728000    2468.2771       147900        91242 
29590000    1.0352915  -0.34161838      1728000     2469.101       147950        91275 
29600000   0.96008518  -0.34535077      1728000     2469.932       148000        91301 
29610000   0.96643913  -0.34309983      1728000    2470.7461       148050        91337 
29620000     1.031263  -0.32524419      1728000    2471.5672       148100        91369 
29630000   0.92558874  -0.35629961      1728000    2472.3942       148150        91401 
29640000   0.97146138  -0.35185892      1728000     2473.218       148200        91434 
29650000   0.96669049  -0.32217334      1728000    2474.0321       148250        91464 
29660000    0.9507307  -0.32548938      1728000     2474.853       148300        91494 
29670000   0.97717519  -0.34171951      1728000    2475.6792       148350        91528 
29680000   0.97401805  -0.30960024      1728000    2476.5142       148400        91560 
29690000    1.0228754  -0.33730431      1728000    2477.3502       148450        91591 
29700000    0.9650596  -0.36813037      1728000    2478.1892       148500        91622 
29710000     1.018142   -0.3795907      1728000    2479.0268       148550        91650 
29720000   0.99027908  -0.39932285      1728000    2479.8552       148600        91685 
29730000   0.95131431  -0.36270216      1728000     2480.721       148650        91721 
29740000   0.98801905  -0.34725524      1728000    2481.5512       148700        91754 
29750000   0.98612137  -0.37059241      1728000    2482.3822       148750        91787 
29760000    1.0172392  -0.32994981      1728000    2483.2141       148800        91815 
29770000   0.97609374  -0.33583333      1728000    2484.0361       148850        91840 
29780000   0.97717857  -0.33625348      1728000    2484.8729       148900        91870 
29790000      1.00859  -0.33951273      1728000    2485.6962       148950        91901 
29800000    1.0175555   -0.3595765      1728000     2486.544       149000        91936 
29810000   0.99149477  -0.35031895      1728000    2487.3992       149050        91965 
29820000   0.99275889   -0.3579828      1728000      2488.22       149100        92000 
29830000   0.91689616  -0.36927268      1728000    2489.0411       149150        92036 
29840000    1.0499482  -0.38528256      1728000    2489.8702       149200        92069 
29850000    1.0860796  -0.34876035      1728000    2490.6912       149250        92099 
29860000   0.98222349  -0.34927265      1728000    2491.5111       149300        92131 
29870000   0.98772701   -0.3772931      1728000    2492.3371       149350        92168 
29880000    1.0260103  -0.37185881      1728000    2493.1792       149400        92201 
29890000   0.95264892  -0.33878402      1728000    2494.0978       149450        92229 
29900000   0.97608536  -0.36628044      1728000    2494.9426       149500        92256 
29910000     0.993301  -0.35609242      1728000    2495.7796       149550        92284 
29920000   0.94693622  -0.34351865      1728000    2496.5992       149600        92315 
29930000    1.0158002  -0.35403011      1728000    2497.4151       149650        92339 
29940000   0.97815765  -0.35833476      1728000    2498.2331       149700        92370 
29950000   0.95543945  -0.33735681      1728000    2499.1306       149750        92407 
29960000   0.95198183  -0.31810208      1728000     2500.014       149800        92436 
29970000   0.97789687  -0.31805208      1728000    2500.9131       149850        92469 
29980000   0.99088518  -0.32529109      1728000    2501.7802       149900        92503 
29990000    1.0029994  -0.35024942      1728000    2502.6133       149950        92533 
30000000       1.0169  -0.32596425      1728000    2503.4694       150000        92566 
30010000     1.019696  -0.33974525      1728000    2504.2889       150050        92598 
30020000   0.99829377  -0.33513914      1728000    2505.1042       150100        92631 
30030000    1.0273987  -0.33727851      1728000    2505.9202       150150        92665 
30040000   0.91883044  -0.34474292      1728000    2506.7716       150200        92695 
30050000     1.055461  -0.33903413      1728000    2507.6089       150250        92729 
30060000   0.98431757   -0.3387316      1728000    2508.4371       150300        92762 
30070000    1.0093621  -0.34395406      1728000    2509.2954       150350        92797 
30080000   0.97420742  -0.32506474      1728000    2510.1301       150400        92830 
30090000    1.0828032  -0.32936918      1728000    2510.9581       150450        92861 
30100000   0.98635197  -0.33955195      1728000    2511.8049       150500        92898 
30110000    1.0124456  -0.32478872      1728000     2512.626       150550        92929 
30120000    1.0048709   -0.3073728      1728000    2513.4341       150600        92963 
30130000   0.97873788  -0.34543343      1728000    2514.2591       150650        92998 
30140000   0.99693392  -0.34131797      1728000    2515.0691       150700        93034 
30150000   0.99603011  -0.31285131      1728000    2515.8741       150750        93064 
30160000    1.0300769  -0.30010691      1728000    2516.6759       150800        93097 
30170000   0.96384603  -0.33552025      1728000    2517.4972       150850        93133 
30180000    1.0214816  -0.34472611      1728000    2518.3289       150900        93166 
30190000   0.99082127  -0.31954943      1728000    2519.1451       150950        93197 
30200000   0.99964909  -0.33079435      1728000    2519.9759       151000        93230 
30210000   0.95731014  -0.32944614      1728000    2520.7911       151050        93265 
30220000   0.98968186  -0.33211492      1728000     2521.605       151100        93296 
30230000    1.0654217  -0.33942682      1728000    2522.4222       151150        93331 
30240000   0.98801933   -0.3434604      1728000    2523.2401       151200        93361 
30250000   0.93401764  -0.38988638      1728000    2524.0561       151250        93392 
30260000      1.07455  -0.37925758      1728000    2524.9361       151300        93418 
30270000    1.0109567  -0.34652406      1728000    2525.7541       151350        93451 
30280000    0.9813249  -0.34827833      1728000     2526.587       151400        93480 
30290000   0.99816693  -0.34080699      1728000    2527.4021       151450        93515 
30300000   0.96570465  -0.34933138      1728000    2528.2261       151500        93545 
30310000     1.031406  -0.35392604      1728000    2529.0501       151550        93572 
30320000    1.0962854  -0.35420415      1728000    2529.8651       151600        93603 
30330000   0.98384939  -0.34997352      1728000    2530.7101       151650        93638 
30340000    1.0024371  -0.33390815      1728000     2531.512       151700        93671 
30350000    1.0115455  -0.33151686      1728000    2532.3258       151750        93702 
30360000      0.99456  -0.34545046      1728000     2533.144       151800        93733 
30370000   0.98982405  -0.34075172      1728000    2533.9621       151850        93763 
30380000    1.0309086  -0.32342195      1728000     2534.795       151900        93789 
30390000    1.0165532  -0.33926027      1728000    2535.6461       151950        93820 
30400000    0.9867986  -0.31627072      1728000    2536.4671       152000        93849 
30410000    1.0059121  -0.31926975      1728000     2537.314       152050        93876 
30420000    1.0346307  -0.31470908      1728000    2538.1251       152100        93915 
30430000   0.93660749  -0.30204726      1728000    2538.9329       152150        93945 
30440000    1.0406332  -0.32917428      1728000    2539.7338       152200        93982 
30450000    1.0420733  -0.32108783      1728000     2540.542       152250        94018 
30460000   0.95132948  -0.33508656      1728000    2541.3687       152300        94053 
30470000    1.0179665  -0.32475292      1728000    2542.2007       152350        94083 
30480000   0.96771421  -0.32084717      1728000    2543.0888       152400        94119 
30490000   0.99399173  -0.32722176      1728000      2543.92       152450        94157 
30500000    1.0067925  -0.32273481      1728000    2544.7362       152500        94190 
30510000    1.0347551   -0.3240819      1728000    2545.5914       152550        94220 
30520000    1.0429135  -0.33624936      1728000    2546.4615       152600        94249 
30530000   0.99745845  -0.32262981      1728000    2547.3636       152650        94283 
30540000    1.0438276  -0.33347812      1728000     2548.181       152700        94318 
30550000    1.0214498   -0.3296962      1728000    2548.9882       152750        94356 
30560000   0.99789233  -0.31537612      1728000    2549.7914       152800        94391 
30570000    1.0747581  -0.33165337      1728000    2550.6284       152850        94430 
30580000   0.96959863   -0.3247196      1728000    2551.4766       152900        94459 
30590000   0.98035824  -0.34287606      1728000    2552.3157       152950        94492 
30600000    1.0246474  -0.33142309      1728000    2553.1459       153000        94528 
30610000    1.0055973  -0.33713974      1728000     2553.985       153050        94558 
30620000   0.97922494  -0.35786058      1728000    2554.8081       153100        94588 
30630000   0.99010034  -0.35370647      1728000    2555.6289       153150        94624 
30640000   0.98512806  -0.33532543      1728000    2556.4699       153200        94662 
30650000   0.93385582  -0.33804584      1728000    2557.3369       153250        94693 
30660000   0.97979016   -0.3400567      1728000    2558.1861       153300        94731 
30670000     1.032017  -0.35313603      1728000    2558.9999       153350        94766 
30680000    1.0006968  -0.33408147      1728000     2559.826       153400        94798 
30690000   0.97797625  -0.32397921      1728000      2560.66       153450        94832 
30700000   0.93488273  -0.32690561      1728000     2561.475       153500        94867 
30710000   0.95998485  -0.33011786      1728000    2562.2828       153550        94899 
30720000   0.99786784  -0.31905792      1728000    2563.0879       153600        94929 
30730000    1.0357864  -0.33259096      1728000     2563.935       153650        94960 
30740000    0.9560629  -0.32041148      1728000     2564.736       153700        94992 
30750000   0.99123842  -0.33284872      1728000     2565.533       153750        95025 
30760000    1.0818582  -0.33484629      1728000    2566.3421       153800        95055 
30770000   0.96537064  -0.32708679      1728000    2567.1488       153850        95089 
30780000   0.97245341  -0.34373724      1728000     2567.954       153900        95121 
30790000   0.98873435  -0.33149908      1728000    2568.7591       153950        95151 
30800000   0.95716695  -0.36227142      1728000    2569.5771       154000        95175 
30810000    1.0093528  -0.35933809      1728000    2570.3891       154050        95202 
30820000   0.93061684  -0.34396899      1728000    2571.2008       154100        95233 
30830000    1.0227552  -0.33469871      1728000    2572.0107       154150        95266 
30840000     1.007582   -0.3394459      1728000    2572.8379       154200        95305 
30850000    1.0337377  -0.35780131      1728000    2573.6651       154250        95335 
30860000    1.0312538  -0.33036963      1728000    2574.4909       154300        95364 
30870000    1.0637875  -0.34905787      1728000    2575.3252       154350        95392 
30880000   0.98920891  -0.33882109      1728000    2576.1499       154400        95425 
30890000   0.93744705  -0.32515126      1728000    2576.9941       154450        95457 
30900000    1.0157337  -0.35677919      1728000     2577.841       154500        95479 
30910000    1.0063616  -0.36062168      1728000     2578.688       154550        95509 
30920000   0.95568849  -0.35761029      1728000    2579.5009       154600        95541 
30930000    1.0667349  -0.36078189      1728000    2580.3189       154650        95572 
30940000    0.9676542  -0.34965242      1728000    2581.1271       154700        95607 
30950000    1.0486474  -0.35746708      1728000     2581.934       154750        95636 
30960000   0.99632893  -0.38310203      1728000     2582.763       154800        95665 
30970000   0.97716891  -0.37016255      1728000    2583.5729       154850        95696 
30980000    1.0603039  -0.38129093      1728000     2584.404       154900        95720 
30990000   0.99239639  -0.36073076      1728000    2585.2289       154950        95758 
31000000    1.0285834  -0.36474117      1728000    2586.0755       155000        95788 
31010000   0.98526722  -0.36457663      1728000     2586.886       155050        95820 
31020000    1.0235026  -0.38110508      1728000    2587.6965       155100        95847 
31030000    1.0241108  -0.37427838      1728000    2588.4984       155150        95880 
31040000   0.97402274  -0.36868572      1728000    2589.3031       155200        95908 
31050000     1.006789  -0.34926763      1728000    2590.1051       155250        95940 
31060000    1.0657023  -0.37241159      1728000    2590.9059       155300        95975 
31070000    1.0162047  -0.36325174      1728000     2591.714       155350        96008 
31080000    1.0513999  -0.36443396      1728000    2592.5179       155400        96031 
31090000    1.0134098  -0.37044479      1728000    2593.3251       155450        96068 
31100000    1.0023229  -0.37647087      1728000    2594.1421       155500        96098 
31110000   0.93969293  -0.38301781      1728000    2594.9561       155550        96121 
31120000   0.94751844  -0.37693602      1728000    2595.7909       155600        96152 
31130000    0.9884439  -0.38206254      1728000    2596.5991       155650        96184 
31140000   0.99642117  -0.38917687      1728000     2597.426       155700        96218 
31150000     1.028311  -0.36814874      1728000      2598.24       155750        96246 
31160000    1.0142019  -0.38373227      1728000    2599.1097       155800        96275 
31170000   0.94883576   -0.3887071      1728000    2599.9309       155850        96302 
31180000    1.0223663  -0.37793252      1728000     2600.751       155900        96329 
31190000   0.98581055    -0.367216      1728000    2601.5828       155950        96364 
31200000    0.9911791  -0.35110411      1728000     2602.409       156000        96394 
31210000    1.0026233  -0.34190018      1728000    2603.2209       156050        96422 
31220000   0.96671626   -0.3583423      1728000     2604.054       156100        96450 
31230000     1.078223  -0.35973812      1728000    2604.8711       156150        96480 
31240000   0.96715215  -0.34136389      1728000    2605.7039       156200        96512 
31250000   0.96981435  -0.34747514      1728000     2606.509       156250        96541 
31260000    1.0325044  -0.33665103      1728000    2607.3409       156300        96573 
31270000    0.9972738  -0.34527705      1728000     2608.145       156350        96603 
31280000     1.023411  -0.32366578      1728000     2608.953       156400        96637 
31290000   0.97982403  -0.33215962      1728000    2609.7849       156450        96662 
31300000   0.99278223  -0.34308976      1728000    2610.6499       156500        96698 
31310000     1.044238  -0.36832677      1728000     2611.497       156550        96730 
31320000   0.97212448  -0.37098645      1728000     2612.319       156600        96757 
31330000    1.0585978   -0.3570654      1728000     2613.162       156650        96787 
31340000    1.0188386  -0.35517936      1728000      2613.98       156700        96818 
31350000   0.97389897  -0.33710918      1728000    2614.8272       156750        96842 
31360000    1.0003564  -0.35654681      1728000    2615.6481       156800        96866 
31370000    1.1021598  -0.36326057      1728000     2616.491       156850        96895 
31380000   0.94006583  -0.33156352      1728000    2617.3492       156900        96928 
31390000   0.96296578   -0.3382545      1728000     2618.184       156950        96964 
31400000   0.97790586  -0.34864871      1728000     2619.088       157000        97002 
31410000   0.98719175  -0.34852072      1728000    2619.9211       157050        97036 
31420000    1.0498656  -0.36872062      1728000     2620.731       157100        97074 
31430000   0.97772855  -0.34924405      1728000     2621.558       157150        97104 
31440000   0.91818194  -0.34866102      1728000    2622.3748       157200        97134 
31450000    1.0491793  -0.36637084      1728000    2623.2087       157250        97164 
31460000   0.98863418  -0.34582864      1728000    2624.0347       157300        97189 
31470000    1.0035274  -0.34996056      1728000    2624.8409       157350        97219 
31480000    1.0077576  -0.36361719      1728000     2625.671       157400        97247 
31490000   0.94404487  -0.35150899      1728000    2626.4809       157450        97277 
31500000    1.0433506  -0.34767306      1728000     2627.327       157500        97309 
31510000    1.0195853  -0.36428776      1728000    2628.1979       157550        97344 
31520000     1.052275  -0.37869648      1728000    2629.0561       157600        97373 
31530000   0.98966436  -0.35800634      1728000    2629.8791       157650        97406 
31540000    1.0039052   -0.3696202      1728000    2630.7067       157700        97437 
31550000   0.92362999  -0.38324927      1728000    2631.5409       157750        97466 
31560000   0.99546267  -0.38130729      1728000     2632.348       157800        97491 
31570000    1.0668893  -0.38301774      1728000    2633.1583       157850        97520 
31580000   0.96340115  -0.36864724      1728000    2633.9669       157900        97548 
31590000    0.9843722  -0.36805067      1728000    2634.8059       157950        97576 
31600000    1.0083799  -0.35541755      1728000    2635.6548       158000        97604 
31610000    1.0359821  -0.33670787      1728000    2636.5091       158050        97638 
31620000    1.0290149  -0.33428092      1728000    2637.3727       158100        97670 
31630000   0.98503023  -0.33672542      1728000    2638.2339       158150        97696 
31640000   0.96499436  -0.34741941      1728000     2639.068       158200        97724 
31650000    1.0783054  -0.34552919      1728000    2639.9063       158250        97761 
31660000    1.0092563  -0.35940006      1728000     2640.716       158300        97791 
31670000     1.049625  -0.37433049      1728000    2641.5573       158350        97817 
31680000    1.0349388  -0.36931502      1728000    2642.3934       158400        97847 
31690000   0.95919955  -0.35098345      1728000    2643.2416       158450        97871 
31700000    1.0079242   -0.3445888      1728000    2644.1517       158500        97903 
31710000    1.0053522  -0.34760621      1728000    2644.9689       158550        97939 
31720000   0.96021715  -0.37408439      1728000    2645.7812       158600        97968 
31730000   0.93416615  -0.32861072      1728000    2646.5955       158650        97994 
31740000    1.0158618  -0.33954805      1728000    2647.4122       158700        98027 
31750000    1.0610978  -0.35923352      1728000    2648.2133       158750        98054 
31760000   0.98525895  -0.33346903      1728000    2649.0231       158800        98084 
31770000   0.98768608  -0.35262775      1728000     2649.838       158850        98121 
31780000     1.031709   -0.3396731      1728000     2650.646       158900        98153 
31790000    1.0305569  -0.35653033      1728000    2651.4681       158950        98181 
31800000   0.99668351  -0.38326606      1728000    2652.3041       159000        98212 
31810000   0.97959458  -0.37465258      1728000     2653.123       159050        98241 
31820000    1.0084401  -0.38018315      1728000    2653.9389       159100        98274 
31830000   0.96810912  -0.35860277      1728000    2654.7409       159150        98306 
31840000    1.0338736   -0.3324003      1728000    2655.5489       159200        98340 
31850000   0.99280605  -0.35504765      1728000    2656.3549       159250        98373 
31860000    1.0129197  -0.35721245      1728000     2657.173       159300        98398 
31870000   0.97767872  -0.32789772      1728000     2657.981       159350        98433 
31880000    1.0786994  -0.33597201      1728000    2658.7901       159400        98461 
31890000    1.0028573  -0.33117407      1728000    2659.6139       159450        98498 
31900000   0.93533003  -0.33528135      1728000    2660.4521       159500        98530 
31910000    1.0073623  -0.33971276      1728000    2661.2688       159550        98566 
31920000    1.0488398  -0.35552134      1728000    2662.0877       159600        98596 
31930000   0.98161706  -0.37130681      1728000    2662.9151       159650        98621 
31940000    1.0349108  -0.31839826      1728000    2663.7368       159700        98652 
31950000   0.94500583  -0.34169914      1728000    2664.5469       159750        98685 
31960000     1.059232  -0.32754724      1728000    2665.3551       159800        98721 
31970000    1.0190701  -0.33444816      1728000     2666.177       159850        98747 
31980000    1.0018913  -0.35225959      1728000      2666.98       159900        98783 
31990000   0.97763111  -0.35901428      1728000    2667.8136       159950        98808 
32000000   0.96113915  -0.36142446      1728000    2668.6349       160000        98839 
32010000    1.0256693  -0.37055068      1728000    2669.4449       160050        98871 
32020000    1.0308612  -0.37353624      1728000    2670.2628       160100        98897 
32030000    1.0100367  -0.39499633      1728000    2671.0846       160150        98922 
32040000   0.97388988  -0.44344842      1728000     2671.906       160200        98951 
32050000    1.0009703  -0.45170715      1728000     2672.734       160250        98977 
32060000   0.97967264  -0.41768501      1728000    2673.5581       160300        98999 
32070000    1.0304194  -0.43213799      1728000    2674.3859       160350        99033 
32080000    1.0588033  -0.41962738      1728000    2675.2039       160400        99061 
32090000    1.0287831  -0.42210639      1728000    2676.0148       160450        99086 
32100000   0.99981187  -0.37484565      1728000    2676.8487       160500        99119 
32110000    1.0408763  -0.41402659      1728000    2677.6689       160550        99146 
32120000    1.0465052  -0.38823286      1728000     2678.511       160600        99178 
32130000     1.076875  -0.37478042      1728000    2679.3239       160650        99215 
32140000    1.0229247  -0.37065492      1728000    2680.1377       160700        99239 
32150000   0.97762899  -0.39187812      1728000    2680.9522       160750        99271 
32160000    1.0021261  -0.36710784      1728000     2681.761       160800        99299 
32170000    1.0222431  -0.37974159      1728000    2682.6001       160850        99328 
32180000   0.99086743  -0.37968297      1728000    2683.4453       160900        99356 
32190000    1.0218914  -0.38779279      1728000    2684.2694       160950        99381 
32200000   0.98438744  -0.36864111      1728000    2685.0918       161000        99414 
32210000    1.0362577   -0.3634097      1728000    2685.9059       161050        99444 
32220000    1.0133214  -0.37062759      1728000    2686.7238       161100        99473 
32230000   0.97489426  -0.35325148      1728000    2687.5439       161150        99504 
32240000    1.0110209  -0.33837331      1728000    2688.3858       161200        99531 
32250000    1.0180672  -0.33495049      1728000    2689.1938       161250        99558 
32260000   0.97305344  -0.36292359      1728000     2689.992       161300        99586 
32270000   0.98775721  -0.36120933      1728000    2690.8007       161350        99618 
32280000    1.0063579  -0.37467436      1728000    2691.6116       161400        99648 
32290000   0.94315645  -0.37713987      1728000    2692.4561       161450        99678 
32300000    1.0030642  -0.34657426      1728000    2693.3768       161500        99714 
32310000   0.97346401  -0.35113659      1728000    2694.2161       161550        99745 
32320000   0.95707421  -0.32126525      1728000    2695.0787       161600        99779 
32330000    1.0006178  -0.35985294      1728000    2695.9093       161650        99807 
32340000    1.0991719  -0.35104488      1728000    2696.7406       161700        99833 
32350000    1.0026967  -0.36551268      1728000    2697.5937       161750        99865 
32360000    1.0037019  -0.34824977      1728000    2698.4328       161800        99896 
32370000    1.0060171   -0.3459958      1728000    2699.2893       161850        99930 
32380000   0.97997756  -0.34581471      1728000    2700.0958       161900        99963 
32390000   0.93806513  -0.36728623      1728000    2700.9109       161950        99991 
32400000     1.022607  -0.34881407      1728000    2701.7804       162000       100025 
32410000    1.0225796  -0.33791239      1728000    2702.6985       162050       100059 
32420000   0.97932298  -0.32057439      1728000    2703.5188       162100       100088 
32430000    0.9494051  -0.33346396      1728000    2704.3282       162150       100115 
32440000    1.0488764   -0.3315866      1728000    2705.1512       162200       100149 
32450000    1.0012753  -0.33213821      1728000     2705.988       162250       100182 
32460000   0.94584676   -0.3473343      1728000    2706.8073       162300       100217 
32470000   0.97880594  -0.35168277      1728000    2707.6258       162350       100247 
32480000    1.0692808  -0.33164147      1728000    2708.4268       162400       100275 
32490000   0.98763593  -0.36521825      1728000    2709.2341       162450       100303 
32500000   0.92431949  -0.34997745      1728000    2710.0486       162500       100337 
32510000    1.0357279  -0.33182112      1728000     2710.852       162550       100369 
32520000   0.98252216  -0.34110693      1728000    2711.6644       162600       100395 
32530000   0.98089482  -0.33369371      1728000    2712.4756       162650       100419 
32540000   0.92353941  -0.34601182      1728000    2713.2881       162700       100444 
32550000   0.99872808   -0.3643593      1728000    2714.1003       162750       100476 
32560000    1.0353299  -0.33626809      1728000    2714.9066       162800       100509 
32570000   0.92467899  -0.34018873      1728000     2715.719       162850       100543 
32580000   0.96781112  -0.30329575      1728000    2716.5328       162900       100571 
32590000    1.0748028  -0.33295722      1728000    2717.3509       162950       100603 
32600000   0.99456331  -0.33826918      1728000    2718.1768       163000       100634 
32610000    1.0730314  -0.30494964      1728000    2718.9931       163050       100668 
32620000    1.0225026  -0.31608633      1728000    2719.8066       163100       100693 
32630000     1.015378  -0.31375356      1728000    2720.6108       163150       100732 
32640000    1.0062435  -0.31460669      1728000    2721.4146       163200       100767 
32650000   0.99382768  -0.31379512      1728000    2722.2199       163250       100800 
32660000    1.0727231  -0.33603618      1728000    2723.0298       163300       100834 
32670000    0.9809044   -0.3068794      1728000    2723.8238       163350       100860 
32680000    1.0375733  -0.31630887      1728000    2724.6267       163400       100888 
32690000    1.0009846    -0.306077      1728000     2725.439       163450       100923 
32700000    0.9957832   -0.3204071      1728000    2726.2528       163500       100955 
32710000    1.0445009  -0.32619703      1728000    2727.0486       163550       100986 
32720000    1.0324006  -0.33888403      1728000    2727.8507       163600       101015 
32730000    1.0239626  -0.38432654      1728000    2728.6508       163650       101050 
32740000   0.98857475  -0.35308267      1728000    2729.4578       163700       101086 
32750000   0.96781415  -0.35210806      1728000    2730.2537       163750       101121 
32760000    1.0331688  -0.34610378      1728000    2731.0615       163800       101149 
32770000    1.0762707  -0.37622449      1728000    2731.8737       163850       101182 
32780000    1.0222519   -0.3667084      1728000    2732.6998       163900       101208 
32790000    1.0229411  -0.34284245      1728000    2733.5508       163950       101237 
32800000    1.0559205  -0.36892832      1728000    2734.3618       164000       101272 
32810000   0.95984879  -0.33611529      1728000     2735.164       164050       101303 
32820000    1.0016504  -0.32347253      1728000    2735.9648       164100       101336 
32830000    1.0671093   -0.3279565      1728000    2736.7729       164150       101371 
32840000   0.99574222  -0.33080404      1728000    2737.5759       164200       101403 
32850000   0.98868956  -0.32994417      1728000    2738.4118       164250       101436 
32860000    1.0428288  -0.32655988      1728000    2739.2207       164300       101463 
32870000   0.96497388  -0.36037306      1728000    2740.0318       164350       101490 
32880000   0.96276432  -0.37700789      1728000    2740.8538       164400       101515 
32890000   0.98856499  -0.34630203      1728000    2741.6558       164450       101543 
32900000   0.98743484   -0.3743605      1728000    2742.4761       164500       101571 
32910000    1.0298101  -0.36331949      1728000    2743.3229       164550       101597 
32920000    1.0260679  -0.35574963      1728000    2744.1618       164600       101623 
32930000   0.98218549   -0.3608144      1728000    2744.9647       164650       101657 
32940000   0.98377031  -0.38241867      1728000    2745.7687       164700       101680 
32950000   0.92802665  -0.37626386      1728000    2746.5748       164750       101707 
32960000   0.99683333  -0.39515429      1728000    2747.3951       164800       101738 
32970000   0.95668934  -0.39376866      1728000    2748.2083       164850       101771 
32980000   0.95731342  -0.38726419      1728000    2749.0287       164900       101798 
32990000    1.0567876  -0.39888747      1728000    2749.8405       164950       101827 
33000000   0.91100483  -0.40218804      1728000    2750.6732       165000       101857 
33010000   0.98817252  -0.41019868      1728000    2751.4924       165050       101884 
33020000    1.0107481  -0.40311725      1728000    2752.3083       165100       101914 
33030000   0.99498057   -0.4059111      1728000    2753.1168       165150       101946 
33040000    1.0343223  -0.38475209      1728000    2753.9301       165200       101978 
33050000   0.98823956  -0.36321319      1728000    2754.7525       165250       102007 
33060000    1.0420576  -0.39992743      1728000    2755.5739       165300       102039 
33070000    0.9954514  -0.36041515      1728000    2756.3847       165350       102068 
33080000    1.0049985  -0.33445413      1728000    2757.1975       165400       102095 
33090000   0.99080072  -0.36176838      1728000    2758.1037       165450       102124 
33100000   0.97777482  -0.38634363      1728000    2758.9478       165500       102150 
33110000   0.96105609  -0.37161573      1728000    2759.7658       165550       102179 
33120000   0.94825744  -0.35894341      1728000    2760.5747       165600       102203 
33130000   0.98679378  -0.37739852      1728000    2761.4138       165650       102231 
33140000   0.96814465  -0.34267549      1728000    2762.2296       165700       102261 
33150000    1.0275299  -0.36389396      1728000    2763.0378       165750       102294 
33160000    1.0109761  -0.34772363      1728000    2763.8567       165800       102324 
33170000   0.97930231  -0.37433519      1728000    2764.6629       165850       102355 
33180000    1.0007388  -0.34435265      1728000    2765.4595       165900       102387 
33190000   0.96661663  -0.36806372      1728000    2766.2706       165950       102415 
33200000    1.0372346   -0.3901237      1728000    2767.0905       166000       102441 
33210000   0.99358028  -0.35569469      1728000    2767.9039       166050       102475 
33220000   0.99326678  -0.36317764      1728000    2768.7037       166100       102508 
33230000   0.94520714  -0.35213719      1728000    2769.5256       166150       102534 
33240000    1.0150282   -0.3643645      1728000    2770.3298       166200       102563 
33250000   0.96855481  -0.37768511      1728000    2771.1327       166250       102595 
33260000    1.0247692  -0.35235085      1728000    2771.9348       166300       102629 
33270000    1.0252735  -0.36256915      1728000    2772.7416       166350       102655 
33280000   0.97778974  -0.35550011      1728000    2773.5487       166400       102690 
33290000   0.99266942  -0.31985432      1728000    2774.3466       166450       102723 
33300000   0.99274211  -0.35403191      1728000    2775.1575       166500       102757 
33310000    1.0132036   -0.3380551      1728000    2775.9548       166550       102792 
33320000     1.030465  -0.35327534      1728000    2776.7636       166600       102826 
33330000    1.0048116  -0.34932106      1728000    2777.5839       166650       102856 
33340000    1.0244823  -0.33238276      1728000    2778.3947       166700       102889 
33350000   0.96428179  -0.34440985      1728000    2779.2018       166750       102920 
33360000    1.0113418  -0.36477803      1728000    2780.0176       166800       102953 
33370000   0.91028201  -0.34848068      1728000    2780.8357       166850       102984 
33380000   0.94927372  -0.34416747      1728000    2781.6628       166900       103015 
33390000   0.98274038  -0.30556007      1728000    2782.4697       166950       103047 
33400000    1.0070104  -0.31705338      1728000    2783.2988       167000       103083 
33410000   0.98454939  -0.31175089      1728000    2784.0996       167050       103121 
33420000   0.96526433  -0.34488229      1728000    2784.9047       167100       103153 
33430000   0.96180175   -0.3273796      1728000    2785.7724       167150       103182 
33440000    1.0054189  -0.31658374      1728000    2786.5757       167200       103214 
33450000   0.97540002  -0.34485166      1728000    2787.3867       167250       103251 
33460000   0.93132081  -0.30351256      1728000    2788.2137       167300       103282 
33470000    1.0904526  -0.31799003      1728000    2789.0208       167350       103315 
33480000    1.0213217  -0.33380152      1728000    2789.8357       167400       103345 
33490000    1.0008452  -0.31741574      1728000    2790.6655       167450       103371 
33500000    1.0203006  -0.32350829      1728000    2791.4977       167500       103406 
33510000   0.98347666  -0.31695262      1728000    2792.3187       167550       103440 
33520000   0.99215185  -0.33156712      1728000    2793.1338       167600       103469 
33530000    1.0737857  -0.31081993      1728000    2793.9476       167650       103502 
33540000    1.0008701  -0.30136831      1728000    2794.7567       167700       103534 
33550000    1.0358331  -0.29197932      1728000    2795.5597       167750       103572 
33560000    1.0072986  -0.33176168      1728000    2796.3626       167800       103603 
33570000    1.0308012   -0.3321606      1728000    2797.1785       167850       103635 
33580000   0.98610468  -0.35448373      1728000    2798.0097       167900       103668 
33590000   0.95087621  -0.34943868      1728000    2798.8276       167950       103694 
33600000    1.0057845  -0.34653855      1728000    2799.6786       168000       103728 
33610000    1.0185828  -0.34351777      1728000    2800.5164       168050       103766 
33620000    1.0115192  -0.34312517      1728000    2801.3346       168100       103794 
33630000   0.99332467  -0.33236908      1728000    2802.1516       168150       103823 
33640000   0.99260689  -0.32020736      1728000    2802.9648       168200       103853 
33650000    1.0030313  -0.32666473      1728000    2803.7958       168250       103885 
33660000   0.97336515   -0.3314967      1728000    2804.6011       168300       103918 
33670000    1.0556996  -0.33128245      1728000    2805.4181       168350       103956 
33680000   0.96187965  -0.33745935      1728000    2806.2318       168400       103992 
33690000   0.98810082  -0.32744724      1728000    2807.0529       168450       104023 
33700000    1.0261088  -0.33579626      1728000    2807.8886       168500       104051 
33710000    1.0401577  -0.36984869      1728000    2808.6947       168550       104085 
33720000     1.000847  -0.33881428      1728000    2809.5103       168600       104114 
33730000    1.0183834  -0.33572341      1728000    2810.3126       168650       104147 
33740000   0.99644148  -0.35483283      1728000    2811.1355       168700       104178 
33750000    1.0100378  -0.36724524      1728000    2811.9516       168750       104216 
33760000    1.0100045  -0.38489735      1728000    2812.8027       168800       104243 
33770000    1.0021413  -0.36275313      1728000    2813.6096       168850       104269 
33780000   0.98656248  -0.35058114      1728000    2814.4195       168900       104296 
33790000   0.97195195  -0.35964016      1728000    2815.2626       168950       104325 
33800000    1.0620268  -0.36125711      1728000    2816.0948       169000       104346 
33810000    1.0113578  -0.38265311      1728000    2816.9287       169050       104371 
33820000    1.0378978  -0.38082745      1728000    2817.7488       169100       104399 
33830000    1.0072154  -0.37922738      1728000    2818.5597       169150       104431 
33840000    1.0216141  -0.40412154      1728000    2819.3716       169200       104462 
33850000    1.0169407    -0.398769      1728000    2820.1814       169250       104494 
33860000    0.9695094  -0.36840794      1728000    2821.0156       169300       104520 
33870000    1.0008182  -0.37894829      1728000    2821.8694       169350       104549 
33880000    1.0026769  -0.37087422      1728000    2822.7015       169400       104576 
33890000     1.012962  -0.37074017      1728000    2823.5257       169450       104603 
33900000    1.0312676  -0.39385579      1728000    2824.3615       169500       104636 
33910000    1.0602229  -0.36956383      1728000    2825.1836       169550       104667 
33920000    1.0209624  -0.36619226      1728000    2826.0086       169600       104702 
33930000    1.0361895  -0.37614249      1728000    2826.8256       169650       104723 
33940000   0.98727454  -0.38771401      1728000    2827.6376       169700       104747 
33950000     1.041226  -0.37239182      1728000    2828.4407       169750       104778 
33960000   0.97859917  -0.38413986      1728000    2829.2487       169800       104806 
33970000    1.0418828   -0.3829327      1728000    2830.0747       169850       104836 
33980000   0.99358171  -0.40427848      1728000    2830.9155       169900       104864 
33990000     1.010532  -0.39536025      1728000    2831.7365       169950       104891 
34000000   0.99371374  -0.39496053      1728000    2832.5636       170000       104922 
34010000    1.0555451  -0.36665096      1728000    2833.3656       170050       104949 
34020000   0.95161226  -0.35345892      1728000    2834.2027       170100       104977 
34030000    1.0383526   -0.3595354      1728000    2835.0017       170150       105006 
34040000    1.0239025  -0.35831853      1728000    2835.8066       170200       105038 
34050000    1.0089578  -0.33085404      1728000    2836.6446       170250       105060 
34060000   0.95782949  -0.35433806      1728000    2837.4596       170300       105093 
34070000   0.92845234  -0.33269012      1728000    2838.2608       170350       105123 
34080000    1.0524636  -0.34078131      1728000    2839.0866       170400       105152 
34090000   0.96295582  -0.33322849      1728000    2839.8916       170450       105186 
34100000   0.93568068  -0.33271405      1728000    2840.7066       170500       105216 
34110000    1.0110632  -0.31259576      1728000    2841.5155       170550       105244 
34120000   0.94920945  -0.32153806      1728000    2842.3307       170600       105273 
34130000   0.96669677  -0.33609262      1728000    2843.1436       170650       105304 
34140000    1.0045536  -0.34047985      1728000    2843.9634       170700       105336 
34150000   0.96554905  -0.31493763      1728000    2844.7788       170750       105370 
34160000    0.9093982  -0.32820941      1728000    2845.6156       170800       105405 
34170000    1.0292491  -0.33733953      1728000    2846.4318       170850       105435 
34180000   0.98311388  -0.33638295      1728000    2847.2797       170900       105465 
34190000   0.93736487  -0.35623071      1728000    2848.1296       170950       105500 
34200000   0.96643919  -0.34793943      1728000    2848.9487       171000       105535 
34210000    1.0100923  -0.34730426      1728000    2849.7718       171050       105565 
34220000    1.0233853  -0.31324815      1728000    2850.5868       171100       105595 
34230000   0.99837589  -0.33257837      1728000    2851.4235       171150       105629 
34240000    1.0293756  -0.30976549      1728000    2852.2305       171200       105661 
34250000    0.9950485  -0.31381752      1728000    2853.0426       171250       105696 
34260000   0.97626373  -0.32991981      1728000    2853.8557       171300       105736 
34270000   0.93224028  -0.35800517      1728000    2854.6666       171350       105767 
34280000   0.97346854  -0.33946436      1728000    2855.4834       171400       105803 
34290000   0.99993423  -0.35313931      1728000    2856.4287       171450       105838 
34300000    0.9906234   -0.3645315      1728000    2857.2407       171500       105873 
34310000    1.0129509  -0.33115254      1728000    2858.0417       171550       105912 
34320000    1.0433917  -0.34771377      1728000    2858.8546       171600       105949 
34330000    1.0433774  -0.36453131      1728000    2859.6708       171650       105987 
34340000    0.9700864  -0.36235389      1728000    2860.5175       171700       106019 
34350000    1.0092983  -0.38698344      1728000    2861.3302       171750       106047 
34360000   0.97776196  -0.36861673      1728000    2862.1548       171800       106067 
34370000   0.98047635  -0.37121327      1728000    2862.9632       171850       106102 
34380000    1.0043468  -0.38214007      1728000    2863.7859       171900       106133 
34390000   0.97630419  -0.39182653      1728000    2864.5975       171950       106157 
34400000    1.0483258   -0.3831039      1728000    2865.4215       172000       106186 
34410000   0.96262822  -0.38037326      1728000    2866.2346       172050       106218 
34420000   0.99291618   -0.3820169      1728000    2867.0656       172100       106252 
34430000     1.026961  -0.38678378      1728000    2867.8845       172150       106282 
34440000    1.0325334  -0.37166456      1728000    2868.6973       172200       106315 
34450000    1.0082359  -0.37391801      1728000    2869.5306       172250       106343 
34460000    1.0425891  -0.38672691      1728000    2870.3506       172300       106374 
34470000      1.01597  -0.38038122      1728000    2871.1676       172350       106402 
34480000     1.021008  -0.39008886      1728000    2871.9836       172400       106433 
34490000    1.0318597  -0.38915322      1728000    2872.7985       172450       106459 
34500000   0.96369491  -0.39935891      1728000    2873.6177       172500       106482 
34510000   0.93958955  -0.37555197      1728000    2874.4457       172550       106509 
34520000    1.0203453  -0.35909785      1728000    2875.2535       172600       106543 
34530000    1.0229421  -0.37912031      1728000    2876.0726       172650       106567 
34540000   0.95793936  -0.36466277      1728000    2876.8855       172700       106599 
34550000   0.95128719  -0.39117597      1728000    2877.7056       172750       106637 
34560000   0.89120006  -0.38987585      1728000    2878.5474       172800       106668 
34570000    1.0847965  -0.39152846      1728000    2879.3655       172850       106697 
34580000   0.92841231  -0.37839539      1728000    2880.1705       172900       106721 
34590000    1.0073799  -0.36698565      1728000    2880.9854       172950       106752 
34600000     1.022517  -0.38226504      1728000    2881.8166       173000       106776 
34610000   0.98012908  -0.36010956      1728000    2882.6265       173050       106806 
34620000   0.99512468  -0.37200179      1728000    2883.4445       173100       106837 
34630000    0.9545805  -0.35783806      1728000    2884.2525       173150       106871 
34640000    0.9770908  -0.38763393      1728000    2885.0974       173200       106899 
34650000    1.0049667  -0.35581266      1728000    2885.9086       173250       106929 
34660000    1.0336896  -0.35415914      1728000    2886.7135       173300       106958 
34670000    1.0572498  -0.36147809      1728000    2887.5185       173350       106985 
34680000   0.97091231  -0.34440768      1728000    2888.3173       173400       107020 
34690000   0.92829736  -0.35667598      1728000    2889.1196       173450       107053 
34700000   0.98300869  -0.36385206      1728000    2889.9781       173500       107080 
34710000   0.99046471  -0.35987318      1728000    2890.8012       173550       107107 
34720000    1.0075461  -0.33429771      1728000    2891.6694       173600       107138 
34730000    1.0252911  -0.31848179      1728000    2892.4761       173650       107170 
34740000    1.0379018  -0.32246887      1728000    2893.2854       173700       107202 
34750000      1.02384  -0.32844226      1728000    2894.0915       173750       107229 
34760000     1.015371  -0.30614498      1728000    2894.8937       173800       107263 
34770000    1.0294885  -0.30998678      1728000    2895.7027       173850       107295 
34780000   0.97423242  -0.32285379      1728000    2896.5064       173900       107322 
34790000   0.97182043  -0.34321424      1728000    2897.3234       173950       107354 
34800000   0.98770142  -0.33538393      1728000    2898.1376       174000       107386 
34810000    1.0160393  -0.32110263      1728000    2898.9395       174050       107417 
34820000    1.0241292  -0.35462442      1728000    2899.7564       174100       107448 
34830000    1.0593731  -0.34545584      1728000    2900.5715       174150       107481 
34840000   0.98022359  -0.34519278      1728000    2901.4027       174200       107508 
34850000   0.95980274  -0.34319471      1728000     2902.213       174250       107536 
34860000   0.96913645   -0.3492946      1728000    2903.0616       174300       107565 
34870000    1.0014157  -0.36539244      1728000    2903.8695       174350       107592 
34880000    1.0680992  -0.35406775      1728000    2904.6755       174400       107620 
34890000    1.0205213  -0.36326046      1728000    2905.4984       174450       107647 
34900000   0.99027207   -0.3543832      1728000     2906.325       174500       107676 
34910000    1.0104324  -0.36497165      1728000    2907.1297       174550       107710 
34920000   0.97840003  -0.32221274      1728000    2907.9305       174600       107740 
34930000    1.0284244  -0.33406261      1728000    2908.7417       174650       107768 
34940000   0.96882528  -0.34151189      1728000    2909.5566       174700       107800 
34950000   0.98447012  -0.33754635      1728000    2910.3754       174750       107827 
34960000   0.97876881  -0.33525454      1728000    2911.2066       174800       107860 
34970000   0.97286379  -0.34781406      1728000    2912.0595       174850       107894 
34980000    1.0263432  -0.34230693      1728000    2912.8615       174900       107925 
34990000    1.0435814   -0.3546747      1728000    2913.6895       174950       107952 
35000000   0.99473604  -0.35464347      1728000    2914.5525       175000       107986 
35010000   0.99095521  -0.33680718      1728000    2915.3926       175050       108015 
35020000   0.97894417  -0.35884649      1728000    2916.2004       175100       108050 
35030000    1.0010407  -0.36506513      1728000    2917.0205       175150       108075 
35040000    1.0299637  -0.34156314      1728000    2917.8464       175200       108106 
35050000    1.0064765  -0.32345915      1728000    2918.6496       175250       108136 
35060000    1.0217976  -0.32577997      1728000    2919.4494       175300       108170 
35070000    1.0589628  -0.34954445      1728000    2920.2635       175350       108193 
35080000    1.0392781   -0.3357194      1728000    2921.0796       175400       108223 
35090000   0.99601638  -0.33460773      1728000    2921.9235       175450       108252 
35100000   0.94727596  -0.35188628      1728000    2922.7564       175500       108282 
35110000    1.0490809  -0.35137289      1728000    2923.5676       175550       108315 
35120000    0.9860693  -0.36998637      1728000    2924.3822       175600       108341 
35130000    1.0271815  -0.36042379      1728000    2925.1945       175650       108368 
35140000   0.99900583  -0.35859935      1728000    2926.0238       175700       108395 
35150000    1.0153877  -0.34821249      1728000    2926.8875       175750       108420 
35160000    1.0016612  -0.35096105      1728000    2927.6918       175800       108449 
35170000    1.0820083  -0.34782886      1728000    2928.5019       175850       108477 
35180000   0.97738018  -0.32837428      1728000    2929.2987       175900       108508 
35190000    1.0395568  -0.33476503      1728000    2930.1119       175950       108536 
35200000   0.98938871  -0.31895642      1728000    2930.9426       176000       108572 
35210000    1.0018679  -0.32409329      1728000    2931.7768       176050       108611 
35220000   0.99233138  -0.32889627      1728000    2932.5894       176100       108646 
35230000   0.97666041   -0.3279217      1728000    2933.3956       176150       108678 
35240000    1.0252313  -0.30138907      1728000    2934.2178       176200       108710 
35250000    1.0176399  -0.31632651      1728000    2935.0195       176250       108741 
35260000    1.0237082  -0.31436257      1728000    2935.8177       176300       108775 
35270000    1.0575793  -0.32161079      1728000    2936.6227       176350       108804 
35280000    1.0116052  -0.31680298      1728000    2937.4198       176400       108843 
35290000    1.0439327  -0.32611644      1728000    2938.2172       176450       108873 
35300000    1.0121864  -0.34096242      1728000    2939.0295       176500       108906 
35310000    1.0386286  -0.32764401      1728000    2939.8377       176550       108938 
35320000   0.97431934  -0.33840527      1728000    2940.6455       176600       108970 
35330000    1.0573789  -0.32726938      1728000    2941.4504       176650       109001 
35340000    1.0730755  -0.33954706      1728000    2942.2624       176700       109030 
35350000    1.0316255  -0.35854666      1728000    2943.0795       176750       109059 
35360000   0.99292057  -0.36233488      1728000    2943.8825       176800       109090 
35370000    1.0413112  -0.35842266      1728000    2944.6775       176850       109115 
35380000   0.98428017   -0.3588982      1728000    2945.4706       176900       109147 
35390000   0.98943402  -0.37445886      1728000    2946.2845       176950       109179 
35400000   0.97509245   -0.3802365      1728000    2947.1045       177000       109211 
35410000   0.98837971   -0.3800949      1728000    2947.9074       177050       109243 
35420000    1.0531652  -0.36295674      1728000    2948.7054       177100       109270 
35430000   0.96283438  -0.39111632      1728000    2949.5124       177150       109297 
35440000    0.9980445  -0.39564254      1728000    2950.3165       177200       109329 
35450000   0.96174321   -0.4085099      1728000    2951.1376       177250       109361 
35460000   0.97937055  -0.40110907      1728000    2951.9563       177300       109386 
35470000     1.009236   -0.3822702      1728000    2952.7716       177350       109411 
35480000    1.0190939  -0.38215892      1728000    2953.5695       177400       109447 
35490000    1.0416335  -0.38396315      1728000    2954.3666       177450       109475 
35500000      1.04308   -0.3741299      1728000    2955.1801       177500       109501 
35510000   0.98874426  -0.37084589      1728000    2955.9795       177550       109531 
35520000    0.9807202  -0.38430005      1728000    2956.7895       177600       109562 
35530000   0.99778744  -0.37137384      1728000    2957.5913       177650       109593 
35540000   0.98621803  -0.36366344      1728000    2958.3945       177700       109623 
35550000    1.0258504  -0.37388908      1728000    2959.2025       177750       109651 
35560000   0.93251112  -0.36935551      1728000    2960.0061       177800       109674 
35570000   0.99222102  -0.37976791      1728000    2960.8065       177850       109708 
35580000    1.0666636  -0.37938105      1728000    2961.6375       177900       109738 
35590000   0.99724549  -0.36246656      1728000    2962.4622       177950       109769 
35600000   0.95628155  -0.33623892      1728000    2963.2806       178000       109801 
35610000    1.0218092  -0.35728558      1728000    2964.0794       178050       109832 
35620000    1.0162105  -0.36883311      1728000    2964.9004       178100       109870 
35630000   0.97045867  -0.39373233      1728000    2965.7055       178150       109904 
35640000   0.96954661  -0.37045084      1728000    2966.5134       178200       109933 
35650000    1.0061214  -0.36482731      1728000    2967.3315       178250       109966 
35660000   0.99971496   -0.3382984      1728000    2968.1443       178300       109999 
35670000   0.97118867  -0.37276951      1728000    2968.9534       178350       110026 
35680000   0.96236537  -0.34067779      1728000    2969.7555       178400       110058 
35690000    1.0867641  -0.34809629      1728000    2970.5513       178450       110096 
35700000   0.98782339  -0.36424282      1728000    2971.3744       178500       110124 
35710000   0.95437748  -0.37857162      1728000    2972.1934       178550       110151 
35720000   0.98124484  -0.35428752      1728000     2973.008       178600       110178 
35730000   0.99473499  -0.35838689      1728000    2973.8094       178650       110214 
35740000    1.0435516  -0.35974336      1728000    2974.6135       178700       110246 
35750000    1.0107206  -0.36006907      1728000    2975.4245       178750       110275 
35760000   0.92686669  -0.35421251      1728000     2976.243       178800       110304 
35770000   0.99779027  -0.37400622      1728000    2977.0784       178850       110329 
35780000   0.99830504  -0.37828011      1728000    2977.8817       178900       110363 
35790000    1.0338464   -0.3689262      1728000    2978.6871       178950       110391 
35800000   0.95909457   -0.3615009      1728000    2979.5147       179000       110424 
35810000    1.0866236  -0.36593498      1728000    2980.3604       179050       110450 
35820000   0.98484874  -0.37393144      1728000    2981.1723       179100       110479 
35830000    1.0438278  -0.35712792      1728000    2981.9832       179150       110513 
35840000    0.9875235  -0.38249859      1728000    2982.8184       179200       110537 
35850000    1.0406847    -0.367631      1728000    2983.6306       179250       110570 
35860000   0.97163073   -0.3742058      1728000    2984.4448       179300       110598 
35870000    1.0744007  -0.36778216      1728000    2985.2543       179350       110634 
35880000    1.0063664   -0.3661946      1728000    2986.0674       179400       110661 
35890000    1.0433749  -0.35727617      1728000    2986.8966       179450       110693 
35900000   0.97938698  -0.36260304      1728000    2987.7118       179500       110722 
35910000    1.0673503  -0.35885293      1728000    2988.5123       179550       110751 
35920000     1.039744  -0.36923429      1728000    2989.3304       179600       110774 
35930000    1.0331356  -0.36089797      1728000    2990.1356       179650       110801 
35940000   0.93988166  -0.36672723      1728000    2990.9454       179700       110832 
35950000    1.0661147  -0.37953365      1728000    2991.7596       179750       110860 
35960000   0.99082724  -0.38461265      1728000    2992.5758       179800       110896 
35970000    1.0235688  -0.36658648      1728000    2993.4056       179850       110922 
35980000     1.002212  -0.38051485      1728000    2994.2146       179900       110952 
35990000   0.98098481   -0.3550993      1728000    2995.0224       179950       110980 
36000000     1.081162  -0.35441153      1728000    2995.8404       180000       111012 
36010000   0.98106873  -0.32365775      1728000    2996.6554       180050       111038 
36020000   0.98013053  -0.33829896      1728000    2997.5013       180100       111067 
36030000    1.0180051  -0.34647984      1728000    2998.3145       180150       111097 
36040000   0.99343346  -0.34997747      1728000    2999.1233       180200       111123 
36050000   0.96985524   -0.3298961      1728000    2999.9508       180250       111155 
36060000   0.99671321  -0.32525195      1728000    3000.7665       180300       111184 
36070000     1.054515  -0.33110512      1728000    3001.5684       180350       111224 
36080000    1.0328941  -0.32714815      1728000    3002.3724       180400       111257 
36090000   0.93702533  -0.35069207      1728000    3003.2121       180450       111285 
36100000   0.98918945  -0.34915778      1728000    3004.0184       180500       111315 
36110000    1.0174688  -0.35061836      1728000    3004.8224       180550       111341 
36120000   0.97035604  -0.33103778      1728000    3005.6364       180600       111367 
36130000    1.0130395   -0.3356542      1728000    3006.4382       180650       111394 
36140000    1.0005424  -0.33707819      1728000    3007.2394       180700       111428 
36150000     1.015598  -0.34705398      1728000    3008.0464       180750       111461 
36160000   0.98908552  -0.32348628      1728000    3008.8494       180800       111497 
36170000    1.0135602  -0.30719494      1728000    3009.6513       180850       111528 
36180000     0.931438   -0.3033411      1728000     3010.471       180900       111561 
36190000    1.0296635  -0.34833604      1728000    3011.2902       180950       111590 
36200000   0.95561119  -0.32419796      1728000    3012.1352       181000       111624 
36210000   0.96395155  -0.32936258      1728000    3012.9364       181050       111654 
36220000   0.99666849  -0.34098223      1728000    3013.7392       181100       111681 
36230000    1.0262912   -0.3349255      1728000     3014.532       181150       111712 
36240000   0.96900718  -0.33449663      1728000    3015.3303       181200       111736 
36250000    1.0076422  -0.35878594      1728000    3016.1384       181250       111761 
36260000   0.95898262    -0.346552      1728000    3016.9374       181300       111792 
36270000   0.99215983  -0.35631528      1728000    3017.7634       181350       111823 
36280000   0.99301924  -0.34477065      1728000    3018.5621       181400       111855 
36290000   0.98817863  -0.35013942      1728000    3019.3815       181450       111886 
36300000   0.98937637  -0.32852229      1728000    3020.1953       181500       111915 
36310000   0.97348375  -0.33740477      1728000    3021.0014       181550       111949 
36320000   0.97160561  -0.37171835      1728000     3021.854       181600       111981 
36330000   0.96402036  -0.35639577      1728000    3022.6831       181650       112010 
36340000    1.0195968  -0.38053768      1728000    3023.5173       181700       112040 
36350000    1.0033723  -0.37235207      1728000    3024.3495       181750       112076 
36360000    1.0253234  -0.38518803      1728000    3025.1929       181800       112102 
36370000   0.97335968  -0.36619353      1728000    3026.0194       181850       112136 
36380000   0.99817755  -0.35188456      1728000    3026.9055       181900       112165 
36390000     1.001697  -0.36641059      1728000    3027.7442       181950       112193 
36400000   0.97472827  -0.37370441      1728000    3028.6291       182000       112223 
36410000    1.0092518  -0.37218901      1728000    3029.4728       182050       112257 
36420000    0.9894591  -0.37314135      1728000     3030.304       182100       112293 
36430000   0.96837018  -0.36695117      1728000    3031.1364       182150       112322 
36440000    1.0334965  -0.36252424      1728000    3031.9625       182200       112358 
36450000    1.0039331   -0.3655459      1728000    3032.7956       182250       112386 
36460000    1.0134834  -0.37039851      1728000    3033.6488       182300       112407 
36470000   0.96927588  -0.37907583      1728000    3034.5259       182350       112440 
36480000    1.0404203  -0.35737974      1728000    3035.3441       182400       112468 
36490000   0.92843165  -0.36201285      1728000    3036.1554       182450       112499 
36500000   0.97662517  -0.35179211      1728000    3037.0315       182500       112537 
36510000   0.92654577  -0.34031756      1728000    3037.8749       182550       112569 
36520000    1.0166089  -0.33841661      1728000     3038.755       182600       112600 
36530000    1.0069758  -0.32665069      1728000    3039.6054       182650       112627 
36540000    1.0144525  -0.32008348      1728000    3040.4454       182700       112653 
36550000    1.0246428  -0.33796387      1728000    3041.2874       182750       112681 
36560000    1.0100054  -0.34535896      1728000    3042.1094       182800       112714 
36570000   0.99308404  -0.34106034      1728000    3042.9364       182850       112742 
36580000   0.94707124  -0.32940554      1728000    3043.7543       182900       112771 
36590000   0.97982816  -0.35684866      1728000    3044.5813       182950       112805 
36600000   0.96195765  -0.32156308      1728000    3045.3993       183000       112839 
36610000   0.99962942  -0.33398399      1728000    3046.2385       183050       112874 
36620000   0.93835457  -0.34436113      1728000    3047.0756       183100       112905 
36630000   0.97726882  -0.32724239      1728000    3047.8914       183150       112938 
36640000    1.0564227  -0.34039002      1728000    3048.7067       183200       112969 
36650000    1.0716959  -0.31939796      1728000    3049.5076       183250       113002 
36660000    1.0689425  -0.31502351      1728000    3050.3181       183300       113031 
36670000    1.0028317  -0.31561534      1728000    3051.1364       183350       113063 
36680000    1.0072439  -0.32316515      1728000    3051.9615       183400       113092 
36690000    1.0314763  -0.32654792      1728000    3052.7885       183450       113126 
36700000   0.94404216  -0.32537813      1728000    3053.6074       183500       113156 
36710000   0.96061901  -0.33612515      1728000    3054.4288       183550       113193 
36720000   0.99678627  -0.32735441      1728000    3055.2503       183600       113221 
36730000   0.94143273  -0.31572901      1728000    3056.0654       183650       113251 
36740000   0.95821537  -0.33852707      1728000    3056.9443       183700       113286 
36750000    1.0009176  -0.34845326      1728000    3057.7603       183750       113318 
36760000   0.97756131  -0.35754812      1728000    3058.5664       183800       113354 
36770000   0.95970673  -0.36695172      1728000    3059.3883       183850       113387 
36780000     0.969219  -0.37285418      1728000    3060.2021       183900       113416 
36790000    1.0822061  -0.38454386      1728000    3061.0153       183950       113444 
36800000   0.96300855  -0.39642499      1728000    3061.8643       184000       113473 
36810000    1.0293816   -0.3940625      1728000    3062.6784       184050       113502 
36820000   0.97137933  -0.39031829      1728000    3063.4924       184100       113529 
36830000   0.96728788  -0.38704315      1728000    3064.3002       184150       113558 
36840000   0.93243453  -0.40705586      1728000    3065.1082       184200       113591 
36850000   0.96620779  -0.39556018      1728000    3065.9213       184250       113626 
36860000    1.0056499  -0.36607338      1728000    3066.7484       184300       113655 
36870000    1.0205906  -0.39064695      1728000    3067.5651       184350       113685 
36880000    1.0176295  -0.38997989      1728000    3068.3853       184400       113712 
36890000   0.91429282  -0.39997028      1728000    3069.2154       184450       113733 
36900000    1.0099391   -0.4106103      1728000    3070.0571       184500       113765 
36910000     1.005054  -0.36847581      1728000    3070.8943       184550       113790 
36920000    1.0086848  -0.40790406      1728000    3071.8245       184600       113820 
36930000    1.0484271  -0.39085788      1728000    3072.6447       184650       113853 
36940000    1.0006021  -0.41779401      1728000    3073.4607       184700       113881 
36950000    1.0057682  -0.37736633      1728000    3074.2793       184750       113911 
36960000     1.017135  -0.39280466      1728000    3075.0902       184800       113946 
36970000   0.97457249  -0.38829311      1728000    3075.9033       184850       113974 
36980000     0.997776  -0.36504055      1728000    3076.7562       184900       114005 
36990000   0.99774017  -0.35853671      1728000    3077.5762       184950       114040 
37000000   0.98194043  -0.35927483      1728000    3078.4053       185000       114074 
37010000    1.0074092  -0.34345893      1728000     3079.213       185050       114102 
37020000    1.0688328  -0.35217397      1728000    3080.0232       185100       114129 
37030000   0.96845315  -0.35520307      1728000    3080.8241       185150       114159 
37040000   0.96559625  -0.35545957      1728000      3081.63       185200       114188 
37050000    1.0198139  -0.37136269      1728000    3082.4423       185250       114219 
37060000    1.0154308  -0.36445784      1728000    3083.2573       185300       114253 
37070000    1.0153491  -0.36601803      1728000    3084.0613       185350       114285 
37080000    1.0388903  -0.37332288      1728000    3084.8882       185400       114309 
37090000   0.97148066  -0.35689202      1728000    3085.6892       185450       114337 
37100000   0.95827625   -0.3456544      1728000    3086.5109       185500       114368 
37110000    1.0207076  -0.33883726      1728000     3087.318       185550       114398 
37120000    1.0360933   -0.3603835      1728000    3088.1286       185600       114433 
37130000   0.99396286  -0.33363093      1728000    3088.9528       185650       114459 
37140000   0.99533493  -0.33926125      1728000    3089.7622       185700       114493 
37150000   0.97975206  -0.36549632      1728000    3090.5682       185750       114524 
37160000   0.99080477  -0.36541999      1728000    3091.4123       185800       114557 
37170000   0.99286751   -0.3739925      1728000    3092.2301       185850       114590 
37180000   0.90235672  -0.37975457      1728000    3093.0532       185900       114619 
37190000    1.0420174  -0.38174153      1728000    3093.9021       185950       114652 
37200000     1.031984  -0.36865951      1728000    3094.7411       186000       114677 
37210000    1.0638294  -0.36308949      1728000    3095.5453       186050       114712 
37220000    0.9845026  -0.36031173      1728000    3096.3801       186100       114748 
37230000   0.99226169  -0.33480121      1728000    3097.1932       186150       114777 
37240000    1.0416309  -0.33109652      1728000    3098.0105       186200       114811 
37250000   0.98826993   -0.3454204      1728000    3098.8571       186250       114842 
37260000    1.0759184  -0.34496043      1728000     3099.682       186300       114874 
37270000   0.97431441  -0.34041961      1728000    3100.5472       186350       114904 
37280000   0.96945814  -0.34609316      1728000    3101.3843       186400       114934 
37290000    1.0203001  -0.32728041      1728000    3102.2245       186450       114969 
37300000    1.0044207   -0.3613852      1728000    3103.0327       186500       115002 
37310000    1.0644937   -0.3391104      1728000    3103.8431       186550       115029 
37320000    1.0227393  -0.33123304      1728000    3104.6553       186600       115061 
37330000   0.97268181  -0.34799221      1728000    3105.4891       186650       115091 
37340000   0.99360022  -0.31353978      1728000    3106.3304       186700       115126 
37350000    1.0266077  -0.30735588      1728000    3107.1616       186750       115156 
37360000    1.0849443  -0.30602955      1728000    3107.9897       186800       115191 
37370000    1.0093247  -0.31197057      1728000    3108.8169       186850       115216 
37380000    1.0617585  -0.33412657      1728000     3109.651       186900       115246 
37390000    1.0536907  -0.31040466      1728000    3110.4732       186950       115282 
37400000    0.9994726  -0.33272091      1728000    3111.3174       187000       115317 
37410000     1.125427  -0.32103152      1728000    3112.1376       187050       115353 
37420000   0.96442826  -0.31725386      1728000    3112.9848       187100       115386 
37430000   0.97456165  -0.31802194      1728000    3113.7999       187150       115418 
37440000   0.97101603  -0.32410772      1728000    3114.6312       187200       115445 
37450000    1.0109336  -0.34367613      1728000    3115.4535       187250       115475 
37460000    1.0215367  -0.33042624      1728000    3116.2716       187300       115503 
37470000    1.0136387  -0.33719654      1728000    3117.0868       187350       115529 
37480000   0.91592688  -0.36687007      1728000      3117.91       187400       115561 
37490000   0.93292765  -0.35305206      1728000    3118.7245       187450       115592 
37500000    1.0535725  -0.35244732      1728000    3119.5707       187500       115621 
37510000    0.9882536  -0.36212086      1728000    3120.4647       187550       115656 
37520000    0.9766593  -0.37870222      1728000    3121.3084       187600       115688 
37530000   0.99800896  -0.37046409      1728000    3122.1545       187650       115725 
37540000   0.94276614  -0.37484642      1728000    3122.9888       187700       115754 
37550000   0.96586611  -0.38182092      1728000    3123.8449       187750       115781 
37560000   0.99071916  -0.39073832      1728000     3124.689       187800       115812 
37570000   0.99001817  -0.36230436      1728000    3125.5022       187850       115842 
37580000    1.0317848  -0.36861263      1728000    3126.3055       187900       115876 
37590000     1.041549  -0.36882868      1728000    3127.1222       187950       115901 
37600000    1.0324895   -0.3583151      1728000    3127.9732       188000       115931 
37610000   0.99568564  -0.35247725      1728000    3128.8299       188050       115959 
37620000   0.94303222  -0.35583232      1728000    3129.6342       188100       115991 
37630000   0.96627182  -0.34451178      1728000    3130.4407       188150       116020 
37640000   0.94557919  -0.33547454      1728000    3131.2639       188200       116046 
37650000    1.0720819  -0.36214433      1728000     3132.127       188250       116077 
37660000    1.0186416  -0.35607342      1728000    3132.9641       188300       116105 
37670000    1.0218277  -0.37332266      1728000    3133.7743       188350       116138 
37680000   0.97804055  -0.37856287      1728000    3134.6055       188400       116171 
37690000    1.0027065  -0.37984627      1728000    3135.4239       188450       116200 
37700000   0.98346385  -0.36665669      1728000    3136.2703       188500       116230 
37710000   0.98868665  -0.39466998      1728000    3137.1071       188550       116264 
37720000   0.94043895   -0.3719477      1728000      3137.95       188600       116291 
37730000    1.0128793  -0.35533232      1728000    3138.8042       188650       116319 
37740000   0.98077154  -0.35109123      1728000    3139.6402       188700       116353 
37750000     1.029547  -0.34375322      1728000    3140.4841       188750       116384 
37760000     0.962234  -0.37632308      1728000    3141.3132       188800       116411 
37770000   0.98118383  -0.35193281      1728000    3142.1201       188850       116443 
37780000    1.0002093  -0.35640761      1728000    3142.9343       188900       116470 
37790000    1.0191766  -0.36414046      1728000    3143.7562       188950       116499 
37800000   0.94521324  -0.36175528      1728000    3144.5942       189000       116525 
37810000   0.93772301  -0.38109532      1728000    3145.4042       189050       116562 
37820000     1.009688  -0.37440405      1728000    3146.2375       189100       116587 
37830000   0.97342489  -0.36872406      1728000    3147.1289       189150       116619 
37840000   0.99244747  -0.37053524      1728000     3147.969       189200       116655 
37850000   0.97005031  -0.34539588      1728000    3148.7962       189250       116683 
37860000   0.93274558  -0.33722228      1728000     3149.613       189300       116715 
37870000   0.98556122  -0.36449116      1728000    3150.4251       189350       116744 
37880000    1.0121423  -0.31979801      1728000    3151.2773       189400       116770 
37890000    1.0106205   -0.3218246      1728000    3152.1224       189450       116803 
37900000    1.0037917  -0.31427722      1728000    3152.9815       189500       116830 
37910000    1.0212565  -0.35949406      1728000    3153.8017       189550       116858 
37920000    1.0454079  -0.34946339      1728000    3154.6273       189600       116892 
37930000   0.99237577  -0.32274051      1728000     3155.453       189650       116925 
37940000      1.01896  -0.31901171      1728000    3156.3061       189700       116956 
37950000    1.0336954  -0.33543022      1728000    3157.1642       189750       116986 
37960000   0.99663734  -0.32695455      1728000    3157.9685       189800       117016 
37970000    1.0209615  -0.35291246      1728000     3158.805       189850       117046 
37980000    1.0057309  -0.34876589      1728000    3159.6123       189900       117081 
37990000   0.97958865  -0.34773245      1728000     3160.421       189950       117110 
38000000   0.98854253  -0.36800487      1728000    3161.2601       190000       117137 
38010000    1.0404851  -0.35846292      1728000       3162.1       190050       117162 
38020000    1.0048894  -0.33088302      1728000    3162.9472       190100       117194 
38030000    1.0391256  -0.35152517      1728000    3163.7773       190150       117223 
38040000    1.0473368  -0.34402909      1728000    3164.5985       190200       117253 
38050000   0.96359009  -0.35241587      1728000    3165.4314       190250       117279 
38060000   0.99345024  -0.36625649      1728000    3166.2707       190300       117308 
38070000   0.99273506  -0.36084457      1728000    3167.0887       190350       117335 
38080000    1.0321888  -0.35287092      1728000    3167.9101       190400       117366 
38090000   0.94641885  -0.35976058      1728000    3168.7331       190450       117397 
38100000    0.9418488  -0.35391458      1728000    3169.5562       190500       117425 
38110000   0.97098189  -0.36005777      1728000    3170.3759       190550       117454 
38120000   0.98988079  -0.35358128      1728000    3171.2033       190600       117489 
38130000   0.99089088  -0.35604072      1728000    3172.0291       190650       117522 
38140000    1.0042695  -0.32904304      1728000    3172.8722       190700       117552 
38150000   0.96717297  -0.32285097      1728000    3173.6832       190750       117584 
38160000    0.9252409   -0.3455776      1728000    3174.4841       190800       117620 
38170000   0.97294246  -0.33619359      1728000    3175.2939       190850       117647 
38180000     1.021826  -0.32970987      1728000    3176.1423       190900       117676 
38190000    1.0013813  -0.33507375      1728000    3176.9681       190950       117707 
38200000    1.0443703  -0.33399646      1728000    3177.8008       191000       117737 
38210000    1.0266625  -0.33365045      1728000     3178.626       191050       117772 
38220000   0.98514783  -0.34800795      1728000    3179.4459       191100       117802 
38230000    1.0971198  -0.32232968      1728000    3180.2563       191150       117839 
38240000     1.004181  -0.33215465      1728000    3181.0901       191200       117875 
38250000    1.0286944   -0.3561171      1728000    3181.9101       191250       117912 
38260000   0.99585635  -0.33706486      1728000     3182.737       191300       117937 
38270000    1.0038102   -0.3670965      1728000    3183.5671       191350       117968 
38280000    1.0022423   -0.3544257      1728000    3184.4071       191400       117997 
38290000   0.97194446  -0.36689221      1728000    3185.2181       191450       118035 
38300000   0.96284043  -0.36809374      1728000    3186.0551       191500       118068 
38310000    1.0531319  -0.37225266      1728000    3186.8849       191550       118099 
38320000    1.0448564  -0.35905135      1728000    3187.7241       191600       118130 
38330000    1.0357052  -0.35377485      1728000    3188.5731       191650       118159 
38340000    1.0281236  -0.34102655      1728000     3189.417       191700       118191 
38350000    1.0017078  -0.37269274      1728000    3190.2657       191750       118224 
38360000   0.98740191  -0.32758114      1728000    3191.0831       191800       118253 
38370000   0.96460684  -0.32750487      1728000    3191.9002       191850       118282 
38380000    1.0389414  -0.32381363      1728000      3192.71       191900       118310 
38390000   0.98137502  -0.35853816      1728000    3193.5407       191950       118343 
38400000    1.0162351  -0.34706228      1728000    3194.3718       192000       118373 
38410000   0.99301081  -0.34677354      1728000      3195.21       192050       118399 
38420000    1.0830039  -0.32149447      1728000    3196.0269       192100       118429 
38430000    1.0702113  -0.33115458      1728000    3196.8254       192150       118461 
38440000    1.0470408  -0.35355004      1728000    3197.6513       192200       118494 
38450000   0.99984505  -0.34846147      1728000    3198.4644       192250       118526 
38460000    1.0000509  -0.34408147      1728000    3199.2622       192300       118555 
38470000    1.0148318  -0.32467612      1728000    3200.0759       192350       118588 
38480000    1.0154135  -0.33678485      1728000    3200.8786       192400       118622 
38490000    1.0123753  -0.33921555      1728000    3201.6891       192450       118663 
38500000    1.0310653  -0.33599617      1728000    3202.5006       192500       118696 
38510000   0.97488189  -0.35991655      1728000    3203.3039       192550       118729 
38520000   0.94090895   -0.3277396      1728000    3204.1104       192600       118759 
38530000   0.92542208  -0.32810741      1728000    3204.9079       192650       118793 
38540000   0.96980233  -0.35626316      1728000    3205.7001       192700       118827 
38550000     1.065134  -0.34572886      1728000    3206.5185       192750       118855 
38560000   0.97142524  -0.34967389      1728000     3207.332       192800       118881 
38570000    1.0359781  -0.33255808      1728000    3208.1451       192850       118910 
38580000    1.0507392  -0.35156882      1728000      3208.97       192900       118946 
38590000   0.97139568  -0.34917758      1728000     3209.777       192950       118977 
38600000   0.99371082   -0.3492016      1728000     3210.591       193000       119013 
38610000    1.0252438  -0.34460858      1728000    3211.4031       193050       119048 
38620000   0.95257651  -0.37574245      1728000    3212.2071       193100       119080 
38630000    1.0070993  -0.38194273      1728000    3213.0181       193150       119109 
38640000   0.96202928  -0.38074819      1728000     3213.831       193200       119136 
38650000    1.0228276  -0.34571186      1728000    3214.6367       193250       119164 
38660000   0.96589346  -0.37522743      1728000    3215.4518       193300       119193 
38670000    1.0681891  -0.33326329      1728000    3216.2639       193350       119220 
38680000   0.99357239  -0.36207866      1728000     3217.063       193400       119255 
38690000    1.0411572  -0.36183777      1728000    3217.8741       193450       119292 
38700000    1.0112741  -0.32955688      1728000    3218.7032       193500       119320 
38710000    1.0351177    -0.344424      1728000    3219.5068       193550       119351 
38720000   0.98382961   -0.3628124      1728000    3220.3091       193600       119382 
38730000    1.0162272  -0.34745572      1728000     3221.153       193650       119406 
38740000   0.96752784   -0.3539338      1728000    3221.9658       193700       119434 
38750000    1.0056142  -0.37534643      1728000    3222.7819       193750       119468 
38760000   0.99949565  -0.38602124      1728000    3223.5921       193800       119503 
38770000    0.9857007  -0.37810032      1728000    3224.4021       193850       119536 
38780000   0.98597662  -0.37127132      1728000    3225.2351       193900       119563 
38790000   0.98817519  -0.36475478      1728000    3226.0517       193950       119602 
38800000   0.96288974  -0.37131496      1728000     3226.984       194000       119630 
38810000    1.0137291  -0.36768339      1728000    3227.8139       194050       119660 
38820000   0.99224682  -0.39841332      1728000     3228.648       194100       119688 
38830000   0.99584034    -0.409963      1728000    3229.4909       194150       119711 
38840000    1.0822542  -0.40258579      1728000    3230.3162       194200       119734 
38850000   0.95670971   -0.3819707      1728000     3231.138       194250       119766 
38860000    1.0309236  -0.38128104      1728000     3231.955       194300       119794 
38870000    0.9902893  -0.38962826      1728000    3232.7762       194350       119823 
38880000   0.94092261  -0.37714066      1728000    3233.5879       194400       119854 
38890000    1.0081178  -0.35903774      1728000    3234.4447       194450       119884 
38900000    1.0116668  -0.36609414      1728000    3235.4115       194500       119911 
38910000    1.0272696   -0.3863021      1728000    3236.2466       194550       119940 
38920000    1.0178532  -0.39352373      1728000     3237.074       194600       119968 
38930000    0.9827257  -0.37379535      1728000    3237.9014       194650       120002 
38940000   0.97621034   -0.3631276      1728000    3238.7119       194700       120038 
38950000   0.98943414  -0.34599284      1728000     3239.523       194750       120065 
38960000    1.0443105  -0.36848735      1728000    3240.3403       194800       120090 
38970000    1.0324658  -0.34591288      1728000    3241.1544       194850       120116 
38980000    1.0194102  -0.36206045      1728000    3241.9768       194900       120145 
38990000    1.0030043  -0.33824121      1728000    3242.7922       194950       120177 
39000000    1.0090115  -0.33456744      1728000     3243.622       195000       120206 
39010000   0.97047793    -0.347305      1728000    3244.4859       195050       120235 
39020000    1.0554316  -0.36024689      1728000    3245.3015       195100       120265 
39030000   0.96037622  -0.35646001      1728000    3246.1373       195150       120299 
39040000    1.0222072  -0.33695522      1728000    3246.9886       195200       120331 
39050000    1.0009295  -0.33944691      1728000    3247.8082       195250       120368 
39060000    0.9645224  -0.35432504      1728000    3248.6232       195300       120399 
39070000   0.99557789  -0.33821033      1728000    3249.4328       195350       120435 
39080000    1.0044624  -0.33168305      1728000    3250.2508       195400       120463 
39090000    1.0632065  -0.37302948      1728000     3251.089       195450       120493 
39100000   0.95900911  -0.37107442      1728000      3251.93       195500       120525 
39110000   0.99342268  -0.37044517      1728000    3252.7629       195550       120554 
39120000      1.04955  -0.36348667      1728000    3253.5818       195600       120577 
39130000   0.96100808  -0.37805624      1728000    3254.3843       195650       120617 
39140000    1.0789583  -0.37017717      1728000    3255.2287       195700       120645 
39150000     1.014117  -0.38266352      1728000    3256.0381       195750       120675 
39160000   0.98422288  -0.37088733      1728000    3256.8393       195800       120704 
39170000       1.0771  -0.35303198      1728000     3257.645       195850       120733 
39180000   0.98536104   -0.3600821      1728000     3258.457       195900       120764 
39190000   0.97841922  -0.35647028      1728000    3259.2799       195950       120792 
39200000   0.99998513  -0.34803211      1728000    3260.1392       196000       120821 
39210000    0.9782693   -0.3447363      1728000    3260.9743       196050       120852 
39220000    1.0619058  -0.36528106      1728000    3261.7835       196100       120890 
39230000    1.0336128  -0.36755385      1728000       3262.6       196150       120924 
39240000   0.92819488  -0.36152594      1728000    3263.4169       196200       120958 
39250000   0.97806543   -0.3679001      1728000    3264.2521       196250       120987 
39260000    1.0415178  -0.35672548      1728000    3265.0817       196300       121022 
39270000    1.0252704  -0.32068632      1728000     3265.972       196350       121057 
39280000   0.97516898   -0.3603002      1728000    3266.8242       196400       121095 
39290000   0.99798471  -0.35583033      1728000    3267.6764       196450       121126 
39300000   0.94911414  -0.37162257      1728000    3268.5599       196500       121155 
39310000   0.96361076  -0.36636171      1728000    3269.3739       196550       121187 
39320000   0.94624944   -0.3603423      1728000    3270.1889       196600       121222 
39330000    1.0102646  -0.33664553      1728000    3271.0048       196650       121259 
39340000   0.94793331  -0.35236921      1728000     3271.826       196700       121291 
39350000    1.0023664  -0.34826479      1728000     3272.646       196750       121321 
39360000    1.0305776   -0.3782227      1728000    3273.4737       196800       121355 
39370000   0.92811029  -0.38094262      1728000     3274.294       196850       121382 
39380000    1.0259243  -0.36556656      1728000    3275.1332       196900       121412 
39390000     1.069034  -0.37351741      1728000    3275.9494       196950       121440 
39400000    1.0286583   -0.3396935      1728000    3276.7664       197000       121467 
39410000   0.95318926  -0.36439144      1728000     3277.583       197050       121491 
39420000   0.98988327  -0.36978559      1728000     3278.388       197100       121525 
39430000   0.94653052  -0.37130722      1728000    3279.1948       197150       121552 
39440000   0.97685163  -0.35095875      1728000    3280.0079       197200       121579 
39450000   0.95625011  -0.36922826      1728000    3280.8208       197250       121601 
39460000   0.97975196  -0.37484138      1728000    3281.6318       197300       121634 
39470000    1.0465507  -0.38179143      1728000    3282.4908       197350       121662 
39480000    1.0458165  -0.35890955      1728000     3283.326       197400       121688 
39490000   0.98545628  -0.37688765      1728000    3284.1719       197450       121718 
39500000    1.0550298   -0.3585516      1728000    3284.9969       197500       121744 
39510000    1.0287816  -0.35625199      1728000    3285.8059       197550       121772 
39520000   0.99570617    -0.381932      1728000     3286.615       197600       121807 
39530000   0.95045758  -0.35810503      1728000    3287.4329       197650       121834 
39540000   0.98582465   -0.3509582      1728000     3288.253       197700       121863 
39550000     1.033787  -0.36250436      1728000    3289.0678       197750       121895 
39560000   0.96890933  -0.35216111      1728000     3289.913       197800       121920 
39570000    1.0393157  -0.35940294      1728000     3290.725       197850       121958 
39580000   0.99306804   -0.3657075      1728000     3291.547       197900       121989 
39590000   0.99759603  -0.34870373      1728000    3292.3779       197950       122021 
39600000   0.95867463  -0.35006855      1728000    3293.2009       198000       122053 
39610000   0.96424164  -0.37215932      1728000    3294.0198       198050       122079 
39620000    1.0223042  -0.37556589      1728000    3294.8397       198100       122101 
39630000    1.0024264  -0.38894943      1728000    3295.6819       198150       122136 
39640000    1.0117456  -0.36737049      1728000     3296.516       198200       122166 
39650000    1.0373514  -0.36494216      1728000    3297.3461       198250       122198 
39660000   0.97829651  -0.38064652      1728000    3298.1797       198300       122222 
39670000   0.97110016  -0.36433188      1728000     3299.029       198350       122252 
39680000   0.99826169  -0.36939148      1728000    3299.8589       198400       122282 
39690000     1.043955  -0.37574253      1728000    3300.6833       198450       122314 
39700000    1.0329006  -0.35810341      1728000    3301.5241       198500       122337 
39710000    1.0502409  -0.36240589      1728000    3302.3593       198550       122373 
39720000    1.0198884  -0.37981172      1728000    3303.1826       198600       122402 
39730000    1.0237348  -0.36544393      1728000    3304.0078       198650       122432 
39740000   0.95938594  -0.35618379      1728000    3304.8335       198700       122464 
39750000   0.99487043  -0.34775211      1728000    3305.6469       198750       122493 
39760000    1.0488606  -0.35525326      1728000    3306.4855       198800       122525 
39770000     1.032545  -0.33636932      1728000    3307.3001       198850       122554 
39780000   0.99274382  -0.35622452      1728000    3308.1049       198900       122585 
39790000   0.94605596  -0.37329981      1728000    3308.9392       198950       122611 
39800000    1.0408454  -0.35071214      1728000    3309.8067       199000       122645 
39810000    1.0485442   -0.3617986      1728000    3310.6142       199050       122673 
39820000    1.0095798  -0.34387206      1728000    3311.4224       199100       122705 
39830000   0.96456064  -0.34255303      1728000    3312.2222       199150       122735 
39840000   0.94632748  -0.34945856      1728000    3313.0437       199200       122761 
39850000    1.0209378  -0.31888355      1728000    3313.8493       199250       122789 
39860000   0.95465253  -0.33347094      1728000    3314.6631       199300       122819 
39870000     1.057066  -0.35005121      1728000    3315.4743       199350       122850 
39880000    1.0462726  -0.34212787      1728000    3316.2869       199400       122882 
39890000   0.99205289  -0.35361894      1728000    3317.1095       199450       122906 
39900000   0.97952196  -0.34338056      1728000    3317.9469       199500       122940 
39910000   0.97566537  -0.36895686      1728000     3318.795       199550       122974 
39920000    0.9582351  -0.35205064      1728000    3319.6087       199600       123007 
39930000     1.030366  -0.33918587      1728000    3320.4259       199650       123040 
39940000   0.98598801  -0.35889091      1728000    3321.2279       199700       123081 
39950000    1.0223241  -0.32959967      1728000     3322.066       199750       123108 
39960000    1.0505944  -0.31182318      1728000    3322.8799       199800       123140 
39970000    1.0305224  -0.33585537      1728000     3323.694       199850       123169 
39980000    1.0017679  -0.33107988      1728000    3324.4999       199900       123205 
39990000    1.0344206  -0.33950075      1728000    3325.3097       199950       123234 
40000000   0.99861465  -0.33445905      1728000    3326.1459       200000       123263 
40010000    1.0352044  -0.34519814      1728000    3326.9914       200050       123295 
40020000   0.99596459  -0.32692755      1728000     3327.819       200100       123329 
40030000    1.0010083  -0.31849461      1728000    3328.6309       200150       123358 
40040000   0.97437053  -0.34735907      1728000    3329.4541       200200       123388 
40050000   0.96163412  -0.33454402      1728000    3330.2741       200250       123416 
40060000    1.0269554   -0.3349552      1728000    3331.1217       200300       123444 
40070000   0.97556678  -0.33747029      1728000    3331.9339       200350       123468 
40080000    1.0085487   -0.3659403      1728000    3332.7614       200400       123495 
40090000    1.0016085  -0.35196561      1728000    3333.5888       200450       123526 
40100000   0.99382185  -0.36828102      1728000    3334.5226       200500       123556 
40110000   0.96517571  -0.34031688      1728000    3335.3557       200550       123584 
40120000    1.0267583  -0.37178814      1728000    3336.1816       200600       123615 
40130000    1.0037458  -0.38087885      1728000    3337.0187       200650       123646 
40140000    1.0107647    -0.370556      1728000    3337.8469       200700       123677 
40150000   0.95891057  -0.38375195      1728000     3338.673       200750       123705 
40160000   0.98202471  -0.36080503      1728000    3339.5146       200800       123729 
40170000    1.0112372  -0.36632687      1728000    3340.3618       200850       123764 
40180000    0.9946713  -0.36210802      1728000    3341.1839       200900       123796 
40190000    1.0161198  -0.34939451      1728000    3342.0008       200950       123829 
40200000     1.032685   -0.3633796      1728000    3342.8709       201000       123858 
40210000   0.99198255  -0.37059077      1728000    3343.6942       201050       123889 
40220000    1.0106869  -0.37330243      1728000    3344.5137       201100       123924 
40230000     0.951786  -0.35899641      1728000     3345.326       201150       123958 
40240000    1.0200921  -0.37128111      1728000    3346.1429       201200       123990 
40250000   0.99242712  -0.34160305      1728000    3346.9728       201250       124017 
40260000    1.1049085  -0.35844562      1728000    3347.8919       201300       124049 
40270000   0.98470762  -0.37037712      1728000    3348.7119       201350       124082 
40280000   0.98497972  -0.37515947      1728000    3349.5358       201400       124111 
40290000    1.0241194  -0.34864187      1728000    3350.3498       201450       124145 
40300000   0.98598502  -0.37922567      1728000    3351.2159       201500       124178 
40310000    1.0222291  -0.38288187      1728000    3352.0348       201550       124205 
40320000    1.0355084  -0.37651181      1728000    3352.8627       201600       124233 
40330000   0.96678742  -0.35583472      1728000    3353.6799       201650       124264 
40340000   0.93241471  -0.36644209      1728000    3354.5208       201700       124295 
40350000    1.0386077  -0.37803986      1728000    3355.3469       201750       124320 
40360000   0.96741353  -0.36452317      1728000    3356.1758       201800       124354 
40370000    1.0178898  -0.32229322      1728000     3356.993       201850       124387 
40380000   0.98083342  -0.31588232      1728000    3357.8148       201900       124420 
40390000   0.98857983  -0.32828811      1728000    3358.6247       201950       124452 
40400000    1.0248258  -0.32460004      1728000    3359.5859       202000       124485 
40410000    1.0364125  -0.33798821      1728000    3360.4138       202050       124517 
40420000    1.0302551  -0.35740084      1728000    3361.2229       202100       124553 
40430000    1.0021861  -0.36854658      1728000    3362.0479       202150       124589 
40440000   0.95305797   -0.3724557      1728000    3362.8728       202200       124617 
40450000    1.0369888  -0.40371441      1728000    3363.6839       202250       124654 
40460000   0.97550305  -0.38648837      1728000    3364.4935       202300       124681 
40470000    1.0246335  -0.38383133      1728000    3365.3068       202350       124709 
40480000    1.0346894  -0.37807577      1728000    3366.1458       202400       124730 
40490000    1.0734125  -0.36281847      1728000    3366.9657       202450       124761 
40500000   0.97998351  -0.33665036      1728000    3367.8213       202500       124795 
40510000    1.0227196  -0.36811739      1728000    3368.6307       202550       124828 
40520000    1.0223661   -0.3610604      1728000    3369.4648       202600       124856 
40530000   0.98971201  -0.32777222      1728000    3370.2777       202650       124891 
40540000   0.91934636  -0.34071413      1728000    3371.1348       202700       124928 
40550000    1.0057929  -0.34914123      1728000    3371.9617       202750       124959 
40560000     1.020375  -0.34466618      1728000    3372.7917       202800       124990 
40570000   0.99447365  -0.32456301      1728000    3373.6107       202850       125019 
40580000   0.99260393  -0.33486168      1728000    3374.4237       202900       125049 
40590000    1.0597987  -0.32028679      1728000    3375.2368       202950       125076 
40600000   0.99241118  -0.34827703      1728000    3376.0596       203000       125104 
40610000    1.0241664  -0.35275436      1728000    3376.8978       203050       125133 
40620000    1.0028651  -0.35321477      1728000    3377.7168       203100       125166 
40630000     0.959722  -0.31923335      1728000    3378.5409       203150       125196 
40640000    1.0434471  -0.36533859      1728000    3379.3518       203200       125235 
40650000     1.068165  -0.35188945      1728000    3380.1738       203250       125264 
40660000   0.95133412   -0.3391379      1728000    3380.9957       203300       125296 
40670000   0.93747496  -0.35288991      1728000    3381.8347       203350       125328 
40680000   0.98436056    -0.352846      1728000    3382.6668       203400       125361 
40690000    1.0036716  -0.37255545      1728000    3383.5207       203450       125392 
40700000    0.9735945  -0.37350114      1728000    3384.3408       203500       125420 
40710000   0.90150952  -0.36052281      1728000    3385.1548       203550       125455 
40720000   0.98580194  -0.35528221      1728000    3385.9798       203600       125486 
40730000    1.0184653  -0.37673996      1728000    3386.7917       203650       125523 
40740000   0.97248142   -0.3696917      1728000    3387.6138       203700       125552 
40750000    1.0293195  -0.36907546      1728000    3388.4268       203750       125586 
40760000   0.94912088  -0.33211849      1728000    3389.2508       203800       125618 
40770000   0.99922984  -0.33808649      1728000    3390.0908       203850       125650 
40780000    1.0082301  -0.33287071      1728000    3390.9159       203900       125678 
40790000    1.0353878  -0.33556406      1728000    3391.7347       203950       125710 
40800000   0.94382679  -0.32990676      1728000    3392.5777       204000       125738 
40810000   0.95569958  -0.29840976      1728000    3393.4218       204050       125767 
40820000    1.0002526  -0.30036031      1728000    3394.2876       204100       125798 
40830000    1.0039091  -0.30178463      1728000    3395.1009       204150       125833 
40840000    1.0164485  -0.29557458      1728000    3395.9498       204200       125862 
40850000    1.0110434  -0.32054887      1728000    3396.7826       204250       125895 
40860000   0.98812154  -0.32459894      1728000      3397.61       204300       125925 
40870000    1.0436188  -0.34431466      1728000    3398.4377       204350       125960 
40880000    1.0463617  -0.31654818      1728000    3399.2665       204400       125993 
40890000    1.0039008  -0.36144701      1728000    3400.1008       204450       126022 
40900000   0.99551546  -0.34052424      1728000    3400.9278       204500       126057 
40910000   0.94197144  -0.33750396      1728000    3401.7687       204550       126081 
40920000   0.99654542  -0.34421337      1728000    3402.5845       204600       126108 
40930000    1.0541332  -0.36193095      1728000    3403.3987       204650       126141 
40940000    1.0405039   -0.3745401      1728000    3404.2207       204700       126173 
40950000    1.0038612  -0.36771606      1728000    3405.0638       204750       126200 
40960000   0.97280169  -0.36664757      1728000    3405.9006       204800       126233 
40970000    1.0594537  -0.35472854      1728000    3406.7265       204850       126265 
40980000     1.020804  -0.36283047      1728000    3407.5697       204900       126295 
40990000    1.0404744  -0.39997017      1728000    3408.3958       204950       126324 
41000000    1.0224826  -0.37999994      1728000    3409.2446       205000       126359 
41010000    1.0230756  -0.39377636      1728000    3410.0607       205050       126388 
41020000   0.99619859  -0.37993668      1728000    3410.9035       205100       126415 
41030000   0.99369004  -0.39979033      1728000    3411.7336       205150       126443 
41040000    1.0663982  -0.36511946      1728000    3412.5546       205200       126471 
41050000   0.96869102  -0.37272744      1728000    3413.4167       205250       126499 
41060000   0.99670201  -0.37254469      1728000    3414.2496       205300       126525 
41070000    1.0302439  -0.37869545      1728000    3415.0638       205350       126562 
41080000     1.003864    -0.385778      1728000    3415.8876       205400       126595 
41090000    0.9813915  -0.37973136      1728000    3416.7228       205450       126626 
41100000    1.0034036   -0.3907678      1728000    3417.6308       205500       126652 
41110000    1.0269323  -0.36063662      1728000    3418.4668       205550       126678 
41120000    1.0129979  -0.34923482      1728000    3419.2925       205600       126708 
41130000   0.99769606    -0.375979      1728000    3420.1284       205650       126735 
41140000    1.0479483  -0.34863427      1728000    3420.9497       205700       126763 
41150000   0.98333721  -0.34930518      1728000    3421.8007       205750       126799 
41160000   0.97750845  -0.35319376      1728000    3422.6317       205800       126824 
41170000    1.0033328  -0.34552507      1728000    3423.4748       205850       126852 
41180000    1.0415155  -0.37287666      1728000    3424.3015       205900       126879 
41190000   0.98268149  -0.37580893      1728000    3425.1167       205950       126910 
41200000     1.001087  -0.36680764      1728000    3425.9556       206000       126934 
41210000    1.0162644  -0.36136888      1728000    3426.7908       206050       126962 
41220000     1.004678  -0.36634138      1728000    3427.6237       206100       126992 
41230000    1.0118242  -0.39193995      1728000    3428.4507       206150       127023 
41240000   0.99238778   -0.3637817      1728000    3429.2806       206200       127048 
41250000   0.98086785  -0.38296782      1728000    3430.1027       206250       127077 
41260000   0.97245852  -0.36097531      1728000    3430.9408       206300       127107 
41270000     0.992251  -0.35848963      1728000    3431.7551       206350       127139 
41280000   0.99155382  -0.34228405      1728000    3432.5768       206400       127163 
41290000   0.98852605  -0.33788854      1728000    3433.4047       206450       127193 
41300000    1.0184981  -0.36616205      1728000    3434.2486       206500       127218 
41310000   0.95835877  -0.35504765      1728000    3435.0847       206550       127252 
41320000    0.9565962  -0.37183843      1728000    3435.9157       206600       127278 
41330000   0.98576655  -0.37683514      1728000    3436.7776       206650       127311 
41340000    1.0243377  -0.37701189      1728000    3437.6148       206700       127347 
41350000    1.0240695   -0.3654646      1728000    3438.4366       206750       127380 
41360000    1.0482561   -0.3774717      1728000    3439.2675       206800       127406 
41370000    1.0135831  -0.36342758      1728000    3440.0957       206850       127431 
41380000    1.0025242  -0.38673776      1728000    3440.9126       206900       127460 
41390000   0.99049371  -0.38647318      1728000    3441.7317       206950       127491 
41400000   0.96421481  -0.39034882      1728000    3442.5709       207000       127523 
41410000    1.0348248  -0.40386623      1728000    3443.4217       207050       127558 
41420000     1.033706  -0.41022042      1728000    3444.2398       207100       127586 
41430000    1.0307231  -0.37369436      1728000    3445.0777       207150       127608 
41440000   0.98510852  -0.37439922      1728000    3445.9237       207200       127643 
41450000   0.94919248  -0.35646469      1728000    3446.7535       207250       127666 
41460000   0.99136981  -0.37401365      1728000    3447.5896       207300       127695 
41470000    1.0287734  -0.40383775      1728000    3448.4447       207350       127726 
41480000    1.0111097  -0.36248102      1728000     3449.266       207400       127752 
41490000   0.96359814   -0.3187366      1728000    3450.1029       207450       127784 
41500000    1.0365537  -0.35142128      1728000    3450.9527       207500       127814 
41510000   0.99526147  -0.36235656      1728000    3451.7767       207550       127851 
41520000   0.94159822  -0.33862662      1728000    3452.5986       207600       127882 
41530000    1.0331315   -0.3620737      1728000    3453.4207       207650       127919 
41540000    1.0212173   -0.3443697      1728000    3454.2385       207700       127951 
41550000    1.0102434  -0.34704441      1728000    3455.0566       207750       127977 
41560000   0.99683284  -0.38717944      1728000    3455.8807       207800       128005 
41570000   0.95723586  -0.36099253      1728000    3456.6966       207850       128031 
41580000   0.99653351  -0.37106085      1728000    3457.5654       207900       128056 
41590000    1.0394697  -0.36013867      1728000    3458.3747       207950       128088 
41600000    1.1178557  -0.36918786      1728000    3459.1975       208000       128114 
41610000   0.99192396  -0.35258643      1728000    3460.0165       208050       128145 
41620000    1.0522855  -0.34746308      1728000    3460.8406       208100       128177 
41630000   0.96079143   -0.3529872      1728000    3461.6637       208150       128214 
41640000    1.0145296  -0.37066276      1728000    3462.4926       208200       128243 
41650000   0.93754497  -0.35845974      1728000    3463.3863       208250       128275 
41660000   0.95941579  -0.39177199      1728000    3464.2164       208300       128311 
41670000   0.98165863  -0.37726054      1728000    3465.0787       208350       128338 
41680000   0.98082231  -0.39462131      1728000    3465.9096       208400       128365 
41690000    1.0676097  -0.39198296      1728000    3466.7666       208450       128391 
41700000    0.9884473  -0.42522352      1728000    3467.5975       208500       128422 
41710000     1.020332   -0.3706736      1728000    3468.4244       208550       128450 
41720000   0.99496735   -0.3777112      1728000    3469.2445       208600       128480 
41730000    1.0551576  -0.34703332      1728000    3470.0696       208650       128513 
41740000   0.93929181  -0.37332242      1728000    3470.9026       208700       128544 
41750000   0.98433313  -0.36590227      1728000    3471.7324       208750       128573 
41760000   0.97285592  -0.35526184      1728000    3472.5555       208800       128603 
41770000   0.97189846   -0.3509331      1728000    3473.3934       208850       128638 
41780000   0.97291496  -0.37695102      1728000    3474.2157       208900       128669 
41790000   0.93939992  -0.36810137      1728000    3475.0777       208950       128699 
41800000    1.0686719  -0.37037639      1728000    3475.9103       209000       128731 
41810000   0.96436967  -0.36487354      1728000    3476.7302       209050       128763 
41820000   0.99184671  -0.36982812      1728000    3477.5588       209100       128790 
41830000    1.0245757  -0.35649895      1728000    3478.3805       209150       128817 
41840000     1.009097  -0.36873359      1728000    3479.2025       209200       128845 
41850000   0.99338932  -0.34716424      1728000    3480.0445       209250       128878 
41860000    1.0202102  -0.37525179      1728000    3480.8696       209300       128911 
41870000   0.94346008   -0.3566235      1728000    3481.6926       209350       128940 
41880000   0.96997171  -0.36104336      1728000    3482.5106       209400       128977 
41890000    1.0471435  -0.36942001      1728000    3483.3185       209450       129016 
41900000    1.0752472  -0.35841202      1728000    3484.1406       209500       129044 
41910000   0.99143769  -0.35002065      1728000    3484.9675       209550       129077 
41920000   0.98881707  -0.34718024      1728000    3485.7784       209600       129107 
41930000    1.0010314  -0.37091376      1728000    3486.6096       209650       129143 
41940000   0.98788801  -0.33519143      1728000    3487.4634       209700       129168 
41950000    1.0368273  -0.36368448      1728000    3488.2977       209750       129198 
41960000    1.0436609  -0.34166477      1728000    3489.1216       209800       129219 
41970000    1.0033094  -0.34640366      1728000    3489.9366       209850       129254 
41980000   0.99937818   -0.3824592      1728000    3490.7807       209900       129282 
41990000    0.9436445  -0.35030739      1728000    3491.6606       209950       129315 
42000000    1.0019701  -0.36102089      1728000    3492.5423       210000       129343 
42010000   0.98440773  -0.36942609      1728000    3493.3746       210050       129369 
42020000    1.0297215  -0.35062106      1728000    3494.2006       210100       129402 
42030000   0.98296123  -0.38223171      1728000    3495.0256       210150       129436 
42040000   0.99042961  -0.33750666      1728000    3495.8634       210200       129466 
42050000    1.0002639  -0.34754516      1728000    3496.7285       210250       129500 
42060000    1.0411671  -0.32750466      1728000    3497.5826       210300       129529 
42070000    1.0274743  -0.33162995      1728000    3498.4268       210350       129564 
42080000    1.0056127  -0.34106221      1728000     3499.245       210400       129592 
42090000   0.94176432  -0.34469644      1728000    3500.0602       210450       129623 
42100000    1.0177205  -0.33675485      1728000    3500.8983       210500       129659 
42110000    1.0124794  -0.34310171      1728000    3501.7125       210550       129687 
42120000    1.0689796  -0.35215277      1728000    3502.5297       210600       129717 
42130000   0.94337272  -0.35643057      1728000    3503.3454       210650       129756 
42140000    1.0034951  -0.36021074      1728000    3504.2006       210700       129789 
42150000    1.0193013  -0.34350154      1728000    3505.0216       210750       129817 
42160000    1.0361348  -0.36317529      1728000    3505.8423       210800       129842 
42170000   0.99273505  -0.36264273      1728000    3506.6725       210850       129871 
42180000    1.0090856  -0.37661435      1728000    3507.5066       210900       129898 
42190000    1.0104903  -0.36949907      1728000    3508.3349       210950       129931 
42200000    1.0565751  -0.35492506      1728000    3509.1645       211000       129962 
42210000   0.99928968  -0.34195331      1728000    3509.9797       211050       129994 
42220000    1.0362215   -0.3543981      1728000    3510.7923       211100       130023 
42230000   0.98342715  -0.34177583      1728000    3511.6053       211150       130059 
42240000    0.9714448  -0.33404952      1728000    3512.4226       211200       130090 
42250000    1.0071688   -0.3466054      1728000    3513.2408       211250       130125 
42260000    1.0306645  -0.35044444      1728000     3514.046       211300       130154 
42270000    1.0262677  -0.33561846      1728000    3514.8586       211350       130185 
42280000   0.99293833  -0.35482472      1728000    3515.6976       211400       130216 
42290000    0.9926505  -0.35950153      1728000    3516.5326       211450       130247 
42300000    1.0474912  -0.35278227      1728000    3517.3721       211500       130283 
42310000   0.96763264  -0.35889416      1728000    3518.2233       211550       130316 
42320000   0.94857378   -0.3419942      1728000    3519.0357       211600       130347 
42330000    1.0830744   -0.3486063      1728000    3519.8485       211650       130380 
42340000    1.0179704   -0.3328778      1728000    3520.6723       211700       130410 
42350000    1.0263289  -0.33989079      1728000    3521.4867       211750       130444 
42360000   0.95629885  -0.34721415      1728000    3522.3035       211800       130473 
42370000    1.0954729  -0.33362996      1728000    3523.1236       211850       130503 
42380000    1.0130641  -0.34908797      1728000    3523.9376       211900       130533 
42390000   0.96554723   -0.3122712      1728000    3524.7711       211950       130562 
42400000   0.97062022  -0.33145078      1728000    3525.5966       212000       130597 
42410000    1.0083196  -0.32832543      1728000    3526.4125       212050       130636 
42420000   0.98011286  -0.31675977      1728000    3527.2375       212100       130675 
42430000   0.96425986  -0.31615687      1728000    3528.0615       212150       130708 
42440000   0.96569299  -0.31496164      1728000    3528.9056       212200       130734 
42450000   0.97799723  -0.31682522      1728000    3529.7463       212250       130768 
42460000     1.072168  -0.32300365      1728000    3530.5646       212300       130801 
42470000     0.961647  -0.34450339      1728000    3531.3924       212350       130829 
42480000   0.97639344  -0.35220845      1728000    3532.2336       212400       130858 
42490000   0.98573639  -0.34408991      1728000    3533.0606       212450       130888 
42500000    1.0017703  -0.35938444      1728000    3533.8796       212500       130921 
42510000    1.0184528  -0.36516232      1728000    3534.7026       212550       130946 
42520000    1.0153217  -0.35232793      1728000    3535.5264       212600       130979 
42530000   0.93798906  -0.35191094      1728000    3536.4046       212650       131012 
42540000   0.95187483  -0.34651654      1728000    3537.3135       212700       131037 
42550000    1.0389893  -0.36594717      1728000    3538.1656       212750       131075 
42560000    1.1050548  -0.38211562      1728000    3538.9846       212800       131105 
42570000   0.93611581  -0.37262545      1728000    3539.8525       212850       131136 
42580000    1.0888809  -0.37939625      1728000    3540.6755       212900       131167 
42590000    1.0323613  -0.35831714      1728000    3541.5135       212950       131201 
42600000   0.98151738  -0.35379026      1728000    3542.3565       213000       131228 
42610000   0.97381267   -0.3479096      1728000    3543.1895       213050       131257 
42620000    1.0514058  -0.35207643      1728000    3544.0085       213100       131286 
42630000    1.0513229  -0.33560046      1728000    3544.8245       213150       131320 
42640000    1.0143308  -0.37282735      1728000    3545.6426       213200       131351 
42650000    1.0159683  -0.36371178      1728000    3546.5025       213250       131376 
42660000   0.99208923  -0.32732629      1728000    3547.3356       213300       131409 
42670000   0.99258224   -0.3503432      1728000    3548.1586       213350       131441 
42680000   0.99128436  -0.33928626      1728000    3548.9784       213400       131470 
42690000    1.0517984  -0.34964259      1728000    3549.7965       213450       131499 
42700000   0.95956673  -0.36145751      1728000    3550.6365       213500       131537 
42710000   0.97128834  -0.34075269      1728000    3551.4574       213550       131574 
42720000    1.0114092  -0.32811203      1728000    3552.2822       213600       131606 
42730000    1.0655134  -0.35167444      1728000    3553.0985       213650       131641 
42740000    1.0002248  -0.33685092      1728000    3553.9086       213700       131671 
42750000     1.031607  -0.36578388      1728000    3554.7936       213750       131701 
42760000     1.003808  -0.36613005      1728000    3555.6074       213800       131729 
42770000   0.97096949  -0.37664092      1728000    3556.4276       213850       131760 
42780000   0.95805491   -0.3797675      1728000    3557.2523       213900       131787 
42790000    1.0837899  -0.35783129      1728000    3558.0705       213950       131816 
42800000    1.0402751  -0.36934055      1728000    3558.8854       214000       131846 
42810000    1.0083141  -0.37778325      1728000    3559.7073       214050       131871 
42820000    1.0039091  -0.39453014      1728000    3560.5256       214100       131902 
42830000    1.0395744  -0.38932422      1728000    3561.3585       214150       131930 
42840000    1.0111881  -0.39883593      1728000    3562.1876       214200       131959 
42850000   0.93906788  -0.39987189      1728000    3563.0135       214250       131996 
42860000    1.0132373  -0.42937399      1728000    3563.8414       214300       132026 
42870000    0.9596239  -0.38253095      1728000    3564.6635       214350       132052 
42880000    1.0107234  -0.39337749      1728000    3565.4965       214400       132079 
42890000    1.0056038  -0.37154649      1728000    3566.3324       214450       132109 
42900000   0.99649243  -0.38036226      1728000    3567.1594       214500       132145 
42910000   0.99888832  -0.36443023      1728000    3567.9884       214550       132174 
42920000    1.0136675  -0.32986042      1728000    3568.7974       214600       132204 
42930000    1.0439937  -0.36469194      1728000    3569.6075       214650       132235 
42940000    1.0713904  -0.36832009      1728000    3570.4205       214700       132268 
42950000    1.0537343  -0.37977517      1728000    3571.2463       214750       132301 
42960000    1.0377723  -0.39690975      1728000    3572.0664       214800       132326 
42970000   0.99149581  -0.36573178      1728000    3572.9157       214850       132354 
42980000     1.001253  -0.36808749      1728000    3573.7352       214900       132390 
42990000    1.0064707  -0.38257527      1728000    3574.5584       214950       132422 
43000000   0.97909077  -0.36954029      1728000    3575.3959       215000       132453 
43010000   0.94651162  -0.35595005      1728000    3576.2164       215050       132484 
43020000    1.0342126  -0.37440404      1728000    3577.0517       215100       132518 
43030000    1.0264297  -0.35451696      1728000    3577.8909       215150       132552 
43040000   0.95934307  -0.33930489      1728000     3578.719       215200       132583 
43050000   0.98353103   -0.3501048      1728000    3579.5414       215250       132618 
43060000    1.0171913  -0.33845724      1728000    3580.3866       215300       132647 
43070000    1.0265917  -0.36736331      1728000    3581.2467       215350       132680 
43080000   0.98771657  -0.36399369      1728000    3582.0788       215400       132712 
43090000   0.99803494  -0.37399363      1728000    3582.9279       215450       132741 
43100000    1.0341639  -0.36043727      1728000     3583.815       215500       132772 
43110000    1.0058306  -0.35953363      1728000    3584.7453       215550       132802 
43120000    1.0140566   -0.3329827      1728000    3585.5666       215600       132836 
43130000   0.97550959  -0.32016109      1728000    3586.4109       215650       132875 
43140000    1.0219088  -0.33561674      1728000    3587.2471       215700       132900 
43150000    0.9807025  -0.35049459      1728000    3588.0736       215750       132936 
43160000   0.99252433  -0.37920766      1728000    3588.9258       215800       132973 
43170000   0.98582234  -0.37630606      1728000     3589.775       215850       132998 
43180000   0.99892743  -0.34127422      1728000    3590.6561       215900       133026 
43190000    1.0047233  -0.32728054      1728000    3591.4903       215950       133059 
43200000    0.9711699  -0.33410679      1728000    3592.3425       216000       133092 
43210000   0.91980031   -0.3414518      1728000    3593.1628       216050       133128 
43220000    1.0210592  -0.35051673      1728000    3593.9855       216100       133159 
43230000   0.97433351  -0.33783503      1728000    3594.8143       216150       133192 
43240000    0.9449686  -0.34948948      1728000    3595.6434       216200       133221 
43250000    1.0782984  -0.34128766      1728000    3596.5075       216250       133256 
43260000    1.0004481  -0.33827859      1728000    3597.3474       216300       133286 
43270000    1.0051619  -0.36010712      1728000    3598.2105       216350       133319 
43280000   0.97618115  -0.34815083      1728000    3599.0543       216400       133354 
43290000   0.94909621   -0.3581264      1728000    3599.8814       216450       133389 
43300000    1.0426694  -0.36589479      1728000    3600.7115       216500       133426 
43310000    0.9866898  -0.31927071      1728000    3601.5214       216550       133462 
43320000     1.001476  -0.35309767      1728000    3602.3495       216600       133490 
43330000    1.0564984  -0.35815434      1728000    3603.1694       216650       133523 
43340000    1.0538784  -0.36207622      1728000    3603.9965       216700       133550 
43350000    1.0082956  -0.34028838      1728000    3604.8284       216750       133579 
43360000   0.99269386  -0.33934242      1728000    3605.6542       216800       133611 
43370000   0.98420989  -0.33147783      1728000    3606.4735       216850       133643 
43380000    1.0087292  -0.33715142      1728000    3607.3436       216900       133672 
43390000   0.98052398  -0.34997045      1728000     3608.197       216950       133701 
43400000   0.99211077  -0.34277238      1728000    3609.0853       217000       133734 
43410000   0.97553244  -0.33153728      1728000    3609.9355       217050       133772 
43420000    1.0111733  -0.31941847      1728000    3610.7705       217100       133808 
43430000    0.9992149  -0.30613567      1728000    3611.6245       217150       133839 
43440000    1.0784905  -0.30106795      1728000    3612.4602       217200       133869 
43450000     1.080749   -0.3039346      1728000    3613.2935       217250       133900 
43460000   0.95276088  -0.31242913      1728000    3614.1303       217300       133940 
43470000    1.0420924  -0.31879582      1728000    3614.9544       217350       133972 
43480000    1.0269624  -0.29689565      1728000    3615.8012       217400       134004 
43490000    1.0405567   -0.2995995      1728000    3616.6264       217450       134030 
43500000   0.98512898  -0.31569319      1728000    3617.4621       217500       134064 
43510000    1.0122438  -0.30195118      1728000    3618.2873       217550       134097 
43520000    1.0225487   -0.3006952      1728000    3619.1524       217600       134132 
43530000    1.0418514  -0.27440491      1728000    3619.9614       217650       134168 
43540000   0.99015593  -0.30754094      1728000    3620.7889       217700       134202 
43550000     1.007968  -0.28503715      1728000    3621.6803       217750       134240 
43560000    1.0528953  -0.33198443      1728000    3622.6124       217800       134278 
43570000   0.93281358  -0.32905008      1728000    3623.4535       217850       134311 
43580000   0.98091683  -0.31407937      1728000    3624.2986       217900       134347 
43590000    1.0127682  -0.31141993      1728000    3625.2181       217950       134377 
43600000   0.93935712  -0.30642653      1728000    3626.0533       218000       134409 
43610000    1.0683718    -0.295861      1728000    3626.8744       218050       134444 
43620000    1.0008393  -0.29410896      1728000    3627.6906       218100       134483 
43630000    1.0143328   -0.2894262      1728000     3628.491       218150       134513 
43640000    0.9634374  -0.27304464      1728000    3629.3122       218200       134544 
43650000   0.93690073  -0.25144451      1728000    3630.1107       218250       134578 
43660000   0.99191737  -0.24563306      1728000    3630.9111       218300       134614 
43670000    1.0042863  -0.25765325      1728000    3631.7304       218350       134648 
43680000    1.0063578  -0.27313507      1728000    3632.6002       218400       134685 
43690000    1.0211253  -0.27841621      1728000    3633.4134       218450       134719 
43700000    1.0005319  -0.28432023      1728000    3634.2853       218500       134753 
43710000   0.96208466  -0.30379238      1728000    3635.1154       218550       134782 
43720000   0.97753736  -0.30662539      1728000    3635.9684       218600       134815 
43730000   0.98630715  -0.28336424      1728000      3636.81       218650       134849 
43740000   0.97301014  -0.27896828      1728000    3637.6252       218700       134886 
43750000    1.0203435  -0.29954093      1728000    3638.4464       218750       134922 
43760000   0.99968035  -0.26994361      1728000    3639.3145       218800       134959 
43770000     1.039462  -0.26685858      1728000    3640.1746       218850       134998 
43780000    1.0154434  -0.29634127      1728000    3640.9769       218900       135034 
43790000   0.96876842  -0.29263897      1728000    3641.8084       218950       135064 
43800000   0.92150509  -0.29630355      1728000    3642.6481       219000       135094 
43810000   0.97352895  -0.29658854      1728000    3643.4584       219050       135129 
43820000   0.99509719  -0.28445734      1728000    3644.2775       219100       135159 
43830000   0.93053215  -0.28950718      1728000    3645.1016       219150       135194 
43840000    1.0155927  -0.29299303      1728000    3645.9079       219200       135226 
43850000    1.0024913   -0.3008088      1728000      3646.71       219250       135263 
43860000   0.98133009  -0.30397505      1728000    3647.5254       219300       135298 
43870000    1.0249762  -0.30555567      1728000    3648.3336       219350       135334 
43880000    1.0447458  -0.28290828      1728000    3649.1414       219400       135369 
43890000    1.0474688   -0.2831061      1728000    3649.9534       219450       135405 
43900000    1.0458266  -0.29699217      1728000    3650.7613       219500       135437 
43910000     1.044847  -0.29852477      1728000    3651.6134       219550       135465 
43920000    1.0096764  -0.31180215      1728000     3652.447       219600       135503 
43930000    1.0244385  -0.33965637      1728000    3653.2514       219650       135528 
43940000   0.94569476  -0.33827903      1728000    3654.0754       219700       135557 
43950000   0.97939609  -0.34940118      1728000    3654.9014       219750       135590 
43960000   0.96961008  -0.35405867      1728000    3655.7094       219800       135620 
43970000    1.0233335  -0.33029954      1728000    3656.5254       219850       135650 
43980000    1.0295463  -0.34378561      1728000    3657.3881       219900       135679 
43990000    1.0072602  -0.34728804      1728000    3658.2572       219950       135714 
44000000   0.94687004  -0.34178854      1728000    3659.1043       220000       135743 
44010000    1.0345834   -0.3612271      1728000    3659.9275       220050       135777 
44020000   0.94692232  -0.35327642      1728000    3660.7377       220100       135801 
44030000    1.0144861  -0.33759938      1728000    3661.5684       220150       135830 
44040000   0.95971213  -0.33079076      1728000    3662.4103       220200       135857 
44050000   0.98518934   -0.3309554      1728000    3663.2334       220250       135889 
44060000    1.0096988  -0.33060539      1728000    3664.0624       220300       135926 
44070000   0.95806028  -0.34108025      1728000    3664.8924       220350       135955 
44080000   0.94118505  -0.35012999      1728000    3665.7114       220400       135982 
44090000   0.98689471  -0.32608715      1728000    3666.5454       220450       136021 
44100000    1.0024569  -0.32201632      1728000    3667.3874       220500       136058 
44110000    1.0499409  -0.33711139      1728000    3668.2263       220550       136087 
44120000   0.99249008  -0.31542974      1728000    3669.0744       220600       136119 
44130000   0.98875098  -0.34514556      1728000    3669.8942       220650       136149 
44140000    1.0460885  -0.33381668      1728000    3670.7472       220700       136186 
44150000    1.0279007  -0.34878537      1728000    3671.5862       220750       136215 
44160000    1.0161114  -0.34467013      1728000    3672.4169       220800       136245 
44170000   0.98603602  -0.35263482      1728000    3673.2441       220850       136279 
44180000    0.9891101  -0.32963015      1728000    3674.0642       220900       136310 
44190000   0.96654716  -0.33626449      1728000    3674.8846       220950       136338 
44200000     1.041626  -0.33727353      1728000    3675.7214       221000       136364 
44210000    1.0356412  -0.33610862      1728000    3676.5554       221050       136399 
44220000   0.98314848  -0.35505697      1728000    3677.3961       221100       136434 
44230000   0.99284448   -0.3468956      1728000    3678.2352       221150       136464 
44240000    1.0302861  -0.34286216      1728000    3679.0763       221200       136490 
44250000   0.98074864  -0.34203653      1728000    3679.8973       221250       136525 
44260000   0.99112657  -0.36369756      1728000    3680.7253       221300       136554 
44270000   0.97761929  -0.35756684      1728000    3681.5673       221350       136584 
44280000    1.0254097  -0.35825221      1728000    3682.4093       221400       136612 
44290000    1.0580044  -0.36329695      1728000    3683.2342       221450       136645 
44300000    1.0436508  -0.33907175      1728000    3684.0751       221500       136675 
44310000      1.02913  -0.35565977      1728000    3684.9071       221550       136706 
44320000    0.9978673  -0.36003795      1728000    3685.7343       221600       136739 
44330000    1.0023852   -0.3507671      1728000     3686.569       221650       136775 
44340000   0.99965607  -0.39066715      1728000    3687.3831       221700       136806 
44350000    0.9779741  -0.37590405      1728000    3688.2143       221750       136833 
44360000    0.9975459   -0.3999233      1728000    3689.0514       221800       136861 
44370000   0.98956477  -0.39609159      1728000    3689.8806       221850       136891 
44380000    1.0182288  -0.39498431      1728000    3690.7103       221900       136922 
44390000    1.0018827  -0.37745738      1728000    3691.5459       221950       136951 
44400000    1.0239022  -0.38646267      1728000    3692.3973       222000       136978 
44410000   0.97971565  -0.38980196      1728000    3693.2387       222050       137004 
44420000   0.98697716  -0.37614927      1728000    3694.0945       222100       137032 
44430000   0.90081222   -0.4005876      1728000    3694.9302       222150       137061 
44440000    1.0106585  -0.38475676      1728000    3695.7672       222200       137085 
44450000    1.0145353  -0.38042764      1728000    3696.5954       222250       137110 
44460000   0.95074559  -0.37396093      1728000    3697.4613       222300       137141 
44470000    1.0224786   -0.3666816      1728000    3698.2933       222350       137172 
44480000   0.97510905  -0.36780469      1728000    3699.1243       222400       137203 
44490000    1.0233014  -0.38953516      1728000    3699.9483       222450       137225 
44500000   0.96562087  -0.39598936      1728000    3700.7873       222500       137254 
44510000   0.95089988  -0.39581809      1728000    3701.6218       222550       137277 
44520000    1.0310704  -0.42337956      1728000    3702.4776       222600       137301 
44530000    1.0433057  -0.40724405      1728000    3703.3039       222650       137325 
44540000   0.93368274  -0.40981736      1728000    3704.1531       222700       137349 
44550000   0.95908155  -0.41363592      1728000    3704.9962       222750       137381 
44560000   0.97892626   -0.4067784      1728000    3705.8353       222800       137414 
44570000   0.94844648  -0.37716133      1728000    3706.6945       222850       137441 
44580000   0.96916476  -0.40183924      1728000    3707.6305       222900       137471 
44590000   0.94956442  -0.39782335      1728000    3708.4647       222950       137498 
44600000    1.0789024  -0.38054774      1728000    3709.3103       223000       137521 
44610000   0.95318352    -0.391984      1728000    3710.1223       223050       137556 
44620000    1.0329154  -0.38107472      1728000    3710.9637       223100       137586 
44630000     1.046631  -0.38291763      1728000    3711.7919       223150       137616 
44640000    1.0536355  -0.36893511      1728000     3712.619       223200       137644 
44650000   0.97026068  -0.38997984      1728000    3713.4342       223250       137673 
44660000   0.96292889  -0.37500448      1728000    3714.2564       223300       137701 
44670000   0.98797283  -0.40354227      1728000    3715.1914       223350       137735 
44680000   0.97480754  -0.35887261      1728000    3716.1214       223400       137765 
44690000    1.0223834  -0.37334735      1728000    3716.9496       223450       137789 
44700000   0.97890141  -0.35109325      1728000    3717.7987       223500       137819 
44710000    1.0292247  -0.35681697      1728000    3718.6538       223550       137850 
44720000    1.0624763  -0.36770603      1728000     3719.469       223600       137879 
44730000    1.0524897  -0.38461937      1728000    3720.3451       223650       137908 
44740000    1.0908133    -0.365235      1728000    3721.2002       223700       137940 
44750000    1.0058022  -0.37913071      1728000    3722.0504       223750       137969 
44760000    1.0036236  -0.36282696      1728000    3722.9105       223800       137999 
44770000    1.0263075  -0.33688146      1728000    3723.7356       223850       138032 
44780000   0.98115599  -0.35458364      1728000    3724.5582       223900       138060 
44790000    1.0205791   -0.3525138      1728000    3725.3885       223950       138088 
44800000   0.96194722  -0.34597055      1728000    3726.2446       224000       138113 
44810000    1.0478966  -0.33063146      1728000    3727.0757       224050       138142 
44820000    1.0305399  -0.34130696      1728000    3727.9229       224100       138166 
44830000    1.0143429  -0.32682587      1728000     3728.758       224150       138199 
44840000   0.97064876  -0.34513027      1728000    3729.5991       224200       138230 
44850000   0.98066064  -0.34703151      1728000    3730.4241       224250       138265 
44860000   0.94929696  -0.34620971      1728000    3731.2667       224300       138291 
44870000   0.95832732  -0.32812547      1728000    3732.1039       224350       138327 
44880000   0.98974957  -0.33930312      1728000     3732.941       224400       138363 
44890000    1.0251249   -0.3260458      1728000    3733.7751       224450       138393 
44900000   0.97848586  -0.31290642      1728000    3734.6273       224500       138420 
44910000   0.99514336  -0.30724749      1728000    3735.4614       224550       138453 
44920000   0.98649204  -0.30859271      1728000    3736.2996       224600       138483 
44930000    1.0342712  -0.32685388      1728000    3737.1327       224650       138521 
44940000   0.94289148  -0.33746151      1728000    3737.9511       224700       138556 
44950000   0.96373679  -0.31048297      1728000    3738.7774       224750       138584 
44960000    1.0041811  -0.32653328      1728000    3739.5934       224800       138615 
44970000   0.95315889  -0.31738229      1728000    3740.4245       224850       138647 
44980000   0.97193462  -0.34031915      1728000     3741.252       224900       138678 
44990000   0.98924103  -0.36009157      1728000    3742.0821       224950       138700 
45000000    1.0849238  -0.32755763      1728000    3742.9822       225000       138731 
45010000    1.0211516  -0.33457092      1728000    3743.8103       225050       138767 
45020000   0.97204715  -0.34469062      1728000    3744.6272       225100       138796 
45030000    0.9701192   -0.3303697      1728000    3745.4424       225150       138827 
45040000   0.98360905  -0.36365098      1728000    3746.2706       225200       138861 
45050000   0.95936342  -0.33773371      1728000    3747.0987       225250       138887 
45060000    1.0635225  -0.34833596      1728000    3747.9299       225300       138916 
45070000    1.0363334  -0.36928612      1728000    3748.7611       225350       138942 
45080000    1.0354365  -0.37324388      1728000    3749.5812       225400       138974 
45090000    1.0291728  -0.37754164      1728000    3750.4064       225450       139003 
45100000   0.98585828  -0.38232396      1728000    3751.2515       225500       139029 
45110000   0.97077372  -0.39277537      1728000    3752.0847       225550       139057 
45120000    1.0038889  -0.38139389      1728000    3752.9108       225600       139085 
45130000    1.0662323  -0.36083738      1728000     3753.733       225650       139110 
45140000    1.0159949  -0.35543012      1728000    3754.5641       225700       139139 
45150000    1.0016678  -0.37884876      1728000    3755.4083       225750       139172 
45160000     1.024745  -0.37556588      1728000    3756.2244       225800       139202 
45170000   0.99345629  -0.36980897      1728000    3757.0576       225850       139232 
45180000    1.0089536  -0.37793806      1728000    3757.9037       225900       139262 
45190000   0.98585958  -0.36500243      1728000    3758.7259       225950       139295 
45200000   0.96754351  -0.37077204      1728000    3759.5709       226000       139325 
45210000    1.0538924  -0.36710613      1728000    3760.3922       226050       139351 
45220000   0.99444022  -0.35486664      1728000    3761.2033       226100       139386 
45230000    1.0283334  -0.37059953      1728000    3762.0282       226150       139418 
45240000   0.99673771  -0.37097233      1728000    3762.8602       226200       139448 
45250000    1.0070143  -0.39815724      1728000    3763.6823       226250       139476 
45260000   0.96206901  -0.36600355      1728000     3764.515       226300       139500 
45270000   0.98915554  -0.35201174      1728000      3765.34       226350       139532 
45280000   0.93607638  -0.34833884      1728000    3766.1611       226400       139558 
45290000    1.0289373  -0.34901838      1728000    3766.9932       226450       139588 
45300000    1.0668925  -0.36136626      1728000    3767.8363       226500       139619 
45310000    1.0257185  -0.35995723      1728000    3768.6745       226550       139649 
45320000    1.0097313  -0.36159309      1728000    3769.4994       226600       139682 
45330000   0.99491294  -0.35243065      1728000    3770.3354       226650       139710 
45340000   0.98800838  -0.34826192      1728000    3771.1824       226700       139737 
45350000    1.0209434   -0.3734664      1728000    3772.0216       226750       139767 
45360000    1.0353233  -0.37527689      1728000    3772.8699       226800       139797 
45370000   0.98339489  -0.39036315      1728000     3773.697       226850       139824 
45380000   0.92058639  -0.37990438      1728000    3774.5551       226900       139853 
45390000    1.0630128  -0.37823737      1728000    3775.3803       226950       139882 
45400000   0.96093841  -0.37449558      1728000    3776.2444       227000       139903 
45410000    0.9661657  -0.38437141      1728000    3777.1185       227050       139932 
45420000    1.0885339   -0.3938251      1728000    3777.9565       227100       139960 
45430000   0.94834422  -0.39288122      1728000    3778.7917       227150       139984 
45440000   0.98950417  -0.39840052      1728000    3779.6777       227200       140009 
45450000    1.0278869   -0.4005078      1728000    3780.5408       227250       140042 
45460000    1.0684444  -0.40335822      1728000    3781.4039       227300       140070 
45470000   0.99595009  -0.35362787      1728000    3782.2944       227350       140107 
45480000   0.98814849  -0.35440376      1728000    3783.1635       227400       140133 
45490000   0.98834092  -0.34990211      1728000    3784.0167       227450       140167 
45500000    0.9731692  -0.34696564      1728000    3784.8665       227500       140207 
45510000   0.95120179  -0.35639403      1728000    3785.6913       227550       140236 
45520000   0.99888347  -0.35338269      1728000    3786.5233       227600       140261 
45530000   0.96095207  -0.36163953      1728000    3787.3784       227650       140292 
45540000   0.95452922  -0.38248032      1728000    3788.2475       227700       140321 
45550000    1.0126414  -0.39426278      1728000    3789.2055       227750       140351 
45560000   0.99472479  -0.36560221      1728000    3790.0536       227800       140377 
45570000    1.0396953  -0.36429176      1728000    3791.0017       227850       140407 
45580000    1.0752536  -0.37181084      1728000    3791.8878       227900       140430 
45590000    1.0149318  -0.36782348      1728000    3792.7079       227950       140460 
45600000   0.99919377  -0.35168996      1728000    3793.5392       228000       140485 
45610000    1.0110105  -0.34718876      1728000    3794.3754       228050       140513 
45620000    1.0087919  -0.34908342      1728000    3795.1941       228100       140540 
45630000    1.0275584  -0.35989125      1728000    3796.0358       228150       140571 
45640000     1.027863  -0.34742545      1728000    3796.8652       228200       140602 
45650000    1.0015912  -0.34402699      1728000    3797.7032       228250       140638 
45660000   0.97144174  -0.38853011      1728000    3798.5649       228300       140672 
45670000   0.96778559  -0.36420803      1728000     3799.494       228350       140703 
45680000    0.9816836  -0.37634226      1728000     3800.343       228400       140732 
45690000    0.9236735  -0.34845534      1728000    3801.2363       228450       140765 
45700000   0.98757683  -0.33804053      1728000    3802.0795       228500       140799 
45710000      1.09795  -0.34184784      1728000    3802.9131       228550       140829 
45720000    1.0155789   -0.3737545      1728000    3803.7492       228600       140862 
45730000    1.0158747  -0.34992741      1728000    3804.5812       228650       140893 
45740000   0.97651239  -0.38294549      1728000    3805.5965       228700       140924 
45750000    1.0012659  -0.38682627      1728000    3806.5076       228750       140955 
45760000    1.0054302  -0.39724375      1728000    3807.5835       228800       140990 
45770000    1.0185031  -0.37794187      1728000    3808.5197       228850       141024 
45780000    1.0046767  -0.36560494      1728000    3809.4527       228900       141055 
45790000   0.96992373  -0.37272474      1728000    3810.4077       228950       141087 
45800000    0.9617104   -0.3918203      1728000    3811.3827       229000       141122 
45810000   0.98035988   -0.3876526      1728000    3812.3317       229050       141148 
45820000    1.0047473  -0.38923611      1728000    3813.2491       229100       141179 
45830000   0.99665312  -0.39933738      1728000    3814.1352       229150       141207 
45840000    0.9507853  -0.37243323      1728000    3814.9983       229200       141236 
45850000    1.0017309  -0.35807237      1728000    3815.9294       229250       141265 
45860000   0.94535045  -0.37509124      1728000    3816.9164       229300       141293 
45870000    1.0312954  -0.36551968      1728000    3817.8294       229350       141323 
45880000   0.98374423   -0.3650039      1728000    3818.7125       229400       141350 
45890000   0.98009417   -0.3573499      1728000    3819.6296       229450       141383 
45900000   0.95911588  -0.36588158      1728000    3820.5656       229500       141413 
45910000   0.99814265  -0.34033309      1728000    3821.4607       229550       141452 
45920000    1.0414048  -0.33774113      1728000    3822.3248       229600       141484 
45930000   0.93086403  -0.34135297      1728000    3823.2609       229650       141510 
45940000    1.0353757  -0.33143683      1728000     3824.165       229700       141541 
45950000   0.99592243  -0.31222748      1728000     3825.065       229750       141573 
45960000   0.99188154  -0.29876272      1728000    3825.9841       229800       141608 
45970000    1.0497702  -0.31851126      1728000    3826.8882       229850       141639 
45980000     1.023307  -0.31562528      1728000    3828.5754       229900       141674 
45990000    1.0749522  -0.32718728      1728000    3829.9419       229950       141710 
46000000   0.96837029  -0.32223112      1728000    3831.2226       230000       141741 
46010000   0.97305988  -0.34252551      1728000    3832.5515       230050       141769 
46020000   0.94600063  -0.34126945      1728000    3833.7957       230100       141802 
46030000   0.96727052  -0.31027643      1728000    3835.2397       230150       141834 
46040000   0.94976713   -0.3190094      1728000    3836.4455       230200       141859 
46050000    1.0849355  -0.29736555      1728000    3837.6053       230250       141886 
46060000   0.99116693  -0.32097299      1728000    3838.6832       230300       141921 
46070000   0.97663838  -0.33880994      1728000     3839.805       230350       141956 
46080000   0.98060745  -0.32147318      1728000    3840.9059       230400       141987 
46090000   0.95987069  -0.32375135      1728000    3841.9169       230450       142022 
46100000    1.0465219   -0.3562765      1728000    3842.8989       230500       142051 
46110000   0.96794685  -0.32669627      1728000    3843.8679       230550       142080 
46120000   0.97026744  -0.34175965      1728000     3844.736       230600       142111 
46130000    1.0353119  -0.33329454      1728000    3845.5951       230650       142146 
46140000    1.0316708   -0.3591117      1728000    3846.4882       230700       142179 
46150000   0.98084121  -0.36346495      1728000    3847.3603       230750       142214 
46160000   0.99135749  -0.36612129      1728000    3848.2504       230800       142246 
46170000    1.0207472  -0.35167226      1728000    3849.1425       230850       142277 
46180000    1.0757666  -0.37200555      1728000    3850.0915       230900       142306 
46190000    1.0594692  -0.38284828      1728000    3851.0965       230950       142338 
46200000    1.0252066  -0.38464505      1728000    3852.1744       231000       142367 
46210000    1.0087955  -0.37354312      1728000    3853.0994       231050       142395 
46220000   0.93861651  -0.37087376      1728000    3853.9985       231100       142428 
46230000    1.0236603    -0.374818      1728000    3854.8946       231150       142460 
46240000    1.0343573  -0.39142562      1728000    3855.8256       231200       142486 
46250000   0.93777374  -0.40445897      1728000    3856.7347       231250       142518 
46260000    1.0330349  -0.37247025      1728000    3857.6787       231300       142547 
46270000    1.0671906  -0.38478396      1728000    3858.5808       231350       142575 
46280000    1.0201696  -0.37416838      1728000    3859.4819       231400       142603 
46290000   0.99823926  -0.38718298      1728000    3860.7726       231450       142632 
46300000   0.98905603  -0.38297093      1728000    3861.8583       231500       142661 
46310000   0.99242791  -0.38495859      1728000    3862.8463       231550       142691 
46320000   0.98751693  -0.37528967      1728000    3863.7694       231600       142716 
46330000      1.00595  -0.37564157      1728000    3864.7364       231650       142745 
46340000    1.0021497  -0.36828002      1728000    3865.6774       231700       142778 
46350000   0.94606819  -0.36632907      1728000    3866.6085       231750       142807 
46360000     1.083891  -0.33138205      1728000    3867.4696       231800       142840 
46370000    1.0461776  -0.37023205      1728000    3868.3177       231850       142875 
46380000    1.0745433  -0.35570639      1728000    3869.1778       231900       142901 
46390000     1.005157  -0.36836881      1728000     3870.021       231950       142934 
46400000    1.0200791  -0.35921856      1728000    3870.8731       232000       142970 
46410000   0.94146681  -0.36338572      1728000    3871.7212       232050       143002 
46420000   0.96849082  -0.34648189      1728000    3872.5803       232100       143032 
46430000    1.0097554  -0.38290194      1728000    3873.4515       232150       143064 
46440000    1.0805502  -0.36951685      1728000    3874.3286       232200       143100 
46450000   0.98680058  -0.36220617      1728000    3875.2007       232250       143129 
46460000    1.0258545   -0.3567857      1728000    3876.0618       232300       143163 
46470000   0.98178652  -0.34225851      1728000    3876.9419       232350       143195 
46480000    1.0123548  -0.34467071      1728000     3877.814       232400       143227 
46490000    1.0469596  -0.32361733      1728000    3878.7111       232450       143259 
46500000    1.0005905  -0.32760579      1728000    3879.5902       232500       143293 
46510000   0.93699452  -0.31032158      1728000    3880.4753       232550       143321 
46520000    1.0530979  -0.31415608      1728000    3881.3963       232600       143354 
46530000   0.97637084  -0.29881295      1728000    3882.2754       232650       143391 
46540000    1.0466206  -0.32650951      1728000    3883.1885       232700       143426 
46550000   0.97521627  -0.31079764      1728000    3884.4941       232750       143449 
46560000    1.0023329  -0.27562013      1728000    3885.4382       232800       143487 
46570000    1.0447458  -0.33842939      1728000    3886.3423       232850       143524 
46580000    1.0132894  -0.36874451      1728000    3887.1814       232900       143555 
46590000   0.98084656   -0.3543882      1728000    3888.0055       232950       143585 
46600000     1.030863  -0.34872886      1728000     3888.852       233000       143613 
46610000     1.029393  -0.32382393      1728000      3889.69       233050       143643 
46620000   0.96953792  -0.34695736      1728000    3890.5149       233100       143670 
46630000   0.99071883  -0.33043055      1728000     3891.344       233150       143704 
46640000    1.0195891  -0.33997617      1728000     3892.168       233200       143732 
46650000   0.96182241  -0.34966336      1728000     3893.045       233250       143762 
46660000   0.98838307  -0.33291951      1728000     3893.904       233300       143796 
46670000    1.0220471  -0.36045331      1728000     3894.766       233350       143823 
46680000   0.98481825  -0.34586705      1728000     3895.612       233400       143856 
46690000    1.0529249  -0.34136197      1728000     3896.462       233450       143888 
46700000    1.0167347  -0.36375646      1728000     3897.303       233500       143913 
46710000    1.0189803  -0.35840029      1728000     3898.127       233550       143945 
46720000   0.98029969   -0.3494201      1728000    3898.9509       233600       143979 
46730000    1.0406274  -0.37523176      1728000    3899.7782       233650       144008 
46740000   0.99317544  -0.36208194      1728000    3900.6041       233700       144039 
46750000   0.94119438   -0.3800754      1728000    3901.4628       233750       144067 
46760000    1.0001893  -0.38715023      1728000    3902.2927       233800       144100 
46770000   0.99986391  -0.38409198      1728000    3903.1222       233850       144135 
46780000    1.0348113  -0.38758483      1728000    3903.9593       233900       144163 
46790000    1.0148865  -0.40861516      1728000     3904.805       233950       144191 
46800000   0.96983264    -0.385836      1728000    3905.6474       234000       144224 
46810000   0.99346712   -0.3857292      1728000    3906.4736       234050       144256 
46820000    1.0424493  -0.36916202      1728000    3907.3177       234100       144281 
46830000    1.0101936  -0.40433755      1728000    3908.1574       234150       144309 
46840000   0.98759698  -0.40047851      1728000    3908.9898       234200       144341 
46850000   0.98976998   -0.3633279      1728000    3909.8259       234250       144372 
46860000   0.99687405  -0.37914735      1728000    3910.6651       234300       144407 
46870000    1.0108751  -0.38552182      1728000    3911.4822       234350       144440 
46880000   0.96902186  -0.37641542      1728000    3912.2935       234400       144475 
46890000     1.006163  -0.38781791      1728000    3913.1439       234450       144498 
46900000   0.98733369  -0.39290696      1728000    3913.9859       234500       144531 
46910000     1.019576  -0.39391157      1728000     3914.808       234550       144562 
46920000   0.98883013  -0.38503763      1728000    3915.6389       234600       144583 
46930000    1.0069664  -0.37562164      1728000     3916.456       234650       144615 
46940000   0.98956815  -0.39975239      1728000     3917.269       234700       144642 
46950000    1.0523294  -0.37878798      1728000    3918.0748       234750       144676 
46960000    1.0340463  -0.38788646      1728000     3918.901       234800       144708 
46970000   0.99096221  -0.35423726      1728000    3919.7329       234850       144740 
46980000    1.0526231  -0.33753321      1728000    3920.5358       234900       144775 
46990000    1.0363331  -0.35505746      1728000     3921.352       234950       144804 
47000000   0.99404536  -0.35846747      1728000    3922.2058       235000       144831 
47010000    1.0192624   -0.3653731      1728000    3923.0368       235050       144859 
47020000   0.98798144  -0.36727317      1728000    3923.8739       235100       144889 
47030000    1.0676286  -0.39729939      1728000    3924.7102       235150       144928 
47040000   0.99704256  -0.37417334      1728000     3925.545       235200       144958 
47050000   0.98536729  -0.36528181      1728000     3926.382       235250       144994 
47060000   0.98607822  -0.37257458      1728000    3927.2267       235300       145023 
47070000    1.0077426   -0.3723433      1728000    3928.0599       235350       145054 
47080000   0.98548132    -0.396452      1728000     3928.898       235400       145087 
47090000   0.99291415  -0.36335881      1728000    3929.7299       235450       145123 
47100000    1.0361592  -0.36573543      1728000    3930.5669       235500       145149 
47110000   0.96528316  -0.35700638      1728000     3931.404       235550       145176 
47120000   0.98238895  -0.37673487      1728000    3932.2438       235600       145214 
47130000    1.0393872   -0.3572018      1728000    3933.0638       235650       145245 
47140000   0.92405154  -0.34795049      1728000     3933.912       235700       145276 
47150000    1.0091162  -0.35212338      1728000     3934.754       235750       145308 
47160000   0.96476407  -0.33821309      1728000    3935.5909       235800       145344 
47170000   0.91442648  -0.35860011      1728000    3936.4958       235850       145373 
47180000    1.0398726  -0.34912824      1728000     3937.327       235900       145402 
47190000   0.98176827  -0.34786821      1728000    3938.1489       235950       145436 
47200000    1.0431013  -0.33089213      1728000    3938.9819       236000       145463 
47210000   0.89612186  -0.35376519      1728000     3939.801       236050       145493 
47220000    1.0093089  -0.34938687      1728000    3940.6318       236100       145529 
47230000   0.96398933  -0.33533027      1728000     3941.446       236150       145554 
47240000    1.0063161   -0.3440925      1728000    3942.2819       236200       145581 
47250000    1.0481316  -0.33329102      1728000    3943.1099       236250       145616 
47260000   0.97861983  -0.33138589      1728000    3943.9297       236300       145649 
47270000   0.98442628  -0.33797056      1728000    3944.7518       236350       145684 
47280000   0.96261099  -0.31450611      1728000     3945.565       236400       145719 
47290000    1.0130586  -0.32083792      1728000    3946.3959       236450       145751 
47300000   0.96780577  -0.32776824      1728000    3947.2258       236500       145776 
47310000   0.97446538  -0.32219514      1728000     3948.044       236550       145804 
47320000    1.0382202   -0.3175061      1728000    3948.8689       236600       145831 
47330000    1.0282797   -0.3285974      1728000    3949.7091       236650       145860 
47340000   0.98518764  -0.34286311      1728000    3950.5382       236700       145892 
47350000    1.0109158  -0.35246273      1728000    3951.3753       236750       145918 
47360000   0.99075141  -0.33660104      1728000    3952.2421       236800       145954 
47370000   0.99059576  -0.32961577      1728000    3953.0842       236850       145985 
47380000    1.0867513  -0.33963945      1728000    3953.9134       236900       146017 
47390000    1.0228062  -0.33875371      1728000    3954.7569       236950       146051 
47400000   0.99653716  -0.33985062      1728000    3955.6009       237000       146083 
47410000     1.028057  -0.38505723      1728000    3956.4429       237050       146115 
47420000    0.9889681   -0.3648086      1728000     3957.269       237100       146143 
47430000    1.0215997  -0.35054283      1728000    3958.0999       237150       146176 
47440000   0.99226847  -0.38406113      1728000    3958.9189       237200       146204 
47450000   0.99628673  -0.34517827      1728000    3959.7279       237250       146235 
47460000     1.005394  -0.35301336      1728000    3960.5479       237300       146261 
47470000    1.0077073  -0.33242396      1728000    3961.3748       237350       146298 
47480000    1.0567574  -0.34169301      1728000    3962.2267       237400       146331 
47490000    1.0044981  -0.35680339      1728000    3963.0388       237450       146360 
47500000   0.98908769  -0.33815488      1728000    3963.8539       237500       146393 
47510000   0.95931446  -0.34442973      1728000    3964.6579       237550       146424 
47520000    1.0025185  -0.35317381      1728000    3965.4857       237600       146446 
47530000    1.0464564  -0.34427409      1728000    3966.3058       237650       146474 
47540000    1.0050849  -0.35021559      1728000    3967.1154       237700       146509 
47550000   0.97471304  -0.32030849      1728000     3967.939       237750       146546 
47560000    1.0100835  -0.31592852      1728000    3968.7531       237800       146582 
47570000     1.004559   -0.3346325      1728000    3969.5553       237850       146615 
47580000    1.0117781  -0.32246188      1728000    3970.3807       237900       146636 
47590000    1.0026773  -0.33835184      1728000    3971.1944       237950       146669 
47600000    0.9977383  -0.32257392      1728000    3972.0377       238000       146702 
47610000   0.99181669  -0.34111878      1728000    3972.8739       238050       146729 
47620000    1.0615461  -0.36364497      1728000    3973.7077       238100       146767 
47630000   0.96630049  -0.36171584      1728000    3974.5408       238150       146796 
47640000    1.0308628  -0.37612773      1728000    3975.3623       238200       146823 
47650000   0.99638521  -0.37678107      1728000    3976.1886       238250       146857 
47660000    1.0591806  -0.35793676      1728000    3977.0617       238300       146884 
47670000    1.0672759  -0.36237208      1728000     3977.897       238350       146913 
47680000    1.0009081  -0.38296918      1728000    3978.7227       238400       146939 
47690000     1.065005  -0.39293951      1728000    3979.5499       238450       146970 
47700000   0.94531232  -0.36491446      1728000    3980.3899       238500       146995 
47710000   0.96759927  -0.38036079      1728000    3981.2139       238550       147026 
47720000   0.98598733   -0.3646692      1728000    3982.2069       238600       147059 
47730000   0.99598476  -0.38139364      1728000    3983.0348       238650       147093 
47740000   0.99627049  -0.35120725      1728000    3983.8659       238700       147124 
47750000    1.0803842  -0.33958701      1728000    3984.6837       238750       147155 
47760000   0.99974497  -0.36158656      1728000    3985.5508       238800       147190 
47770000    1.0272271  -0.32296674      1728000    3986.4039       238850       147221 
47780000   0.95096904  -0.35883305      1728000      3987.25       238900       147254 
47790000    1.0279518  -0.33947629      1728000    3988.0863       238950       147276 
47800000    1.0143629  -0.34349074      1728000    3988.9234       239000       147297 
47810000   0.99924281  -0.35239994      1728000    3989.7726       239050       147326 
47820000    1.0197613  -0.33820233      1728000    3990.6089       239100       147360 
47830000    1.0010958  -0.34164781      1728000    3991.4559       239150       147387 
47840000   0.95535945   -0.3258774      1728000    3992.3117       239200       147428 
47850000    1.0210125  -0.34946458      1728000    3993.1614       239250       147459 
47860000    1.0058118  -0.33909937      1728000    3994.0315       239300       147490 
47870000   0.95210042  -0.33234951      1728000    3994.8696       239350       147513 
47880000    1.0203859  -0.35790017      1728000    3995.7118       239400       147546 
47890000   0.98092647  -0.34564013      1728000    3996.5449       239450       147578 
47900000     1.063112  -0.35871772      1728000    3997.4489       239500       147617 
47910000    1.0354708  -0.35474217      1728000     3998.371       239550       147644 
47920000    1.0165689  -0.33985633      1728000    3999.2691       239600       147676 
47930000    1.0888928  -0.34148778      1728000    4000.1382       239650       147706 
47940000    1.0696354  -0.36521293      1728000    4000.9898       239700       147734 
47950000   0.96970464  -0.34925972      1728000    4001.8261       239750       147769 
47960000   0.95646416    -0.334581      1728000    4002.6692       239800       147803 
47970000   0.97798979  -0.33457149      1728000    4003.5203       239850       147837 
47980000   0.94121958  -0.34988895      1728000    4004.4184       239900       147872 
47990000    1.0559321  -0.32453994      1728000    4005.3642       239950       147909 
48000000    1.0109119   -0.3324709      1728000    4006.2298       240000       147941 
48010000    1.0133772  -0.34069406      1728000    4007.0496       240050       147973 
48020000   0.96768966  -0.33472819      1728000    4007.8807       240100       148005 
48030000   0.96856722  -0.31412265      1728000    4008.7099       240150       148039 
48040000    1.0221622  -0.32545257      1728000    4009.5398       240200       148071 
48050000    1.0286436  -0.31701119      1728000    4010.4117       240250       148095 
48060000   0.98472045  -0.30329556      1728000    4011.3709       240300       148126 
48070000    1.0049154   -0.3038076      1728000    4012.2435       240350       148160 
48080000   0.97819954  -0.30101672      1728000    4013.1536       240400       148192 
48090000    1.0461927   -0.3159734      1728000    4014.0367       240450       148228 
48100000    1.0177389  -0.32706841      1728000    4014.9607       240500       148263 
48110000   0.95658533  -0.35046539      1728000    4015.8508       240550       148295 
48120000   0.99296168  -0.31972973      1728000    4016.7489       240600       148327 
48130000    1.0492681  -0.32576258      1728000     4017.618       240650       148362 
48140000    1.0000756  -0.31574896      1728000    4018.4745       240700       148396 
48150000    1.0066443  -0.32681085      1728000    4019.2906       240750       148433 
48160000   0.99651392  -0.35105821      1728000    4020.1468       240800       148467 
48170000    1.0394546  -0.33824919      1728000    4020.9638       240850       148504 
48180000    1.0037789  -0.32778793      1728000    4021.8363       240900       148535 
48190000   0.95519525  -0.32977623      1728000    4022.6854       240950       148569 
48200000   0.97433672  -0.31137517      1728000    4023.5245       241000       148599 
48210000    1.0107785  -0.33439024      1728000    4024.3634       241050       148633 
48220000    1.1004267  -0.35917594      1728000    4025.2494       241100       148667 
48230000   0.98116472   -0.3455161      1728000    4026.0806       241150       148697 
48240000   0.96758039  -0.34066593      1728000    4026.9107       241200       148727 
48250000   0.98281264  -0.34674689      1728000    4027.7539       241250       148758 
48260000    0.9937437   -0.3642046      1728000     4028.591       241300       148785 
48270000    1.0027693  -0.36646582      1728000    4029.4192       241350       148815 
48280000   0.96961508  -0.36674531      1728000    4030.2453       241400       148846 
48290000   0.97144001  -0.35688798      1728000    4031.1254       241450       148879 
48300000    1.0923902   -0.3740412      1728000    4032.0255       241500       148911 
48310000    1.0401333  -0.36469042      1728000    4032.9336       241550       148940 
48320000   0.99534811  -0.33528405      1728000    4033.7767       241600       148976 
48330000   0.95048946  -0.34312102      1728000    4034.6139       241650       149010 
48340000   0.99620229  -0.36045136      1728000     4035.476       241700       149036 
48350000   0.98442708  -0.34111169      1728000    4036.3321       241750       149068 
48360000   0.95810878  -0.35047119      1728000    4037.2082       241800       149099 
48370000   0.96609042  -0.33694347      1728000    4038.0643       241850       149128 
48380000    1.0010806  -0.34243699      1728000    4038.9237       241900       149160 
48390000   0.94222312  -0.31857882      1728000    4039.7878       241950       149199 
48400000    1.0107292  -0.35886982      1728000    4040.6198       242000       149233 
48410000   0.97933998  -0.34090568      1728000    4041.4538       242050       149267 
48420000   0.99211019  -0.33484582      1728000    4042.2998       242100       149296 
48430000    1.0673681  -0.33070951      1728000    4043.1678       242150       149325 
48440000    1.0108244    -0.331198      1728000    4044.0085       242200       149359 
48450000    1.0662062  -0.33468384      1728000    4044.8489       242250       149391 
48460000    1.0558593   -0.3354957      1728000     4045.682       242300       149425 
48470000    1.0196408   -0.2952383      1728000    4046.5231       242350       149462 
48480000    1.0566013  -0.29170727      1728000    4047.3883       242400       149495 
48490000    1.0002527  -0.31193443      1728000    4048.2274       242450       149529 
48500000    1.0127464   -0.3127183      1728000    4049.1189       242500       149558 
48510000   0.98827609   -0.3410763      1728000    4049.9611       242550       149590 
48520000    1.0245678  -0.29598021      1728000    4050.8022       242600       149617 
48530000    1.0523933  -0.33717019      1728000    4051.6404       242650       149653 
48540000    1.0447711  -0.33165466      1728000    4052.4677       242700       149686 
48550000   0.96543431  -0.33961948      1728000    4053.3238       242750       149712 
48560000    0.9812207    -0.334305      1728000     4054.157       242800       149743 
48570000    1.0472647  -0.35189674      1728000    4054.9881       242850       149776 
48580000   0.94435362  -0.34093503      1728000    4055.8272       242900       149807 
48590000    1.0231239  -0.37224535      1728000    4056.6724       242950       149838 
48600000    1.0646266   -0.3670609      1728000    4057.5615       243000       149869 
48610000   0.98574677  -0.36328248      1728000    4058.3928       243050       149896 
48620000   0.98336998  -0.35778216      1728000    4059.2487       243100       149927 
48630000    1.0332813  -0.38246411      1728000    4060.0788       243150       149960 
48640000    1.0576872  -0.37210927      1728000    4060.9298       243200       149991 
48650000   0.98088332  -0.36449891      1728000    4061.7576       243250       150019 
48660000   0.99426769  -0.35059597      1728000    4062.6186       243300       150044 
48670000    1.0272476  -0.34253508      1728000    4063.4616       243350       150074 
48680000   0.96081409  -0.37815145      1728000    4064.3337       243400       150102 
48690000   0.97345388  -0.35037753      1728000    4065.2337       243450       150136 
48700000    1.0271947  -0.36619257      1728000    4066.1008       243500       150164 
48710000    1.0932616  -0.35752364      1728000     4066.967       243550       150196 
48720000   0.96656489  -0.35759225      1728000    4067.8116       243600       150221 
48730000   0.95130921  -0.37657749      1728000    4068.6437       243650       150249 
48740000   0.96605599  -0.35672346      1728000    4069.5948       243700       150277 
48750000   0.93850105  -0.34714908      1728000     4070.436       243750       150313 
48760000   0.97540232  -0.32734672      1728000    4071.3181       243800       150343 
48770000    1.0453471  -0.33725154      1728000    4072.1616       243850       150372 
48780000     1.007018  -0.35053499      1728000    4073.0721       243900       150410 
48790000    1.0502283  -0.36202506      1728000    4073.9292       243950       150436 
48800000   0.98557788  -0.33998191      1728000    4074.8013       244000       150468 
48810000   0.98182717  -0.33582139      1728000    4075.6445       244050       150499 
48820000   0.99999891  -0.35053582      1728000    4076.6115       244100       150533 
48830000    1.0036096  -0.35878938      1728000    4077.5046       244150       150560 
48840000   0.97101035  -0.35475615      1728000    4078.3707       244200       150584 
48850000   0.95826843  -0.32348926      1728000    4079.2157       244250       150618 
48860000   0.98503121  -0.35777711      1728000     4080.075       244300       150651 
48870000   0.94293734   -0.3451579      1728000    4080.9191       244350       150678 
48880000   0.99172747  -0.35742307      1728000    4081.7813       244400       150706 
48890000    1.0452251  -0.30243768      1728000    4082.6554       244450       150735 
48900000    1.0225549   -0.3192241      1728000    4083.4965       244500       150769 
48910000    1.0097676  -0.31592936      1728000    4084.3206       244550       150802 
48920000    1.0425359  -0.32356753      1728000    4085.1618       244600       150835 
48930000   0.90923438  -0.31684302      1728000    4086.0389       244650       150866 
48940000    1.0277386  -0.32449068      1728000    4086.9769       244700       150894 
48950000    1.0280241   -0.3098883      1728000     4087.865       244750       150925 
48960000   0.95617474  -0.32721604      1728000    4088.7201       244800       150960 
48970000    1.0984995  -0.38161818      1728000    4089.5833       244850       150994 
48980000   0.99076241    -0.372444      1728000    4090.4274       244900       151022 
48990000    1.0163976  -0.37361465      1728000    4091.3055       244950       151054 
49000000    1.0505977  -0.36143223      1728000    4092.1586       245000       151087 
49010000    0.9303757  -0.35664149      1728000    4092.9838       245050       151123 
49020000   0.99880277  -0.34665555      1728000    4093.8105       245100       151158 
49030000   0.99186731  -0.36066374      1728000    4094.6437       245150       151198 
49040000   0.99851721  -0.39115597      1728000    4095.4777       245200       151228 
49050000    0.9528602  -0.40164809      1728000    4096.3195       245250       151262 
49060000   0.97949801  -0.38440765      1728000    4097.1736       245300       151293 
49070000    1.0272987  -0.37899874      1728000    4098.0047       245350       151324 
49080000    1.0018906   -0.3541308      1728000    4098.8315       245400       151353 
49090000   0.95402872  -0.35799226      1728000    4099.6767       245450       151382 
49100000    1.0001396  -0.34852413      1728000    4100.5176       245500       151417 
49110000    1.0666312  -0.36205778      1728000    4101.3467       245550       151451 
49120000    1.0274043  -0.36543606      1728000    4102.1955       245600       151483 
49130000   0.96209717  -0.33588013      1728000    4103.0625       245650       151515 
49140000    1.0431018  -0.34662452      1728000    4103.9136       245700       151542 
49150000    1.0002366  -0.36301298      1728000    4104.7966       245750       151575 
49160000    1.0004984  -0.33381719      1728000    4105.6364       245800       151615 
49170000    1.0076769  -0.35272733      1728000    4106.5146       245850       151652 
49180000    1.0025079  -0.31857881      1728000    4107.3607       245900       151683 
49190000    0.9945828  -0.34232055      1728000    4108.2326       245950       151715 
49200000   0.98767403  -0.35165726      1728000    4109.4683       246000       151753 
49210000   0.99481561  -0.34955544      1728000    4110.3405       246050       151780 
49220000    0.9731337   -0.3255515      1728000    4111.1715       246100       151816 
49230000    1.0555368  -0.31851637      1728000    4111.9856       246150       151849 
49240000   0.96409085   -0.3389599      1728000    4112.8118       246200       151879 
49250000   0.99439992  -0.35466701      1728000    4113.6816       246250       151908 
49260000    1.0568752  -0.36500952      1728000    4114.5531       246300       151941 
49270000    1.0199881  -0.36643304      1728000    4115.3764       246350       151972 
49280000   0.99499691  -0.36321881      1728000    4116.1967       246400       152003 
49290000   0.99360387  -0.38984759      1728000    4117.0646       246450       152030 
49300000    1.0250087  -0.38797319      1728000    4117.9306       246500       152064 
49310000   0.97162323   -0.4125561      1728000    4118.7817       246550       152094 
49320000   0.99811466  -0.39165735      1728000    4119.6389       246600       152118 
49330000    1.0083313  -0.36315784      1728000    4120.4746       246650       152148 
49340000    1.0087236  -0.35201439      1728000    4121.4327       246700       152174 
49350000   0.98012904   -0.3522708      1728000    4122.3447       246750       152202 
49360000   0.94141014   -0.3677478      1728000    4123.1903       246800       152229 
49370000   0.91693361  -0.36666228      1728000    4124.0679       246850       152262 
49380000   0.96027262  -0.38804887      1728000    4124.8967       246900       152292 
49390000    1.0192431  -0.37502776      1728000    4125.7717       246950       152324 
49400000    1.0021535  -0.37898667      1728000    4126.6037       247000       152350 
49410000    1.0026077  -0.35601727      1728000    4127.4407       247050       152383 
49420000    1.0282225    -0.331267      1728000    4128.2616       247100       152417 
49430000   0.97744026  -0.34587705      1728000    4129.0707       247150       152450 
49440000   0.93366687  -0.34605725      1728000    4129.8876       247200       152486 
49450000   0.90997952  -0.33962848      1728000    4130.7136       247250       152517 
49460000    0.9646171  -0.33545208      1728000    4131.6303       247300       152545 
49470000   0.98384403  -0.31398519      1728000    4132.7152       247350       152582 
49480000    1.0672696  -0.35239399      1728000    4133.5666       247400       152617 
49490000   0.97616437  -0.33178107      1728000    4134.4805       247450       152647 
49500000   0.93189078  -0.30473616      1728000    4135.3306       247500       152682 
49510000    1.0080006  -0.30568783      1728000    4136.1703       247550       152713 
49520000    1.0542836   -0.3242393      1728000    4137.0166       247600       152745 
49530000    1.0231959  -0.33005516      1728000    4137.8632       247650       152779 
49540000    1.0337666  -0.31339102      1728000    4138.7164       247700       152810 
49550000   0.98878402  -0.31742863      1728000    4139.5755       247750       152842 
49560000   0.97296874  -0.30211676      1728000    4140.4406       247800       152872 
49570000   0.96382099   -0.3398384      1728000    4141.2687       247850       152909 
49580000    1.0079603  -0.32315566      1728000    4142.0819       247900       152941 
49590000   0.97828407  -0.30642787      1728000    4142.8999       247950       152972 
49600000    1.0002566  -0.31652588      1728000     4143.756       248000       153006 
49610000   0.96381781  -0.30947832      1728000    4144.5636       248050       153041 
49620000    1.0304558  -0.32929108      1728000    4145.3976       248100       153076 
49630000   0.92456749   -0.3265807      1728000    4146.2345       248150       153107 
49640000    1.0105213  -0.35529991      1728000    4147.1355       248200       153141 
49650000    1.0519737  -0.35249005      1728000    4148.1075       248250       153170 
49660000    1.1057108  -0.32864733      1728000    4148.9406       248300       153207 
49670000   0.96268518   -0.3311943      1728000    4149.8299       248350       153239 
49680000   0.98410833  -0.32258928      1728000    4150.6561       248400       153271 
49690000    1.0114673   -0.3278202      1728000    4151.4913       248450       153299 
49700000    0.9910283  -0.34913773      1728000    4152.3524       248500       153326 
49710000   0.96074655  -0.33303625      1728000    4153.1925       248550       153358 
49720000   0.96416248  -0.32261856      1728000    4154.0304       248600       153394 
49730000    1.0248704  -0.34837413      1728000    4154.9985       248650       153430 
49740000   0.97056873  -0.36037058      1728000     4155.827       248700       153463 
49750000    1.0278406  -0.33916234      1728000    4156.6621       248750       153497 
49760000    1.0245295  -0.33575811      1728000    4157.4992       248800       153529 
49770000    1.0343026  -0.34741645      1728000    4158.3434       248850       153560 
49780000    1.0197408  -0.35139564      1728000    4159.1865       248900       153594 
49790000   0.98877702  -0.34845115      1728000    4160.0336       248950       153630 
49800000   0.98934605  -0.34154226      1728000    4160.8573       249000       153662 
49810000    1.0296234  -0.33930954      1728000    4161.6814       249050       153695 
49820000   0.93884291  -0.34872578      1728000    4162.5186       249100       153725 
49830000    1.0043224  -0.36400836      1728000    4163.6747       249150       153759 
49840000     1.020514  -0.40588428      1728000    4164.5554       249200       153790 
49850000   0.96495127  -0.37458913      1728000    4165.5234       249250       153821 
49860000     1.017841  -0.35961051      1728000    4166.3805       249300       153852 
49870000    1.0497112  -0.35495442      1728000    4167.2986       249350       153887 
49880000    1.0074611  -0.37311638      1728000    4168.1648       249400       153918 
49890000     1.025522   -0.3676429      1728000    4169.0399       249450       153952 
49900000   0.96511975  -0.34828656      1728000     4169.878       249500       153983 
49910000    1.0341653  -0.36480078      1728000    4170.6975       249550       154013 
49920000   0.96707576  -0.35385873      1728000    4171.5103       249600       154041 
49930000    1.0091817  -0.34293113      1728000    4172.3335       249650       154074 
49940000    1.0387312  -0.34203137      1728000    4173.1686       249700       154103 
49950000    0.9625214  -0.35985972      1728000    4174.0156       249750       154132 
49960000   0.99001953  -0.36228551      1728000    4174.8245       249800       154169 
49970000   0.93590657  -0.35580101      1728000    4175.6505       249850       154196 
49980000    1.0086372  -0.37862193      1728000     4176.516       249900       154228 
49990000   0.96006529  -0.35290868      1728000    4177.3611       249950       154256 
50000000     1.020957  -0.36761671      1728000    4178.2225       250000       154278 
Loop time of 4178.22 on 1 procs for 50000000 steps with 500 atoms

Performance: 10339320.113 tau/day, 11966.806 timesteps/s
99.1% CPU use with 1 MPI tasks x 1 OpenMP threads

MPI task timing breakdown:
Section |  min time  |  avg time  |  max time  |%varavg| %total
---------------------------------------------------------------
Pair    | 721.64     | 721.64     | 721.64     |   0.0 | 17.27
Bond    | 1079.2     | 1079.2     | 1079.2     |   0.0 | 25.83
Neigh   | 817.82     | 817.82     | 817.82     |   0.0 | 19.57
Comm    | 32.498     | 32.498     | 32.498     |   0.0 |  0.78
Output  | 15.158     | 15.158     | 15.158     |   0.0 |  0.36
Modify  | 1456.2     | 1456.2     | 1456.2     |   0.0 | 34.85
Other   |            | 55.67      |            |       |  1.33

Nlocal:    500 ave 500 max 500 min
Histogram: 1 0 0 0 0 0 0 0 0 0
Nghost:    0 ave 0 max 0 min
Histogram: 1 0 0 0 0 0 0 0 0 0
Neighs:    1429 ave 1429 max 1429 min
Histogram: 1 0 0 0 0 0 0 0 0 0

Total # of neighbors = 1429
Ave neighs/atom = 2.858
Ave special neighs/atom = 5.976
Neighbor list builds = 2648675
Dangerous builds = 0

################
## ULOOP    ####
################
clear
OMP_NUM_THREADS environment is not set. Defaulting to 1 thread. (../comm.cpp:87)
  using 1 OpenMP thread(s) per MPI task
variable rname delete
variable simname delete
variable folder delete
variable seed delete
variable E delete
variable RW delete
variable SimOutType delete
variable SimInType delete
variable jn delete
variable jf delete

next jbn
Increment via next: value 2 on partition 0
jump SELF #last line!!!

### If e.g. I run this on 10 partitions of 1 processor,
### and initialise the variable with 'uloop N'
### it will run 10 simulations with 'jobnumber' taking
### values 1-10. Then when a particular simulation finishes, the
### script will be run again with the next value of jobnumber,
### until N simulations have been run.
## SO ULOOP IS "SERIAL" BUT FOR SURE 10x1 PROCs ARE ALWAYS BUSY
Total wall time: 1:09:48
