LAMMPS (1 Feb 2019)
OMP_NUM_THREADS environment is not set. Defaulting to 1 thread. (../comm.cpp:87)
  using 1 OpenMP thread(s) per MPI task
####################################
####	ULOOP			####
####################################
variable jbn uloop 1  # run n simulations
variable startfrom equal 0
variable jn equal ${jbn}+${startfrom}
variable jn equal 1+${startfrom}
variable jn equal 1+0
print ${jn}
print 1
1
variable seed equal (10+4)*51-2*10
variable seedr equal (10+2)*22

#
variable N equal 2000
timestep 0.01
variable Dt equal 100000
variable Temp equal 1.0
variable Norm equal 0.88585294441338
if "${jn} <= 20" then "variable E equal 0.6"
variable E equal 0.6
#if "${jn} > 2 && ${jn} <= 4" then "variable E equal 1.5"
#if "${jn} > 4 && ${jn} <= 6" then "variable E equal 2.0"
#if "${jn} > 6 && ${jn} <= 8" then "variable E equal 2.5"
#if "${jn} > 8 && ${jn} <= 10" then "variable E equal 3.0"
#if "${jn} > 10 && ${jn} <= 12" then "variable E equal 3.5"
#if "${jn} > 12 && ${jn} <= 14" then "variable E equal 4.0"
#if "${jn} > 14 && ${jn} <= 16" then "variable E equal 4.5"
#if "${jn} > 16 && ${jn} <= 18" then "variable E equal 5.0"

#
####################################
####	DEFINTIONS 	########
####################################
#
variable N equal 500
variable folder index RW_Dt${Dt}_E${E}
variable folder index RW_Dt100000_E${E}
variable folder index RW_Dt100000_E0.6
shell mkdir ${folder}
shell mkdir RW_Dt100000_E0.6
WARNING: Shell command 'mkdir' failed with error 'File exists' (../input.cpp:1287)
variable SimOutType index RW${jn}Dt${Dt}E${E}
variable SimOutType index RW1Dt${Dt}E${E}
variable SimOutType index RW1Dt100000E${E}
variable SimOutType index RW1Dt100000E0.6
variable rname index INIT/Poly.N${N}.dat
variable rname index INIT/Poly.N500.dat
variable simname index Poly.N${N}.${SimOutType}
variable simname index Poly.N500.${SimOutType}
variable simname index Poly.N500.RW1Dt100000E0.6
#
units lj
atom_style angle
boundary        p p p
neighbor 1.3 bin
neigh_modify every 5 delay 5 check yes
#
restart 1000000 ${folder}/Restart.neutr.${simname}.
restart 1000000 RW_Dt100000_E0.6/Restart.neutr.${simname}.
restart 1000000 RW_Dt100000_E0.6/Restart.neutr.Poly.N500.RW1Dt100000E0.6.
print ${rname}
print INIT/Poly.N500.dat
INIT/Poly.N500.dat
read_data ${rname}
read_data INIT/Poly.N500.dat
  orthogonal box = (-50 -50 -50) to (50 50 50)
  1 by 1 by 1 MPI processor grid
  reading atoms ...
  500 atoms
  scanning bonds ...
  1 = max bonds/atom
  scanning angles ...
  1 = max angles/atom
  reading bonds ...
  499 bonds
  reading angles ...
  498 angles
  2 = max # of 1-2 neighbors
  2 = max # of 1-3 neighbors
  4 = max # of 1-4 neighbors
  6 = max # of special neighbors

####################################
####	GROUPS	             #######
####################################
group blue type 1
500 atoms in group blue
group red type 2
0 atoms in group red
group grey type 3
0 atoms in group grey

change_box all x final -60 60 y final -60 60 z final -60 60 boundary f f f units box
  orthogonal box = (-60 -50 -50) to (60 50 50)
  orthogonal box = (-60 -60 -50) to (60 60 50)
  orthogonal box = (-60 -60 -60) to (60 60 60)

####################################
####	ANGLE	             #######
####################################
angle_style   cosine
angle_coeff  1 3.0  #20 sigma for realistic DNA (1 bead = 2.5 nm)

####################################
####	PAIRS	             #######
####################################
pair_style  soft 2.5
pair_modify     shift yes
pair_coeff      * * 20 1.12246152962189

variable prefactor equal ramp(0,50)
fix pushapart all adapt 1 pair soft a * * v_prefactor

####################################
####	FENE	             #######
####################################
bond_style   fene
special_bonds fene#<=== I M P O R T A N T (new command)
  2 = max # of 1-2 neighbors
  6 = max # of special neighbors
bond_coeff   1  30.0   1.6  1.0  1.0

####################################
####	FIXES	             #######
####################################
fix 1 all   nve
fix 2 all  langevin   1.0 1.0   1.0   ${seed}
fix 2 all  langevin   1.0 1.0   1.0   694

####################################
####	WALL	             #######
####################################
fix WALL all wall/lj126 xhi EDGE 1.0 1.0 1.122462048 xlo EDGE 1.0 1.0 1.122462048 yhi EDGE 1.0 1.0 1.122462048 ylo EDGE 1.0 1.0 1.122462048 zhi EDGE 1.0 1.0 1.122462048 zlo EDGE 1.0 1.0 1.122462048 units box

####################################
####	RESET TIME             #######
####################################
reset_timestep 0

####################################
####	SWAP - ATOMS         #######
####################################
##HERE I USE fix atom/swap to attempt an atom swap between types
## In theory, I don't need to do a loop as the fix does it every
## N timesteps
##FIRST Dt IS NOT SWAPPING ANYWAY!
group Polymer type 1 2 3
500 atoms in group Polymer
fix Aswap Polymer atom/swap ${Dt} ${N} ${seed} ${Temp} semi-grand yes types 1 2 3 mu 0.0 0.0 0.0
fix Aswap Polymer atom/swap 100000 ${N} ${seed} ${Temp} semi-grand yes types 1 2 3 mu 0.0 0.0 0.0
fix Aswap Polymer atom/swap 100000 500 ${seed} ${Temp} semi-grand yes types 1 2 3 mu 0.0 0.0 0.0
fix Aswap Polymer atom/swap 100000 500 694 ${Temp} semi-grand yes types 1 2 3 mu 0.0 0.0 0.0
fix Aswap Polymer atom/swap 100000 500 694 1 semi-grand yes types 1 2 3 mu 0.0 0.0 0.0
variable Swaps equal f_Aswap[2]/1.0
variable Attempts equal f_Aswap[1]/1.0

####################################
####    THERMO AND INTEGRATION
####################################
timestep 0.01
thermo 10000
thermo_style   custom   step  temp  epair vol cpu v_Attempts v_Swaps

####################################
####	EQUILIBRATION        #######
####################################
#THIS IS TO TEST
#PUT LARGER NUMBER WHEN DOING ACTUAL SIMULATIONS
run 100000
Neighbor list info ...
  update every 5 steps, delay 5 steps, check yes
  max neighbors/atom: 2000, page size: 100000
  master list distance cutoff = 2.42246
  ghost atom cutoff = 2.42246
  binsize = 1.21123, bins = 100 100 100
  1 neighbor lists, perpetual/occasional/extra = 1 0 0
  (1) pair soft, perpetual
      attributes: half, newton on
      pair build: half/bin/newton
      stencil: half/bin/3d/newton
      bin: standard
Per MPI rank memory allocation (min/avg/max) = 9.234 | 9.234 | 9.234 Mbytes
Step Temp E_pair Volume CPU v_Attempts v_Swaps 
       0            0            0      1728000            0            0            0 
   10000    1.0020194 0.0061046812      1728000    1.0757651          500          500 
   20000    1.0000728 0.0035714093      1728000    2.0235729          500          500 
   30000    1.0079995 0.0016114068      1728000    2.9408979          500          500 
   40000    1.0138853 0.00095059627      1728000     3.827147          500          500 
   50000    0.9942374 0.0030467903      1728000    4.7118871          500          500 
   60000   0.97644349 0.0066863742      1728000    5.5938699          500          500 
   70000   0.98300272 0.00086481915      1728000    6.4817321          500          500 
   80000    1.0049474            0      1728000    7.3476319          500          500 
   90000    1.0430468 0.0017451871      1728000    8.3177869          500          500 
  100000    1.0096437 0.0013424583      1728000     9.253772          500          500 
Loop time of 9.25477 on 1 procs for 100000 steps with 500 atoms

Performance: 9335725.331 tau/day, 10805.238 timesteps/s
99.1% CPU use with 1 MPI tasks x 1 OpenMP threads

MPI task timing breakdown:
Section |  min time  |  avg time  |  max time  |%varavg| %total
---------------------------------------------------------------
Pair    | 0.57391    | 0.57391    | 0.57391    |   0.0 |  6.20
Bond    | 2.6235     | 2.6235     | 2.6235     |   0.0 | 28.35
Neigh   | 2.7992     | 2.7992     | 2.7992     |   0.0 | 30.25
Comm    | 0.13598    | 0.13598    | 0.13598    |   0.0 |  1.47
Output  | 0.01896    | 0.01896    | 0.01896    |   0.0 |  0.20
Modify  | 2.9653     | 2.9653     | 2.9653     |   0.0 | 32.04
Other   |            | 0.1379     |            |       |  1.49

Nlocal:    500 ave 500 max 500 min
Histogram: 1 0 0 0 0 0 0 0 0 0
Nghost:    0 ave 0 max 0 min
Histogram: 1 0 0 0 0 0 0 0 0 0
Neighs:    920 ave 920 max 920 min
Histogram: 1 0 0 0 0 0 0 0 0 0

Total # of neighbors = 920
Ave neighs/atom = 1.84
Ave special neighs/atom = 1.996
Neighbor list builds = 4476
Dangerous builds = 0


unfix pushapart
unfix Aswap
reset_timestep 0

#######################################################
####	PAIRS -- REPULSIVE + REDS FERROMAGN 	#######
#######################################################
#ENERGYSCALE
variable Et equal ${E}/${Norm}
variable Et equal 0.6/${Norm}
variable Et equal 0.6/0.88585294441338

pair_style  lj/cut 1.8
pair_modify     shift yes
pair_coeff      * *  1.0 1.0 1.12246152962189

pair_coeff      1 1  ${Et} 1.0 1.8
pair_coeff      1 1  0.677313321340627 1.0 1.8
pair_coeff      1 2  1.0 1.0 1.12246152962189
pair_coeff      1 3  1.0 1.0 1.12246152962189

pair_coeff      2 2  ${Et} 1.0 1.8
pair_coeff      2 2  0.677313321340627 1.0 1.8
pair_coeff      2 3  1.0 1.0 1.12246152962189

pair_coeff      3 3  1.0 1.0 1.12246152962189
#######################################################


########################
## PER PRIMI VICINI   ##
########################
bond_style harmonic
special_bonds lj 1 1 1
  2 = max # of 1-2 neighbors
  2 = max # of 1-3 neighbors
  4 = max # of 1-4 neighbors
  6 = max # of special neighbors
bond_coeff 1 200 1.12246
#bond_style fene
#special_bonds fene
#bond_coeff 1 30 1.6 1.0 1.0

########################
## RECOLOR #############
########################
group Polymer type 1 2 3
500 atoms in group Polymer
variable smooth equal 10
variable dtsmooth equal ${Dt}/${smooth}
variable dtsmooth equal 100000/${smooth}
variable dtsmooth equal 100000/10
variable Nsmooth equal ${N}/${smooth}
variable Nsmooth equal 500/${smooth}
variable Nsmooth equal 500/10
fix Aswap Polymer atom/swap ${dtsmooth} ${Nsmooth} ${seedr} ${Temp} semi-grand yes types 1 2 3 mu 0.0 0.0 0.0
fix Aswap Polymer atom/swap 10000 ${Nsmooth} ${seedr} ${Temp} semi-grand yes types 1 2 3 mu 0.0 0.0 0.0
fix Aswap Polymer atom/swap 10000 50 ${seedr} ${Temp} semi-grand yes types 1 2 3 mu 0.0 0.0 0.0
fix Aswap Polymer atom/swap 10000 50 264 ${Temp} semi-grand yes types 1 2 3 mu 0.0 0.0 0.0
fix Aswap Polymer atom/swap 10000 50 264 1 semi-grand yes types 1 2 3 mu 0.0 0.0 0.0
variable Swaps equal f_Aswap[2]/1.0
variable Attempts equal f_Aswap[1]/1.0

####################################
####    DUMPS                 #######
####################################
##VMD
#dump 1 all custom 1000 ${folder}/${simname}.lammpstrj id mol type x y z
#dump_modify  1   format "%d %d %d %.5f %.5f %.5f"

##DAT
dump 2 all custom 100000 ${folder}/${simname}.* id type x y z ix iy iz
dump 2 all custom 100000 RW_Dt100000_E0.6/${simname}.* id type x y z ix iy iz
dump 2 all custom 100000 RW_Dt100000_E0.6/Poly.N500.RW1Dt100000E0.6.* id type x y z ix iy iz
#dump_modify   2   format "%d %d %.5f %.5f %.5f %d %d %d"

##CFG
#dump 3 all cfg 1000 ${folder}/CFG/${simname}.tot.*.cfg mass type xs ys zs id mol type
#dump_modify 3 element N C O Ca Xe

##XYZ
dump 4 all xyz 100000 XYZ_${simname}.xyz
dump 4 all xyz 100000 XYZ_Poly.N500.RW1Dt100000E0.6.xyz
dump_modify 4 element C O N Xe

###########################
thermo 10000
thermo_style   custom   step  temp  epair vol cpu v_Attempts v_Swaps
run 50000000
Neighbor list info ...
  update every 5 steps, delay 5 steps, check yes
  max neighbors/atom: 2000, page size: 100000
  master list distance cutoff = 3.1
  ghost atom cutoff = 3.1
  binsize = 1.55, bins = 78 78 78
  1 neighbor lists, perpetual/occasional/extra = 1 0 0
  (1) pair lj/cut, perpetual
      attributes: half, newton on
      pair build: half/bin/newton
      stencil: half/bin/3d/newton
      bin: standard
Per MPI rank memory allocation (min/avg/max) = 9.566 | 9.566 | 9.566 Mbytes
Step Temp E_pair Volume CPU v_Attempts v_Swaps 
       0    1.0096437    1.7294537      1728000            0            0            0 
   10000   0.99431599  -0.16008099      1728000   0.90884399           50           32 
   20000    1.0077532  -0.18637497      1728000    1.7770572          100           70 
   30000     1.002337  -0.17368363      1728000    2.6088052          150          108 
   40000    1.0331518   -0.1870502      1728000     3.423965          200          155 
   50000   0.99084851  -0.19597226      1728000     4.270124          250          196 
   60000   0.95949212   -0.1993898      1728000    5.1218531          300          231 
   70000    0.9812213  -0.20843987      1728000    5.9601581          350          273 
   80000     1.005082  -0.20388676      1728000     6.778934          400          314 
   90000   0.97257783  -0.20472893      1728000     7.595083          450          351 
  100000   0.96425538  -0.20846997      1728000       8.4331          500          395 
  110000   0.99626547  -0.20960665      1728000     9.282959          550          429 
  120000    1.0793862  -0.21277976      1728000    10.174098          600          462 
  130000    1.0052255  -0.21645862      1728000    11.021888          650          503 
  140000    1.0267162  -0.21824282      1728000    11.834858          700          536 
  150000    1.0120498  -0.24292382      1728000     12.69852          750          572 
  160000    1.0017088  -0.21900561      1728000    13.575918          800          608 
  170000   0.97557674  -0.21579093      1728000    14.393184          850          640 
  180000    1.0035734  -0.23865425      1728000     15.23001          900          679 
  190000    1.0355415   -0.2178028      1728000    16.125413          950          709 
  200000    1.0261315  -0.19703102      1728000    17.014503         1000          737 
  210000   0.99600312   -0.2114395      1728000    17.872929         1050          768 
  220000    1.0336229  -0.22119524      1728000    18.747421         1100          804 
  230000    1.0153486  -0.20533926      1728000    19.659496         1150          842 
  240000    1.0072617  -0.20983585      1728000    20.544579         1200          881 
  250000   0.99358242  -0.20990918      1728000    21.495606         1250          918 
  260000   0.97576093  -0.21560103      1728000    22.624448         1300          954 
  270000    1.0197233  -0.22964448      1728000    23.494521         1350          989 
  280000    1.0374304  -0.21995344      1728000    24.363717         1400         1024 
  290000    1.0117488  -0.22479272      1728000    25.209841         1450         1061 
  300000    1.0006677  -0.21922926      1728000     26.06499         1500         1094 
  310000   0.93338875  -0.22701507      1728000    26.922086         1550         1128 
  320000   0.94255363  -0.22694078      1728000    27.794192         1600         1167 
  330000    1.0220272  -0.21191216      1728000    28.647317         1650         1204 
  340000   0.99565063  -0.20883959      1728000    29.491452         1700         1235 
  350000    1.0129288  -0.20672175      1728000     30.34559         1750         1266 
  360000   0.94345536  -0.21136494      1728000     31.17775         1800         1303 
  370000    1.0168213  -0.21772565      1728000    32.048867         1850         1345 
  380000   0.94948864  -0.20162379      1728000    32.985919         1900         1381 
  390000   0.96882741   -0.2044628      1728000    33.851055         1950         1414 
  400000    1.0751751  -0.20790342      1728000    34.716158         2000         1453 
  410000   0.99811465  -0.20364514      1728000     35.56229         2050         1489 
  420000    1.0196269  -0.20499565      1728000    36.411028         2100         1526 
  430000   0.94246325  -0.19687683      1728000    37.341312         2150         1567 
  440000   0.95815688  -0.20568183      1728000    38.251273         2200         1607 
  450000    1.0254335  -0.20914304      1728000    39.114426         2250         1644 
  460000    1.0407598  -0.22709777      1728000    39.982248         2300         1678 
  470000    1.0039337  -0.21080626      1728000    40.851214         2350         1714 
  480000   0.95268965   -0.2058434      1728000    41.684441         2400         1753 
  490000   0.95271403  -0.21845807      1728000    42.582508         2450         1793 
  500000    1.0585132  -0.22721706      1728000    43.430841         2500         1834 
  510000   0.97192628  -0.22772438      1728000     44.29299         2550         1872 
  520000    1.0378542  -0.21998819      1728000    45.143155         2600         1905 
  530000   0.99435039  -0.20966444      1728000    45.997487         2650         1945 
  540000    1.0032765  -0.23215133      1728000    46.857622         2700         1981 
  550000    1.0281911   -0.2310412      1728000    47.694747         2750         2016 
  560000    1.0033813  -0.22856026      1728000    48.543009         2800         2053 
  570000    1.0230211  -0.22663149      1728000    49.399533         2850         2087 
  580000   0.95750324  -0.22910388      1728000    50.248661         2900         2127 
  590000   0.92313412  -0.22503547      1728000    51.109764         2950         2166 
  600000    1.0254932  -0.22071029      1728000    52.034761         3000         2205 
  610000    1.0401637   -0.2239937      1728000    52.919836         3050         2243 
  620000   0.97963413  -0.21821028      1728000    53.776959         3100         2279 
  630000     1.055939  -0.21599466      1728000    54.630086         3150         2317 
  640000    1.1052577  -0.22375084      1728000    55.486221         3200         2352 
  650000    1.0177468  -0.23768012      1728000    56.334355         3250         2392 
  660000   0.97425925  -0.23592539      1728000    57.182472         3300         2433 
  670000   0.96843927  -0.23241535      1728000    58.061571         3350         2470 
  680000   0.97460496  -0.22522024      1728000     58.96864         3400         2509 
  690000   0.99009796   -0.2275865      1728000    59.932652         3450         2545 
  700000    0.9903556  -0.22535029      1728000    60.896681         3500         2578 
  710000    1.0420568  -0.23957662      1728000    61.787763         3550         2614 
  720000    1.0396858  -0.24173254      1728000    62.689836         3600         2653 
  730000   0.97152296  -0.23280504      1728000    63.539973         3650         2690 
  740000    1.0023449  -0.22997703      1728000    64.469021         3700         2720 
  750000   0.98106236  -0.22578798      1728000    65.321145         3750         2749 
  760000    1.0189732  -0.22557807      1728000    66.159459         3800         2785 
  770000   0.94831936  -0.22846824      1728000    67.010604         3850         2820 
  780000    1.0061604  -0.21570534      1728000    67.873702         3900         2855 
  790000    1.0474427  -0.20880523      1728000    68.710844         3950         2892 
  800000   0.95323094  -0.21581687      1728000    69.539112         4000         2920 
  810000    0.9714181  -0.20321422      1728000    70.343993         4050         2962 
  820000     1.097156  -0.21569388      1728000    71.155176         4100         2999 
  830000   0.94688359  -0.21840255      1728000     71.97134         4150         3031 
  840000   0.97022781  -0.23091158      1728000     72.80852         4200         3071 
  850000   0.98435066  -0.22523749      1728000    73.619694         4250         3112 
  860000   0.96612026  -0.23705442      1728000    74.438694         4300         3149 
  870000    1.0324152  -0.22790028      1728000    75.250264         4350         3182 
  880000    1.0239974  -0.22425747      1728000    76.151325         4400         3215 
  890000   0.94866575  -0.22492616      1728000    76.961529         4450         3244 
  900000   0.90835549  -0.22494001      1728000    77.777864         4500         3286 
  910000   0.97671743  -0.22696858      1728000    78.608019         4550         3324 
  920000   0.95046123  -0.23667415      1728000    79.451252         4600         3364 
  930000   0.97817874  -0.23501613      1728000    80.266677         4650         3399 
  940000    1.0443029  -0.22807703      1728000    81.083937         4700         3434 
  950000   0.92572383  -0.22815638      1728000    81.904541         4750         3471 
  960000   0.93350697  -0.22703991      1728000    82.756671         4800         3502 
  970000    0.9708267  -0.21167532      1728000    83.621931         4850         3542 
  980000   0.96047167  -0.21269824      1728000    84.446136         4900         3576 
  990000    1.0001364  -0.22030497      1728000    85.255306         4950         3609 
 1000000   0.98370242  -0.22012093      1728000    86.088861         5000         3641 
 1010000    1.0170344  -0.21544418      1728000    86.899997         5050         3674 
 1020000    1.0247582  -0.20627734      1728000    87.734924         5100         3712 
 1030000   0.99749834  -0.20988661      1728000    88.544108         5150         3749 
 1040000   0.96533488  -0.20158474      1728000    89.397267         5200         3786 
 1050000    1.0390127  -0.18982684      1728000    90.210433         5250         3822 
 1060000    1.0602037  -0.19338785      1728000    91.022965         5300         3858 
 1070000   0.96510595  -0.21135239      1728000    91.829157         5350         3904 
 1080000    1.0125164  -0.19222023      1728000    92.682282         5400         3942 
 1090000    1.0336112  -0.19634137      1728000    93.499589         5450         3978 
 1100000    1.0050754  -0.20962928      1728000    94.350147         5500         4011 
 1110000    0.9038451  -0.21634792      1728000    95.192905         5550         4047 
 1120000    1.0176952   -0.2071076      1728000    95.996694         5600         4083 
 1130000   0.97000908  -0.20156591      1728000    96.858467         5650         4114 
 1140000   0.96785652  -0.20300936      1728000     97.67465         5700         4151 
 1150000    1.0133068  -0.20502509      1728000    98.474766         5750         4189 
 1160000    1.0053122  -0.21206766      1728000    99.298036         5800         4226 
 1170000    1.0653196  -0.19889475      1728000    100.10981         5850         4262 
 1180000   0.98249984  -0.20779274      1728000    100.92299         5900         4298 
 1190000   0.94819684  -0.18536767      1728000    101.74679         5950         4334 
 1200000    0.9694366  -0.20899351      1728000    102.60989         6000         4372 
 1210000   0.97237096  -0.21717503      1728000    103.42607         6050         4408 
 1220000   0.97069464  -0.21216106      1728000    104.23831         6100         4441 
 1230000   0.98764243  -0.21192409      1728000    105.04748         6150         4481 
 1240000   0.99724786  -0.20593293      1728000    105.90759         6200         4510 
 1250000    1.0014321  -0.19349593      1728000    106.75273         6250         4539 
 1260000   0.98793911  -0.21465881      1728000    107.58518         6300         4573 
 1270000   0.97773509  -0.19673158      1728000    108.38098         6350         4616 
 1280000    1.0008613  -0.18800786      1728000    109.21133         6400         4645 
 1290000    1.0195113  -0.17214229      1728000    110.01569         6450         4683 
 1300000    1.0287343  -0.18726354      1728000    110.85882         6500         4720 
 1310000   0.99719512  -0.20190827      1728000    111.67197         6550         4755 
 1320000   0.94127972  -0.20344383      1728000    112.50811         6600         4791 
 1330000    1.0109283  -0.18429916      1728000    113.33036         6650         4828 
 1340000   0.99601783  -0.18843337      1728000    114.14071         6700         4863 
 1350000   0.97603085  -0.19197848      1728000    114.95023         6750         4895 
 1360000   0.99317509  -0.18785447      1728000    115.80889         6800         4932 
 1370000    1.0090559  -0.19649559      1728000    116.69798         6850         4972 
 1380000   0.99178382  -0.19715878      1728000     117.5641         6900         5007 
 1390000    1.0036415  -0.22163399      1728000    118.44319         6950         5050 
 1400000   0.99954033  -0.23236735      1728000    119.36725         7000         5087 
 1410000    1.0269854  -0.21338524      1728000     120.2084         7050         5120 
 1420000   0.97208739  -0.21990617      1728000    121.02954         7100         5155 
 1430000   0.95179194  -0.21366425      1728000    121.87869         7150         5192 
 1440000   0.98756302  -0.20761073      1728000     122.7298         7200         5230 
 1450000     1.049784  -0.21518054      1728000    123.54696         7250         5261 
 1460000   0.99782977   -0.2223974      1728000    124.41908         7300         5294 
 1470000   0.96628685  -0.21553535      1728000    125.30619         7350         5328 
 1480000    1.0404017  -0.20211064      1728000    126.12435         7400         5367 
 1490000   0.95259729  -0.20399157      1728000     126.9425         7450         5409 
 1500000   0.96982776  -0.22428074      1728000    127.78565         7500         5440 
 1510000    1.0101789   -0.2327043      1728000    128.59182         7550         5473 
 1520000    1.0422523  -0.22299596      1728000    129.40599         7600         5505 
 1530000   0.98239373  -0.21746989      1728000    130.22015         7650         5538 
 1540000   0.99771437  -0.20599878      1728000    131.02631         7700         5577 
 1550000   0.99128132  -0.20367832      1728000    131.87546         7750         5612 
 1560000    1.0161425  -0.21156926      1728000    132.70759         7800         5652 
 1570000   0.98949563  -0.22112831      1728000    133.52756         7850         5689 
 1580000   0.98208359  -0.20035029      1728000    134.39768         7900         5724 
 1590000   0.97713551  -0.20019741      1728000     135.1981         7950         5764 
 1600000   0.95105241  -0.20132314      1728000    136.01473         8000         5805 
 1610000    0.9998679  -0.18461405      1728000    136.84599         8050         5844 
 1620000    1.0376638  -0.21135714      1728000    137.69213         8100         5881 
 1630000    1.0145947  -0.18802234      1728000    138.50949         8150         5918 
 1640000    1.0258989  -0.18221706      1728000    139.33065         8200         5957 
 1650000   0.96893975  -0.18088037      1728000     140.1458         8250         5993 
 1660000     0.965369  -0.18220754      1728000    140.95698         8300         6031 
 1670000    1.0343245  -0.18097445      1728000    141.79657         8350         6071 
 1680000    0.9859502  -0.19251998      1728000     142.6497         8400         6104 
 1690000    0.9477756  -0.17039508      1728000    143.56575         8450         6140 
 1700000    1.0090552  -0.18316303      1728000     144.3869         8500         6177 
 1710000    1.0059685   -0.2013389      1728000    145.19208         8550         6217 
 1720000   0.99733219  -0.19177741      1728000    146.01324         8600         6252 
 1730000    1.0042084  -0.19257167      1728000    146.83653         8650         6296 
 1740000    1.0301946  -0.20176809      1728000    147.63671         8700         6341 
 1750000   0.94765414  -0.17837762      1728000    148.48266         8750         6377 
 1760000    1.0171628  -0.19306189      1728000    149.29244         8800         6418 
 1770000    1.0292175  -0.18899208      1728000    150.16654         8850         6453 
 1780000    1.0386596  -0.18783489      1728000    150.97002         8900         6496 
 1790000   0.96899774  -0.20528641      1728000    151.81667         8950         6536 
 1800000   0.96951758  -0.21638741      1728000    152.66181         9000         6575 
 1810000   0.97919972  -0.20746057      1728000    153.49695         9050         6609 
 1820000   0.94532754  -0.19884287      1728000    154.30812         9100         6646 
 1830000    1.0093696  -0.19786423      1728000    155.12529         9150         6684 
 1840000    1.0096992  -0.19302731      1728000    155.94245         9200         6721 
 1850000   0.99857244  -0.20315222      1728000    156.78971         9250         6760 
 1860000   0.97552985  -0.19376369      1728000     157.5889         9300         6801 
 1870000   0.96729601  -0.18895343      1728000    158.39109         9350         6833 
 1880000    1.0035231  -0.19276427      1728000    159.19584         9400         6872 
 1890000    1.0022503   -0.1948079      1728000    160.01724         9450         6907 
 1900000   0.98165785  -0.19556896      1728000    160.86637         9500         6941 
 1910000   0.96607521  -0.19597664      1728000    161.66856         9550         6977 
 1920000   0.99086624  -0.18992673      1728000    162.49985         9600         7015 
 1930000    1.0399884  -0.21123256      1728000    163.33898         9650         7052 
 1940000   0.95675581   -0.2054683      1728000    164.23105         9700         7089 
 1950000     1.010258  -0.20460293      1728000    165.04122         9750         7124 
 1960000    1.0167852  -0.20711842      1728000    165.84956         9800         7161 
 1970000   0.98074333  -0.20306963      1728000    166.66271         9850         7199 
 1980000    1.0229209  -0.20184551      1728000    167.47495         9900         7237 
 1990000   0.98745803   -0.1932753      1728000    168.28611         9950         7276 
 2000000   0.92522755  -0.18517649      1728000    169.10628        10000         7315 
 2010000    1.0378467  -0.18787893      1728000    169.91748        10050         7352 
 2020000     1.015972  -0.19548472      1728000    170.73165        10100         7390 
 2030000     1.021512  -0.18979665      1728000    171.53997        10150         7424 
 2040000    1.0138163  -0.18919694      1728000    172.36832        10200         7463 
 2050000     1.030102  -0.17540652      1728000    173.19447        10250         7499 
 2060000    1.0499084  -0.18319062      1728000    174.02672        10300         7531 
 2070000   0.95107886  -0.17921244      1728000    174.83527        10350         7569 
 2080000    1.0326703  -0.19077897      1728000    175.64283        10400         7613 
 2090000    1.0365506  -0.20568675      1728000    176.44601        10450         7648 
 2100000   0.96045001  -0.19328386      1728000    177.27425        10500         7683 
 2110000    1.0378788   -0.1990367      1728000    178.10741        10550         7718 
 2120000    1.0065953  -0.19163655      1728000    178.92057        10600         7757 
 2130000   0.95637565  -0.20075638      1728000    179.74873        10650         7794 
 2140000    1.1040194  -0.18860265      1728000    180.54892        10700         7832 
 2150000   0.98277105   -0.1921886      1728000     181.3502        10750         7873 
 2160000    1.0229649  -0.21599292      1728000    182.17373        10800         7907 
 2170000    1.0531447  -0.20031472      1728000    183.00912        10850         7943 
 2180000   0.96027606  -0.20972256      1728000     183.8448        10900         7978 
 2190000   0.92507097  -0.19982134      1728000    184.65074        10950         8017 
 2200000    1.0769394  -0.20089778      1728000     185.4657        11000         8056 
 2210000    1.0182181  -0.21211724      1728000    186.27393        11050         8095 
 2220000    1.0255399  -0.20961937      1728000    187.09676        11100         8134 
 2230000    1.0128018  -0.20814503      1728000     187.9043        11150         8170 
 2240000    0.9866128  -0.21250618      1728000    188.71449        11200         8206 
 2250000   0.94677452  -0.23585734      1728000    189.52865        11250         8242 
 2260000    1.0539458  -0.22073609      1728000    190.33896        11300         8282 
 2270000     1.012412  -0.21566513      1728000     191.1547        11350         8320 
 2280000    1.0209014  -0.20974337      1728000    191.96933        11400         8359 
 2290000    1.0460339  -0.21797444      1728000    192.81444        11450         8397 
 2300000   0.95716613  -0.22139262      1728000    193.64493        11500         8428 
 2310000    1.0476942  -0.20452427      1728000    194.45973        11550         8468 
 2320000    1.0018179  -0.21427769      1728000     195.2689        11600         8496 
 2330000    1.0198153  -0.21221396      1728000    196.07707        11650         8533 
 2340000    1.0056526  -0.21524962      1728000     196.8898        11700         8567 
 2350000    1.0788904  -0.18011084      1728000    197.69799        11750         8606 
 2360000    1.0314518   -0.1869346      1728000    198.50616        11800         8647 
 2370000    1.0260809  -0.19734872      1728000    199.32384        11850         8684 
 2380000   0.92948427  -0.20717187      1728000      200.128        11900         8724 
 2390000    1.0484584  -0.20836115      1728000    200.93119        11950         8765 
 2400000    1.0081089  -0.19041243      1728000    201.75237        12000         8800 
 2410000    1.0027994  -0.16599243      1728000    202.58152        12050         8843 
 2420000   0.97862017   -0.1843506      1728000    203.40268        12100         8882 
 2430000   0.93752471  -0.21049352      1728000     204.2608        12150         8917 
 2440000    1.0357632  -0.18984776      1728000    205.06474        12200         8956 
 2450000    1.0202976  -0.18950564      1728000    205.89192        12250         8996 
 2460000    1.0200691  -0.17763835      1728000    206.69308        12300         9033 
 2470000   0.94036419   -0.1700965      1728000    207.52826        12350         9073 
 2480000   0.93027721  -0.17923117      1728000    208.32454        12400         9111 
 2490000    1.0547178  -0.19787046      1728000     209.1448        12450         9144 
 2500000    1.0075118  -0.18941855      1728000    209.95161        12500         9185 
 2510000    1.0231164  -0.18353701      1728000     210.7458        12550         9230 
 2520000    1.0319532   -0.1884919      1728000    211.53878        12600         9266 
 2530000   0.98732401   -0.1948495      1728000     212.3577        12650         9305 
 2540000    1.0158802  -0.19973882      1728000    213.19197        12700         9344 
 2550000    1.0590064   -0.1959719      1728000    213.99917        12750         9382 
 2560000    0.9772473  -0.19680769      1728000     214.7974        12800         9421 
 2570000    1.0071876  -0.21202995      1728000    215.61761        12850         9457 
 2580000    1.0672051  -0.20386827      1728000    216.42086        12900         9493 
 2590000   0.99247292  -0.21827383      1728000     217.2471        12950         9531 
 2600000   0.97055654  -0.22525893      1728000    218.11021        13000         9565 
 2610000    1.0127483   -0.2182851      1728000    218.93752        13050         9599 
 2620000   0.99934725  -0.21465725      1728000    219.77867        13100         9631 
 2630000   0.94987816  -0.22146048      1728000    220.59182        13150         9667 
 2640000    1.0165197  -0.23358465      1728000    221.40709        13200         9695 
 2650000   0.99893797  -0.22038806      1728000    222.23434        13250         9727 
 2660000   0.96495761  -0.21942749      1728000    223.05549        13300         9760 
 2670000    1.0133669  -0.22315218      1728000    223.85974        13350         9801 
 2680000     1.010167  -0.21534796      1728000    224.71741        13400         9836 
 2690000    1.0442116  -0.20758131      1728000    225.51661        13450         9876 
 2700000    1.0453018  -0.20572447      1728000     226.3288        13500         9912 
 2710000   0.98053537  -0.20975668      1728000    227.15297        13550         9950 
 2720000    1.0196528  -0.20725821      1728000    227.95315        13600         9983 
 2730000    0.9566287  -0.19040052      1728000    228.76047        13650        10021 
 2740000   0.95064914  -0.19886813      1728000    229.56582        13700        10056 
 2750000   0.96391194  -0.18723812      1728000    230.37276        13750        10089 
 2760000    1.0067712  -0.19703449      1728000    231.17499        13800        10127 
 2770000   0.98716684   -0.2000506      1728000    232.00663        13850        10165 
 2780000   0.99304879  -0.19877413      1728000    232.85176        13900        10202 
 2790000    1.0135513  -0.19217976      1728000     233.6839        13950        10237 
 2800000   0.94171762  -0.19669394      1728000    234.49806        14000        10273 
 2810000    1.0235976  -0.21746849      1728000    235.32829        14050        10309 
 2820000    1.0151269  -0.19623672      1728000    236.18743        14100        10347 
 2830000    1.0224294  -0.20788018      1728000    237.03857        14150        10385 
 2840000   0.94448009  -0.20115757      1728000    237.87171        14200        10419 
 2850000   0.99372495  -0.18686609      1728000    238.67807        14250        10462 
 2860000   0.95182661  -0.21973239      1728000    239.50732        14300        10492 
 2870000    1.0010601  -0.22139491      1728000    240.35246        14350        10530 
 2880000   0.92169184  -0.22792448      1728000     241.1826        14400        10568 
 2890000    1.0101163  -0.23020209      1728000    242.07769        14450        10605 
 2900000   0.97363854  -0.23527539      1728000    242.92381        14500        10638 
 2910000    1.0437063  -0.22414418      1728000    243.74399        14550        10664 
 2920000     1.014562  -0.21358155      1728000    244.61048        14600        10705 
 2930000    0.9758915  -0.19557034      1728000    245.41866        14650        10745 
 2940000    1.0280626  -0.17619625      1728000    246.24382        14700        10785 
 2950000   0.98567044  -0.20222971      1728000    247.05224        14750        10820 
 2960000   0.98259608  -0.18772323      1728000    247.87964        14800        10861 
 2970000    1.0100233  -0.21620465      1728000    248.67869        14850        10899 
 2980000    1.0035525   -0.2048283      1728000    249.51894        14900        10935 
 2990000   0.94628765  -0.19417305      1728000    250.32611        14950        10976 
 3000000    1.0346582   -0.1908829      1728000    251.14228        15000        11022 
 3010000    1.0525753  -0.19675567      1728000    251.95184        15050        11054 
 3020000   0.99864706  -0.19735534      1728000    252.80103        15100        11089 
 3030000   0.98667703  -0.18135673      1728000    253.61022        15150        11124 
 3040000   0.92108281  -0.19129701      1728000    254.43935        15200        11162 
 3050000     1.001731  -0.18156085      1728000    255.24053        15250        11195 
 3060000   0.97636305  -0.18705293      1728000    256.03282        15300        11233 
 3070000   0.96092627  -0.18368478      1728000    256.87297        15350        11272 
 3080000   0.96035279  -0.20513599      1728000    257.68131        15400        11305 
 3090000   0.93600863   -0.1905929      1728000    258.48443        15450        11336 
 3100000    1.0499547  -0.18646025      1728000     259.3068        15500        11369 
 3110000     1.057933   -0.1835824      1728000    260.10537        15550        11403 
 3120000    1.0516728  -0.17794933      1728000    260.92867        15600        11437 
 3130000   0.98104822  -0.18876998      1728000    261.75184        15650        11477 
 3140000    1.0396541  -0.18729045      1728000    262.58797        15700        11515 
 3150000    1.0260342  -0.20157561      1728000    263.41114        15750        11555 
 3160000    1.0259192   -0.2086352      1728000    264.21376        15800        11595 
 3170000   0.97964832  -0.19800995      1728000    265.01874        15850        11631 
 3180000   0.93173694  -0.19664783      1728000    265.81864        15900        11668 
 3190000    1.0235824  -0.19815375      1728000    266.62161        15950        11707 
 3200000   0.97830198  -0.19356308      1728000    267.45512        16000        11742 
 3210000    1.0094947  -0.19672308      1728000    268.26039        16050        11782 
 3220000    1.0350532  -0.21262458      1728000    269.07177        16100        11815 
 3230000    1.0013389  -0.21359492      1728000     269.8764        16150        11849 
 3240000    1.0143899  -0.21137976      1728000     270.6866        16200        11880 
 3250000    1.0049609  -0.20278652      1728000    271.49124        16250        11920 
 3260000    1.0012913  -0.20671889      1728000     272.3174        16300        11952 
 3270000    0.9327595  -0.22955179      1728000    273.15554        16350        11990 
 3280000      0.96384  -0.22643307      1728000    274.01967        16400        12027 
 3290000    0.9889494  -0.21491596      1728000    274.86081        16450        12062 
 3300000    1.0120124  -0.22364928      1728000    275.69716        16500        12098 
 3310000   0.98422274  -0.23979043      1728000    276.50849        16550        12132 
 3320000     1.021391  -0.22048329      1728000    277.32386        16600        12170 
 3330000   0.99532146  -0.22946667      1728000    278.13702        16650        12203 
 3340000    1.0698253  -0.24988934      1728000     278.9572        16700        12238 
 3350000   0.98383009  -0.23857815      1728000    279.77561        16750        12271 
 3360000   0.92941759  -0.22354528      1728000    280.59479        16800        12303 
 3370000   0.97572377  -0.24541715      1728000    281.40935        16850        12334 
 3380000   0.99621043  -0.22312381      1728000    282.25754        16900        12370 
 3390000   0.96361757  -0.22791651      1728000     283.0927        16950        12406 
 3400000      1.06792  -0.22942304      1728000    283.97778        17000        12443 
 3410000    1.0256496  -0.22154813      1728000    284.87487        17050        12476 
 3420000    1.0151583  -0.23166554      1728000       285.73        17100        12508 
 3430000    1.0227274  -0.24290383      1728000    286.54017        17150        12540 
 3440000    1.0194861   -0.2214293      1728000    287.36831        17200        12569 
 3450000   0.98375185  -0.20792793      1728000    288.21345        17250        12603 
 3460000   0.94328937  -0.20932233      1728000    289.06057        17300        12632 
 3470000   0.97102864  -0.20332036      1728000    289.89372        17350        12670 
 3480000    1.0402848  -0.20765163      1728000    290.74285        17400        12706 
 3490000    1.0302534   -0.2114181      1728000      291.587        17450        12740 
 3500000   0.98098252   -0.1941975      1728000    292.45211        17500        12771 
 3510000    1.0388032  -0.20215222      1728000    293.28126        17550        12809 
 3520000   0.98395905  -0.19248448      1728000     294.1147        17600        12843 
 3530000   0.98026741  -0.19569232      1728000    294.91684        17650        12881 
 3540000   0.98989297  -0.19214821      1728000    295.70946        17700        12920 
 3550000   0.99244323  -0.19714245      1728000    296.51363        17750        12955 
 3560000    1.0538334  -0.17915703      1728000    297.35677        17800        12992 
 3570000    1.0573007  -0.18144209      1728000    298.16194        17850        13029 
 3580000   0.96133123  -0.18538214      1728000    298.97015        17900        13068 
 3590000    1.0549389  -0.19323303      1728000    299.78137        17950        13104 
 3600000    1.0398565   -0.1932289      1728000    300.61258        18000        13138 
 3610000    1.0499138  -0.20015885      1728000    301.43174        18050        13174 
 3620000    1.0003816  -0.19455745      1728000     302.2669        18100        13211 
 3630000    1.0386195  -0.20179692      1728000    303.10963        18150        13253 
 3640000    1.0586151  -0.21536316      1728000    304.00374        18200        13291 
 3650000   0.98743619   -0.1986214      1728000    304.80192        18250        13331 
 3660000   0.97982867  -0.20574534      1728000    305.61739        18300        13366 
 3670000    1.0115715  -0.21072025      1728000    306.43445        18350        13404 
 3680000   0.92073124  -0.21966114      1728000     307.2453        18400        13439 
 3690000   0.99417882  -0.21595053      1728000    308.06047        18450        13469 
 3700000    1.0093288  -0.22619656      1728000    308.88137        18500        13506 
 3710000    1.0108883  -0.20608623      1728000    309.69854        18550        13549 
 3720000    1.0377773  -0.20917947      1728000    310.49981        18600        13586 
 3730000   0.98501482  -0.22899259      1728000    311.30415        18650        13618 
 3740000    1.0013648  -0.23397079      1728000    312.14627        18700        13652 
 3750000   0.94420542  -0.22223934      1728000    312.98642        18750        13694 
 3760000   0.94833341  -0.19909519      1728000    313.79959        18800        13733 
 3770000    1.0023912   -0.2072037      1728000    314.62573        18850        13775 
 3780000    1.0529556  -0.21074763      1728000    315.42705        18900        13816 
 3790000   0.96964177  -0.20906221      1728000    316.23023        18950        13850 
 3800000   0.98304556  -0.19458101      1728000    317.04339        19000        13886 
 3810000   0.98795739  -0.18899566      1728000    317.83964        19050        13923 
 3820000    1.0562059  -0.18537839      1728000    318.66677        19100        13968 
 3830000    1.0248658  -0.19645789      1728000    319.46497        19150        14007 
 3840000   0.95764509  -0.19594911      1728000    320.28226        19200        14046 
 3850000    1.0093536  -0.18676183      1728000    321.09244        19250        14080 
 3860000    1.0499259  -0.20196981      1728000    321.90173        19300        14117 
 3870000    1.0040781  -0.21218662      1728000    322.77543        19350        14150 
 3880000    1.0587778  -0.20491749      1728000    323.57669        19400        14186 
 3890000    1.0330798  -0.20042322      1728000    324.37995        19450        14225 
 3900000    1.0291528  -0.19998233      1728000    325.19332        19500        14257 
 3910000   0.97214471  -0.21910338      1728000    325.99351        19550        14294 
 3920000   0.96150773  -0.21592121      1728000    326.79967        19600        14330 
 3930000    1.0064205  -0.20860644      1728000    327.62083        19650        14368 
 3940000   0.98217211  -0.20920885      1728000    328.42802        19700        14406 
 3950000   0.96957648  -0.21443441      1728000    329.23319        19750        14447 
 3960000    1.0539058   -0.1968684      1728000    330.05835        19800        14485 
 3970000   0.96040827  -0.20289904      1728000    330.85951        19850        14521 
 3980000   0.99750017   -0.2032127      1728000    331.68568        19900        14564 
 3990000   0.98519458  -0.21201537      1728000    332.51482        19950        14600 
 4000000    0.9753865  -0.19241107      1728000    333.34998        20000        14640 
 4010000      1.00042   -0.1919055      1728000    334.15284        20050        14677 
 4020000    1.0216125  -0.16597249      1728000      334.958        20100        14714 
 4030000   0.93613516  -0.18918879      1728000    335.76431        20150        14758 
 4040000   0.98065456  -0.17277078      1728000    336.56858        20200        14792 
 4050000    1.0497545  -0.18997846      1728000    337.37975        20250        14831 
 4060000    1.0444225   -0.1883373      1728000     338.2144        20300        14871 
 4070000   0.99354343  -0.19013963      1728000    339.04655        20350        14906 
 4080000    1.0291002  -0.19575316      1728000    339.87889        20400        14940 
 4090000   0.98485989  -0.19806007      1728000    340.75769        20450        14979 
 4100000   0.99184145  -0.19544734      1728000    341.57099        20500        15019 
 4110000    1.0311674  -0.18952191      1728000    342.39814        20550        15062 
 4120000    1.0167638  -0.19494498      1728000     343.2303        20600        15099 
 4130000   0.97107162  -0.17790331      1728000    344.03747        20650        15135 
 4140000   0.99466803  -0.19178335      1728000    344.84075        20700        15171 
 4150000    1.0585556  -0.22054507      1728000    345.64951        20750        15209 
 4160000   0.97422402   -0.2245089      1728000    346.45982        20800        15240 
 4170000   0.97965745  -0.20885868      1728000    347.26067        20850        15276 
 4180000   0.96078307   -0.2126584      1728000    348.06886        20900        15311 
 4190000     1.047024  -0.21193115      1728000    348.88902        20950        15347 
 4200000    1.0183354  -0.20795735      1728000    349.69127        21000        15383 
 4210000    0.9986656  -0.21564845      1728000    350.50075        21050        15419 
 4220000    1.1164989  -0.18949587      1728000    351.30771        21100        15462 
 4230000    1.0117069  -0.20763937      1728000    352.13059        21150        15496 
 4240000   0.99819322  -0.18913155      1728000    352.96672        21200        15533 
 4250000   0.98930476  -0.18681676      1728000    353.78188        21250        15575 
 4260000    1.0210461  -0.19222119      1728000    354.59904        21300        15612 
 4270000   0.96459242   -0.1868248      1728000    355.39351        21350        15644 
 4280000    1.0711133  -0.18427308      1728000    356.22366        21400        15682 
 4290000    1.0131969  -0.16424439      1728000    357.04083        21450        15723 
 4300000    1.0104005  -0.16254729      1728000    357.86142        21500        15764 
 4310000   0.97921131  -0.17346111      1728000    358.66075        21550        15805 
 4320000    1.0084815  -0.16947304      1728000    359.45992        21600        15840 
 4330000    1.0623892  -0.16287255      1728000    360.26411        21650        15877 
 4340000    1.0086599  -0.15897238      1728000    361.05451        21700        15912 
 4350000    1.0660374   -0.1732287      1728000    361.85269        21750        15950 
 4360000   0.97819775  -0.17157516      1728000    362.67883        21800        15986 
 4370000    1.0140687  -0.16971204      1728000    363.48749        21850        16024 
 4380000    1.0369406  -0.16096804      1728000    364.29241        21900        16062 
 4390000    1.0532799  -0.16113055      1728000    365.08885        21950        16099 
 4400000    1.0462955  -0.16551499      1728000    365.90811        22000        16132 
 4410000   0.97909292  -0.16673992      1728000    366.71942        22050        16174 
 4420000    1.0308014  -0.16684963      1728000    367.52161        22100        16214 
 4430000   0.98905657  -0.16140409      1728000    368.32681        22150        16253 
 4440000   0.95834798  -0.16656289      1728000    369.15397        22200        16289 
 4450000    1.0224995  -0.18748318      1728000    370.06903        22250        16326 
 4460000   0.96466984  -0.17915151      1728000    370.97411        22300        16365 
 4470000    1.0345539  -0.18428784      1728000    371.88117        22350        16408 
 4480000   0.95488406  -0.18979605      1728000    372.70832        22400        16449 
 4490000    1.0404409  -0.19620432      1728000    373.53115        22450        16486 
 4500000    1.0290755  -0.21330919      1728000    374.35847        22500        16522 
 4510000   0.99849008  -0.20595701      1728000    375.16864        22550        16554 
 4520000   0.98170628  -0.21631613      1728000    375.98181        22600        16588 
 4530000    1.0500178  -0.22542839      1728000    376.78724        22650        16621 
 4540000    1.0190358  -0.21043635      1728000    377.59241        22700        16653 
 4550000   0.91924146  -0.22214356      1728000    378.39759        22750        16686 
 4560000   0.95779198  -0.22140317      1728000    379.19777        22800        16719 
 4570000    1.0118039  -0.21651238      1728000    379.99546        22850        16758 
 4580000    1.0553726  -0.20704632      1728000    380.79452        22900        16796 
 4590000    1.0135298  -0.21482971      1728000    381.64041        22950        16835 
 4600000   0.94747736  -0.22446255      1728000    382.48316        23000        16872 
 4610000   0.99746907   -0.2073608      1728000    383.30942        23050        16913 
 4620000   0.96880606  -0.22639833      1728000    384.18761        23100        16952 
 4630000   0.94865267  -0.20438911      1728000     384.9966        23150        16986 
 4640000    1.0234813  -0.21363225      1728000     385.8046        23200        17026 
 4650000    1.0291808  -0.21283651      1728000    386.62164        23250        17064 
 4660000    1.0232317  -0.21696232      1728000    387.43242        23300        17098 
 4670000    1.0505387  -0.20913809      1728000    388.24234        23350        17137 
 4680000   0.97146841  -0.22464528      1728000    389.05036        23400        17171 
 4690000   0.98908134  -0.21442576      1728000    389.88639        23450        17206 
 4700000   0.94593134  -0.21446764      1728000    390.71047        23500        17235 
 4710000    0.9946582  -0.21466184      1728000    391.53531        23550        17265 
 4720000   0.98198451  -0.20795176      1728000    392.36007        23600        17303 
 4730000   0.98752131  -0.21833721      1728000    393.19729        23650        17339 
 4740000    1.0443375  -0.22288154      1728000    394.00861        23700        17375 
 4750000   0.99500161  -0.22254755      1728000    394.81185        23750        17408 
 4760000   0.97045147  -0.21613074      1728000    395.61862        23800        17441 
 4770000    1.0681479  -0.21613489      1728000    396.42134        23850        17480 
 4780000   0.95645902  -0.22188057      1728000    397.23338        23900        17514 
 4790000    1.0096682  -0.22827157      1728000    398.03948        23950        17548 
 4800000    1.0392079  -0.22095388      1728000    398.84947        24000        17584 
 4810000    1.0376874   -0.2182921      1728000    399.65094        24050        17619 
 4820000    1.0099112  -0.22259169      1728000    400.47712        24100        17653 
 4830000   0.99040637  -0.21610108      1728000    401.28731        24150        17685 
 4840000   0.98955785  -0.20991555      1728000    402.13343        24200        17717 
 4850000    1.0342624  -0.17703357      1728000    402.97657        24250        17756 
 4860000    1.0035974  -0.19465396      1728000    403.84174        24300        17792 
 4870000     1.055753    -0.196397      1728000    404.65311        24350        17832 
 4880000    1.0287628  -0.18561643      1728000    405.45635        24400        17871 
 4890000    1.0266814  -0.19819625      1728000    406.26669        24450        17906 
 4900000    1.0237415  -0.19808029      1728000    407.07286        24500        17947 
 4910000    1.0083276  -0.19493765      1728000    407.87461        24550        17985 
 4920000    1.0118263  -0.17370533      1728000    408.70527        24600        18027 
 4930000    1.0165907  -0.19677159      1728000    409.57437        24650        18056 
 4940000    1.0107206  -0.20663717      1728000    410.38355        24700        18091 
 4950000    0.9904492  -0.20435364      1728000    411.18074        24750        18130 
 4960000    0.9776115  -0.19631339      1728000     411.9869        24800        18169 
 4970000   0.99016283  -0.20868766      1728000    412.82106        24850        18202 
 4980000    1.0399866  -0.18822966      1728000    413.63846        24900        18237 
 4990000    1.0390995     -0.18738      1728000    414.43795        24950        18278 
 5000000   0.97238734  -0.18224309      1728000    415.28609        25000        18316 
 5010000   0.92053134  -0.18614542      1728000    416.14622        25050        18352 
 5020000    1.0348061  -0.17607226      1728000    416.94838        25100        18388 
 5030000    1.0008944  -0.17801692      1728000    417.76955        25150        18426 
 5040000    1.0022157  -0.18872111      1728000    418.56678        25200        18465 
 5050000   0.99395376  -0.19368806      1728000    419.38494        25250        18504 
 5060000      1.01124  -0.17838529      1728000    420.19326        25300        18541 
 5070000   0.93105085  -0.20804649      1728000     421.0264        25350        18581 
 5080000   0.96003237  -0.21519121      1728000     421.9165        25400        18614 
 5090000   0.98778926  -0.23158211      1728000    422.76863        25450        18645 
 5100000    1.0318039  -0.23215394      1728000    423.61674        25500        18684 
 5110000    1.0405761  -0.20540791      1728000      424.424        25550        18721 
 5120000    1.0655393  -0.22783502      1728000    425.26613        25600        18760 
 5130000    1.0177994  -0.21759932      1728000    426.15124        25650        18791 
 5140000    1.0277845  -0.21697595      1728000    427.01134        25700        18831 
 5150000    1.0449847  -0.20962766      1728000    427.84149        25750        18869 
 5160000   0.99289204  -0.20650483      1728000    428.66373        25800        18903 
 5170000    1.0108838  -0.20421603      1728000    429.49387        25850        18941 
 5180000    1.0224542  -0.21006444      1728000    430.45889        25900        18978 
 5190000    1.0340848  -0.22934728      1728000    431.29204        25950        19015 
 5200000   0.96077668  -0.21919906      1728000    432.12319        26000        19052 
 5210000    1.0040782  -0.22241903      1728000    432.97432        26050        19081 
 5220000    1.0084156  -0.22617741      1728000    433.81244        26100        19117 
 5230000    1.0332402  -0.20312708      1728000    434.67656        26150        19155 
 5240000     1.051481  -0.19880762      1728000    435.47875        26200        19197 
 5250000   0.98605471  -0.19577763      1728000    436.28991        26250        19233 
 5260000    1.0120424  -0.18855914      1728000    437.10009        26300        19269 
 5270000    1.0223465  -0.18955365      1728000    437.95521        26350        19303 
 5280000   0.99049831  -0.19166531      1728000    438.78746        26400        19334 
 5290000   0.99412059  -0.20235517      1728000    439.60063        26450        19371 
 5300000    1.0900135  -0.21523214      1728000     440.4268        26500        19412 
 5310000     1.017046  -0.22285027      1728000    441.24008        26550        19446 
 5320000   0.97069348  -0.22582309      1728000    442.07325        26600        19478 
 5330000   0.96420635  -0.23803932      1728000    442.92835        26650        19511 
 5340000   0.97575176  -0.22191786      1728000    443.79546        26700        19546 
 5350000    1.0411927  -0.22034751      1728000    444.60165        26750        19581 
 5360000   0.95606557  -0.23126937      1728000    445.41192        26800        19623 
 5370000    0.9987707  -0.23918805      1728000    446.21809        26850        19661 
 5380000    1.0335068  -0.23360519      1728000    447.02925        26900        19694 
 5390000   0.98362087  -0.23997335      1728000    447.84242        26950        19726 
 5400000     1.036267  -0.24485915      1728000    448.68158        27000        19762 
 5410000   0.99652192  -0.22412701      1728000    449.51487        27050        19799 
 5420000   0.95955987  -0.22880159      1728000    450.31829        27100        19836 
 5430000     1.064093  -0.23200532      1728000    451.12168        27150        19877 
 5440000    1.0118785  -0.23137924      1728000    451.95284        27200        19913 
 5450000   0.99728852  -0.23219748      1728000    452.78798        27250        19953 
 5460000   0.99133688  -0.24769027      1728000    453.60225        27300        19991 
 5470000    1.0385336  -0.22646332      1728000    454.40856        27350        20027 
 5480000   0.98774915  -0.22234988      1728000    455.21486        27400        20063 
 5490000    1.0111256  -0.22263667      1728000    456.02305        27450        20101 
 5500000   0.99548591  -0.21610187      1728000    456.85196        27500        20141 
 5510000   0.91320739  -0.20339775      1728000    457.69012        27550        20176 
 5520000    1.0189613  -0.20671372      1728000    458.49928        27600        20213 
 5530000   0.93514621  -0.21296694      1728000     459.3107        27650        20248 
 5540000    1.0653867   -0.2095009      1728000    460.12234        27700        20279 
 5550000   0.94989277   -0.2075241      1728000    460.92653        27750        20312 
 5560000   0.95116386  -0.22140304      1728000     461.7497        27800        20350 
 5570000   0.98427777   -0.2143397      1728000     462.6188        27850        20385 
 5580000   0.97952705  -0.23387303      1728000    463.48292        27900        20429 
 5590000   0.93414052  -0.24525834      1728000     464.3896        27950        20462 
 5600000   0.98216228  -0.24566799      1728000    465.21418        28000        20502 
 5610000    1.0094754  -0.23574161      1728000     466.0516        28050        20541 
 5620000   0.99959542  -0.22359875      1728000    466.88674        28100        20571 
 5630000    1.0488204  -0.22062159      1728000    467.71805        28150        20608 
 5640000    1.0914386  -0.20905481      1728000    468.59418        28200        20641 
 5650000    1.0629903  -0.22035617      1728000    469.40536        28250        20677 
 5660000    1.0342115  -0.20907736      1728000    470.22751        28300        20709 
 5670000    1.0304814  -0.20270053      1728000    471.06615        28350        20742 
 5680000   0.95961809  -0.20593354      1728000    471.88433        28400        20780 
 5690000    1.0563676  -0.20631032      1728000    472.72745        28450        20814 
 5700000    1.0132817  -0.20492514      1728000    473.56362        28500        20850 
 5710000    1.0191476  -0.22033746      1728000    474.37879        28550        20887 
 5720000    1.0235676  -0.21091094      1728000    475.20049        28600        20923 
 5730000    1.0321365  -0.21941735      1728000    476.03562        28650        20960 
 5740000    1.0351571  -0.20169299      1728000    476.86277        28700        20997 
 5750000    1.0159497   -0.2017172      1728000     477.6962        28750        21036 
 5760000    1.0532076  -0.20477436      1728000     478.5054        28800        21075 
 5770000    1.0446167    -0.208233      1728000    479.31648        28850        21111 
 5780000    1.0033377  -0.21110504      1728000    480.11965        28900        21152 
 5790000    1.0548612  -0.21316231      1728000    480.93582        28950        21184 
 5800000    1.0041722  -0.19891873      1728000     481.8099        29000        21219 
 5810000   0.97400079  -0.18894123      1728000    482.64506        29050        21265 
 5820000    1.0195241  -0.18725329      1728000    483.45322        29100        21300 
 5830000    1.0104378  -0.16177807      1728000    484.27739        29150        21336 
 5840000     1.059061  -0.17303542      1728000     485.1351        29200        21379 
 5850000    1.0394923  -0.18240265      1728000    485.93927        29250        21416 
 5860000   0.99730462  -0.18719104      1728000    486.78259        29300        21458 
 5870000    1.0320758   -0.1953717      1728000    487.58476        29350        21495 
 5880000   0.97759591  -0.18834078      1728000    488.39204        29400        21534 
 5890000    1.0112398  -0.18197826      1728000     489.2059        29450        21572 
 5900000   0.97656071  -0.19081636      1728000    490.03951        29500        21610 
 5910000    1.0104407  -0.18059645      1728000    490.84874        29550        21648 
 5920000    1.0588978  -0.18977179      1728000    491.65406        29600        21687 
 5930000    0.9932213  -0.18734039      1728000    492.49121        29650        21722 
 5940000   0.89512274  -0.18050329      1728000    493.31836        29700        21757 
 5950000   0.98326762  -0.19213731      1728000    494.12254        29750        21794 
 5960000   0.97174532  -0.20992725      1728000    494.92296        29800        21823 
 5970000   0.94409981  -0.20501587      1728000    495.73123        29850        21857 
 5980000    1.0527606  -0.21322788      1728000     496.5604        29900        21897 
 5990000   0.97522164  -0.20894453      1728000    497.39053        29950        21933 
 6000000   0.98334716  -0.20691219      1728000    498.23766        30000        21968 
 6010000   0.94599331  -0.21448059      1728000    499.06882        30050        22000 
 6020000   0.93448092  -0.21785907      1728000    499.88698        30100        22038 
 6030000   0.96599168   -0.2089517      1728000    500.70914        30150        22072 
 6040000   0.96785019   -0.2153726      1728000     501.5144        30200        22111 
 6050000   0.97725225  -0.20810519      1728000    502.36263        30250        22155 
 6060000   0.94728152  -0.21973205      1728000    503.18369        30300        22190 
 6070000     1.058721  -0.21235034      1728000      504.071        30350        22221 
 6080000    1.0259993  -0.22468252      1728000    504.88284        30400        22253 
 6090000      1.04554  -0.22128661      1728000    505.69001        30450        22289 
 6100000   0.99861718  -0.22074441      1728000    506.54351        30500        22323 
 6110000   0.99150126  -0.22098925      1728000    507.35667        30550        22353 
 6120000    1.0540643  -0.23194322      1728000    508.16685        30600        22392 
 6130000   0.94318226  -0.22471795      1728000    508.98314        30650        22424 
 6140000    1.0133059  -0.20525765      1728000     509.7913        30700        22459 
 6150000   0.96861355  -0.21130367      1728000    510.60447        30750        22500 
 6160000   0.99432821  -0.20608003      1728000    511.42164        30800        22540 
 6170000    1.0111949  -0.20487011      1728000    512.24496        30850        22576 
 6180000   0.95495973  -0.20080761      1728000     513.0831        30900        22606 
 6190000    1.0087174   -0.2301096      1728000    513.91926        30950        22637 
 6200000   0.98202774  -0.22365937      1728000     514.7424        31000        22676 
 6210000   0.97706085  -0.22510447      1728000    515.57255        31050        22705 
 6220000    1.0193747  -0.24238024      1728000    516.39392        31100        22740 
 6230000   0.99974349   -0.2389925      1728000    517.22409        31150        22772 
 6240000   0.89436047  -0.20820813      1728000    518.05523        31200        22809 
 6250000   0.96511962  -0.20819632      1728000    518.90839        31250        22852 
 6260000     1.005711  -0.21138297      1728000    519.73059        31300        22887 
 6270000   0.96667243  -0.19949349      1728000     520.6902        31350        22923 
 6280000    1.0653838  -0.22776071      1728000    521.53512        31400        22958 
 6290000    1.0151652  -0.22560074      1728000    522.37411        31450        22993 
 6300000   0.99633036  -0.22924752      1728000    523.22226        31500        23034 
 6310000    1.0427084  -0.22930187      1728000    524.03756        31550        23070 
 6320000    1.0366232  -0.23930783      1728000    524.85572        31600        23102 
 6330000   0.96920799  -0.24403917      1728000    525.67488        31650        23136 
 6340000   0.99943448   -0.2282198      1728000    526.47851        31700        23178 
 6350000    1.0274173   -0.2347875      1728000    527.30169        31750        23214 
 6360000    1.0062229  -0.23562757      1728000    528.16989        31800        23254 
 6370000    1.0495504  -0.23574275      1728000    529.05698        31850        23281 
 6380000   0.99926905   -0.2201141      1728000    529.87316        31900        23312 
 6390000   0.97922127  -0.22775872      1728000    530.68032        31950        23352 
 6400000    0.9733974  -0.22017772      1728000    531.50771        32000        23391 
 6410000    1.0715048  -0.22006651      1728000    532.33786        32050        23424 
 6420000     0.995954  -0.22122752      1728000     533.1733        32100        23457 
 6430000     1.085385  -0.23314129      1728000    533.98746        32150        23495 
 6440000   0.99390551  -0.23286149      1728000    534.82383        32200        23528 
 6450000    1.0954394  -0.22389892      1728000    535.65399        32250        23564 
 6460000    1.0631769  -0.19975165      1728000    536.47421        32300        23600 
 6470000   0.99894371  -0.22116511      1728000    537.27942        32350        23635 
 6480000     1.033417  -0.21272346      1728000    538.11272        32400        23670 
 6490000   0.96647731  -0.19738345      1728000     538.9299        32450        23709 
 6500000    1.0105675  -0.19321875      1728000     539.7463        32500        23749 
 6510000    1.0077508  -0.19656264      1728000    540.55852        32550        23790 
 6520000    1.0067059  -0.21032453      1728000    541.37685        32600        23829 
 6530000    1.0056356  -0.19465284      1728000      542.209        32650        23870 
 6540000   0.92660535  -0.20413392      1728000    543.04915        32700        23910 
 6550000   0.94631683  -0.19943786      1728000    543.90934        32750        23946 
 6560000   0.92556285  -0.19418196      1728000    544.72551        32800        23982 
 6570000    1.0098023  -0.20937504      1728000    545.53466        32850        24021 
 6580000    1.0525358  -0.20745074      1728000    546.36782        32900        24061 
 6590000     1.017458  -0.18594578      1728000    547.17398        32950        24097 
 6600000    1.0106994  -0.19778415      1728000    548.00509        33000        24136 
 6610000   0.93887074  -0.18911361      1728000    548.81515        33050        24183 
 6620000    1.0223839  -0.19495663      1728000    549.61377        33100        24223 
 6630000    1.0055897  -0.18541013      1728000    550.41396        33150        24262 
 6640000   0.95933961  -0.19043257      1728000    551.21514        33200        24299 
 6650000   0.97315376   -0.1879925      1728000    552.02631        33250        24334 
 6660000     1.000361   -0.1818458      1728000    552.86144        33300        24371 
 6670000   0.99254787  -0.19144998      1728000    553.67396        33350        24405 
 6680000    1.0128965  -0.19216296      1728000    554.48043        33400        24444 
 6690000     1.003238  -0.18704152      1728000    555.33056        33450        24481 
 6700000    1.0239992  -0.19775256      1728000    556.17168        33500        24519 
 6710000    1.0362104  -0.18688928      1728000    556.99185        33550        24560 
 6720000   0.99498764  -0.19902351      1728000    557.79905        33600        24601 
 6730000    1.0292584  -0.18955962      1728000    558.60346        33650        24636 
 6740000   0.98567628  -0.19439753      1728000    559.41363        33700        24670 
 6750000    1.0277294  -0.19534039      1728000    560.20686        33750        24709 
 6760000   0.98657102  -0.19754583      1728000    561.01205        33800        24745 
 6770000    1.0466695   -0.1925222      1728000    561.81921        33850        24778 
 6780000    1.0196906  -0.18509112      1728000    562.65735        33900        24815 
 6790000   0.99340839  -0.19854627      1728000    563.46953        33950        24849 
 6800000   0.96710135  -0.19215672      1728000     564.2897        34000        24888 
 6810000   0.99062426  -0.19690483      1728000    565.10941        34050        24924 
 6820000    0.9748571  -0.18679311      1728000    565.93084        34100        24963 
 6830000   0.95340359    -0.184208      1728000    566.72112        34150        25002 
 6840000    1.0092772  -0.19288694      1728000    567.51909        34200        25040 
 6850000   0.95886197  -0.18338555      1728000    568.30915        34250        25078 
 6860000    1.0307906  -0.18444275      1728000    569.13115        34300        25119 
 6870000    0.9946155  -0.19499607      1728000    569.93192        34350        25153 
 6880000   0.96612953     -0.20111      1728000     570.7471        34400        25189 
 6890000    1.0103184  -0.19024491      1728000    571.54927        34450        25223 
 6900000    1.0435648   -0.1902111      1728000    572.37643        34500        25260 
 6910000   0.97939321  -0.18691338      1728000    573.19958        34550        25298 
 6920000    1.0363732  -0.20447761      1728000    574.08667        34600        25334 
 6930000    1.0172543  -0.20119029      1728000    574.89498        34650        25369 
 6940000   0.98526141  -0.21543652      1728000    575.69944        34700        25409 
 6950000   0.97740137  -0.21131983      1728000    576.50728        34750        25445 
 6960000    1.0705965  -0.20035818      1728000    577.34715        34800        25481 
 6970000    1.0517219  -0.20034082      1728000    578.21684        34850        25518 
 6980000    1.0315014   -0.1970195      1728000    579.13895        34900        25555 
 6990000    1.0167935  -0.21498484      1728000    580.09597        34950        25591 
 7000000    1.0275089  -0.20760116      1728000    580.93113        35000        25634 
 7010000    0.9572727  -0.22165861      1728000    581.74828        35050        25668 
 7020000    1.0723193  -0.22401793      1728000    582.59341        35100        25705 
 7030000    1.0138869  -0.20757981      1728000    583.41558        35150        25747 
 7040000   0.98522217  -0.22756662      1728000    584.23472        35200        25784 
 7050000    1.0354957  -0.21182208      1728000     585.0399        35250        25822 
 7060000    1.0703607  -0.22503137      1728000    585.85507        35300        25851 
 7070000   0.96676327  -0.22169934      1728000    586.65926        35350        25883 
 7080000   0.96506239  -0.22955171      1728000    587.46643        35400        25921 
 7090000    1.0169382  -0.23014695      1728000    588.28159        35450        25951 
 7100000    1.0485136  -0.22954381      1728000    589.11574        35500        25985 
 7110000   0.98316851  -0.23122148      1728000    589.96688        35550        26019 
 7120000   0.97187677  -0.21655281      1728000    590.81031        35600        26054 
 7130000   0.97087402  -0.21866349      1728000    591.62562        35650        26094 
 7140000    0.9496884  -0.21874242      1728000    592.46178        35700        26127 
 7150000   0.96845885  -0.20354385      1728000    593.34986        35750        26167 
 7160000   0.97747696  -0.22464407      1728000    594.17508        35800        26203 
 7170000   0.95839418  -0.21611276      1728000    594.97194        35850        26238 
 7180000    0.9951529  -0.20145475      1728000    595.76466        35900        26275 
 7190000    1.0214646  -0.21086601      1728000     596.5631        35950        26309 
 7200000   0.99197143  -0.19842921      1728000    597.40045        36000        26349 
 7210000    0.9663901  -0.19306627      1728000    598.20402        36050        26386 
 7220000    1.0311971  -0.20278486      1728000    599.02006        36100        26419 
 7230000    1.0263173  -0.21916051      1728000    599.85528        36150        26456 
 7240000    1.0077062  -0.22187955      1728000    600.67237        36200        26493 
 7250000    0.9592759  -0.21584324      1728000    601.58412        36250        26534 
 7260000   0.98012555  -0.20394938      1728000    602.42614        36300        26574 
 7270000   0.97973386  -0.20210811      1728000    603.24794        36350        26612 
 7280000    1.0377428  -0.22818056      1728000    604.11331        36400        26649 
 7290000   0.99301232  -0.21819388      1728000    604.92998        36450        26676 
 7300000   0.96465601  -0.22628052      1728000    605.79907        36500        26708 
 7310000    1.0069018  -0.19269808      1728000    606.65659        36550        26742 
 7320000   0.97367415  -0.21274876      1728000    607.49074        36600        26780 
 7330000     1.032026  -0.21856455      1728000    608.32093        36650        26817 
 7340000   0.97922862  -0.20939416      1728000    609.13229        36700        26855 
 7350000    1.0079563  -0.20468083      1728000    609.95248        36750        26892 
 7360000    1.0296642  -0.21575083      1728000    610.77885        36800        26925 
 7370000    1.0382314  -0.21333118      1728000      611.593        36850        26963 
 7380000     0.982046  -0.21736554      1728000    612.43314        36900        26999 
 7390000    1.0278915   -0.2253542      1728000    613.27329        36950        27027 
 7400000   0.96164727  -0.22456172      1728000    614.12844        37000        27060 
 7410000   0.98598246  -0.23963068      1728000    614.94287        37050        27099 
 7420000   0.97405514  -0.22424363      1728000    615.75328        37100        27136 
 7430000    1.0339233  -0.20670217      1728000    616.55845        37150        27176 
 7440000   0.97032059  -0.19695807      1728000    617.35564        37200        27215 
 7450000   0.97669628  -0.19424772      1728000    618.15783        37250        27249 
 7460000   0.95274999  -0.19657958      1728000    618.98902        37300        27279 
 7470000   0.91708892   -0.1957209      1728000     619.7912        37350        27312 
 7480000   0.96646915  -0.20431322      1728000    620.59339        37400        27350 
 7490000   0.98092793  -0.19671199      1728000    621.39672        37450        27390 
 7500000   0.94233313  -0.19121292      1728000    622.22587        37500        27430 
 7510000    1.0057896   -0.1881659      1728000    623.04903        37550        27467 
 7520000    1.0671988  -0.19301743      1728000     623.8592        37600        27508 
 7530000   0.96221892  -0.18509337      1728000    624.66438        37650        27548 
 7540000   0.94878803  -0.19376824      1728000    625.49452        37700        27584 
 7550000     1.049622  -0.18375751      1728000    626.28991        37750        27625 
 7560000   0.98016268    -0.206795      1728000    627.08525        37800        27665 
 7570000   0.98642622  -0.19253776      1728000    627.88046        37850        27702 
 7580000    1.0338348  -0.20549001      1728000     628.6976        37900        27743 
 7590000   0.98709196  -0.21224322      1728000    629.51787        37950        27774 
 7600000   0.98124596  -0.23220151      1728000    630.33502        38000        27812 
 7610000   0.94767858  -0.22063251      1728000    631.15619        38050        27846 
 7620000     1.063772  -0.20702414      1728000    632.02229        38100        27885 
 7630000    1.0214618  -0.22075237      1728000    632.86942        38150        27916 
 7640000   0.97772123  -0.21312363      1728000    633.72954        38200        27950 
 7650000    1.0721465  -0.20144892      1728000    634.54771        38250        27986 
 7660000    1.0692817  -0.21048359      1728000    635.35888        38300        28028 
 7670000    1.0293573  -0.20234844      1728000    636.17005        38350        28060 
 7680000   0.99103052  -0.18885839      1728000    636.97323        38400        28091 
 7690000    0.9626637     -0.19075      1728000    637.77139        38450        28130 
 7700000   0.99565617  -0.20288465      1728000    638.57584        38500        28165 
 7710000   0.99297643  -0.21412994      1728000    639.41399        38550        28202 
 7720000    1.0450455  -0.19117417      1728000    640.21917        38600        28242 
 7730000    1.0093416  -0.20837836      1728000    641.02262        38650        28279 
 7740000    1.0219524  -0.20789705      1728000    641.82279        38700        28314 
 7750000    1.0585929  -0.21197921      1728000    642.65294        38750        28352 
 7760000   0.98546356  -0.21202794      1728000    643.53904        38800        28387 
 7770000   0.96676379  -0.21473649      1728000    644.38216        38850        28416 
 7780000    1.0108647  -0.21884777      1728000    645.20932        38900        28452 
 7790000   0.96965598  -0.22773896      1728000    646.07047        38950        28488 
 7800000    0.9505305  -0.23036902      1728000     646.9805        39000        28524 
 7810000   0.95963666  -0.22990017      1728000    647.85361        39050        28556 
 7820000    1.0244335  -0.20746548      1728000    648.67179        39100        28595 
 7830000    1.0952014  -0.22612707      1728000    649.54487        39150        28626 
 7840000    1.0052005  -0.22729092      1728000    650.37105        39200        28661 
 7850000    0.9931967  -0.20984456      1728000    651.21917        39250        28703 
 7860000    1.0269098  -0.20060182      1728000    652.08528        39300        28738 
 7870000   0.95738253  -0.19676863      1728000     652.9354        39350        28777 
 7880000    1.0185162  -0.19715474      1728000    653.75056        39400        28814 
 7890000    1.0377062  -0.20848208      1728000    654.56486        39450        28853 
 7900000   0.96282573  -0.19037706      1728000    655.38304        39500        28890 
 7910000    1.0171501  -0.19122842      1728000    656.22523        39550        28926 
 7920000    1.0108559  -0.18786399      1728000    657.06646        39600        28962 
 7930000   0.97975275  -0.18104104      1728000    657.87564        39650        28996 
 7940000   0.97341834    -0.177315      1728000    658.70777        39700        29030 
 7950000     1.064278  -0.19278469      1728000    659.50797        39750        29072 
 7960000    1.0617363  -0.17520038      1728000    660.31216        39800        29106 
 7970000   0.96985584   -0.1810872      1728000    661.11236        39850        29149 
 7980000       1.0092  -0.18193629      1728000    661.91454        39900        29188 
 7990000    1.0034933  -0.17512351      1728000     662.7517        39950        29225 
 8000000    1.0096517  -0.19165454      1728000    663.57284        40000        29261 
 8010000    1.0575832  -0.18955173      1728000    664.40199        40050        29294 
 8020000   0.97210827  -0.19478924      1728000    665.20737        40100        29333 
 8030000    1.0015907  -0.21530096      1728000    666.03915        40150        29368 
 8040000    1.0102584  -0.21335905      1728000    666.85214        40200        29405 
 8050000    1.0054919  -0.22927157      1728000    667.66899        40250        29440 
 8060000    1.0205589  -0.23681468      1728000    668.51071        40300        29473 
 8070000    0.9748617  -0.23176909      1728000     669.3898        40350        29503 
 8080000    1.0125659  -0.23389526      1728000    670.23114        40400        29531 
 8090000    1.0397996  -0.21879868      1728000    671.05328        40450        29562 
 8100000    1.0381327  -0.23168512      1728000    671.87563        40500        29593 
 8110000   0.98598491  -0.24450009      1728000    672.70777        40550        29626 
 8120000   0.98398438   -0.2191133      1728000    673.52595        40600        29666 
 8130000   0.96893911  -0.23274771      1728000    674.38906        40650        29703 
 8140000    1.0168702  -0.22155487      1728000    675.24019        40700        29738 
 8150000    1.0283711  -0.20606879      1728000    676.18422        40750        29775 
 8160000    0.9485695  -0.22111856      1728000    677.04734        40800        29814 
 8170000    1.0229045   -0.2154259      1728000    677.92144        40850        29855 
 8180000    1.0528474  -0.21506237      1728000    678.74659        40900        29891 
 8190000    1.0365876  -0.22048731      1728000    679.56976        40950        29923 
 8200000    1.0273885  -0.23533839      1728000    680.38704        41000        29961 
 8210000    1.0292013  -0.22524652      1728000    681.22218        41050        29992 
 8220000    1.0128743   -0.2252705      1728000    682.03633        41100        30031 
 8230000    1.0267716  -0.21780781      1728000    682.87349        41150        30067 
 8240000    0.9810462  -0.23793287      1728000    683.68133        41200        30100 
 8250000   0.98669533  -0.22361822      1728000    684.48606        41250        30132 
 8260000    1.0309776  -0.22226073      1728000    685.29067        41300        30164 
 8270000   0.99952536  -0.22855777      1728000    686.10304        41350        30202 
 8280000   0.96802313  -0.21644022      1728000    686.91521        41400        30236 
 8290000   0.99155504  -0.21816593      1728000    687.73538        41450        30268 
 8300000    1.0111103  -0.19645989      1728000    688.55356        41500        30297 
 8310000   0.98077885  -0.18596068      1728000    689.35872        41550        30336 
 8320000   0.93620294  -0.19709763      1728000     690.1619        41600        30372 
 8330000    1.0479783  -0.21232018      1728000    690.96909        41650        30407 
 8340000    1.0304642  -0.19113796      1728000    691.76627        41700        30448 
 8350000   0.96540566  -0.19441242      1728000    692.58644        41750        30480 
 8360000   0.99432775  -0.21632725      1728000    693.46853        41800        30518 
 8370000     1.014881  -0.20494113      1728000    694.30368        41850        30554 
 8380000    0.9392047  -0.21013345      1728000    695.14481        41900        30595 
 8390000    0.9877284   -0.1985578      1728000    696.01993        41950        30629 
 8400000   0.96150747  -0.19792167      1728000    696.88902        42000        30664 
 8410000    1.0514426  -0.18697094      1728000    697.73915        42050        30702 
 8420000   0.95418259   -0.1978416      1728000    698.54734        42100        30743 
 8430000   0.95736145  -0.18249737      1728000    699.42344        42150        30780 
 8440000    1.0101391  -0.18921144      1728000    700.29353        42200        30816 
 8450000   0.95868911  -0.19490254      1728000    701.13567        42250        30853 
 8460000   0.93332945   -0.1978352      1728000    702.07271        42300        30889 
 8470000   0.95368572  -0.19991927      1728000    702.95082        42350        30924 
 8480000    1.0122889  -0.21027357      1728000    703.78696        42400        30963 
 8490000    1.0299221  -0.20934062      1728000    704.59113        42450        30998 
 8500000    1.0438152  -0.21821789      1728000     705.4073        42500        31031 
 8510000    1.0073064  -0.21988534      1728000    706.28042        42550        31065 
 8520000     1.001109   -0.2054059      1728000     707.0976        42600        31099 
 8530000    1.0456211  -0.22967643      1728000    707.96771        42650        31135 
 8540000   0.99851609  -0.21878165      1728000    708.80187        42700        31173 
 8550000   0.99929282   -0.2231735      1728000    709.66398        42750        31207 
 8560000   0.96494618  -0.20627662      1728000    710.53709        42800        31244 
 8570000   0.93988085  -0.21276607      1728000    711.37923        42850        31279 
 8580000   0.97584512  -0.21542676      1728000    712.19139        42900        31314 
 8590000    1.0118549  -0.22297571      1728000    713.02055        42950        31348 
 8600000   0.97683676  -0.21542488      1728000      713.833        43000        31389 
 8610000    1.0352372  -0.21169759      1728000    714.63418        43050        31424 
 8620000    1.0217714  -0.20989552      1728000    715.43239        43100        31457 
 8630000    1.0177932  -0.21663496      1728000    716.28252        43150        31489 
 8640000    0.9814755  -0.22153219      1728000    717.08371        43200        31526 
 8650000    1.0094736   -0.2155328      1728000    717.89087        43250        31559 
 8660000    1.0475721  -0.22514394      1728000      718.739        43300        31595 
 8670000    1.0230294  -0.22270372      1728000    719.54522        43350        31627 
 8680000    1.0103017  -0.19777991      1728000    720.35258        43400        31661 
 8690000    1.0477412  -0.20889407      1728000    721.15776        43450        31697 
 8700000   0.94985239    -0.206455      1728000    721.97192        43500        31734 
 8710000    1.0564908  -0.18574714      1728000    722.79608        43550        31767 
 8720000    1.0123778  -0.18880951      1728000    723.61224        43600        31807 
 8730000    1.0488632  -0.20119997      1728000      724.425        43650        31840 
 8740000    1.0013546  -0.18462831      1728000    725.24385        43700        31874 
 8750000    1.0358179  -0.18650401      1728000    726.03696        43750        31918 
 8760000    1.0557945  -0.18671924      1728000    726.84102        43800        31952 
 8770000    1.0152538  -0.18821543      1728000    727.64007        43850        31989 
 8780000   0.99912117  -0.19618377      1728000    728.44384        43900        32029 
 8790000   0.96345948  -0.19266896      1728000    729.27487        43950        32072 
 8800000   0.92886206  -0.20754935      1728000    730.08626        44000        32111 
 8810000    1.0211952  -0.21492744      1728000    730.88689        44050        32144 
 8820000    0.9434564  -0.22070283      1728000     731.6989        44100        32178 
 8830000   0.99591044  -0.23536285      1728000    732.54906        44150        32218 
 8840000    1.0076625  -0.22108229      1728000    733.38205        44200        32255 
 8850000   0.95520907  -0.20246809      1728000     734.1959        44250        32294 
 8860000   0.96123948  -0.21273875      1728000    735.05772        44300        32331 
 8870000   0.98323934  -0.22283266      1728000    735.91472        44350        32367 
 8880000     1.009192  -0.23089529      1728000    736.72642        44400        32406 
 8890000   0.97050335   -0.2114897      1728000    737.52461        44450        32449 
 8900000   0.93222016  -0.23423136      1728000    738.33678        44500        32487 
 8910000    0.9451844  -0.22587148      1728000    739.13897        44550        32522 
 8920000     1.039239  -0.22619993      1728000    739.95313        44600        32561 
 8930000   0.99276138  -0.23148667      1728000    740.75429        44650        32592 
 8940000    1.0104727  -0.23282948      1728000    741.55547        44700        32625 
 8950000   0.96415161  -0.24450062      1728000    742.38163        44750        32662 
 8960000    1.0198018   -0.2438721      1728000    743.24174        44800        32693 
 8970000   0.99001305  -0.23592803      1728000    744.06991        44850        32729 
 8980000   0.97701464  -0.22104636      1728000    744.88806        44900        32766 
 8990000     1.019155  -0.21721836      1728000    745.72413        44950        32807 
 9000000      1.04358  -0.18924819      1728000     746.5486        45000        32844 
 9010000    1.0442532  -0.21130687      1728000    747.35477        45050        32875 
 9020000   0.97588516  -0.20725038      1728000    748.15547        45100        32909 
 9030000    1.0650501  -0.21521968      1728000    748.95767        45150        32947 
 9040000   0.99926747   -0.2193053      1728000    749.77783        45200        32987 
 9050000   0.93077246  -0.22302768      1728000    750.60199        45250        33019 
 9060000    1.0878364  -0.21450335      1728000    751.40117        45300        33058 
 9070000   0.95961017  -0.20446571      1728000    752.24068        45350        33099 
 9080000   0.99924572  -0.20948308      1728000    753.07094        45400        33136 
 9090000   0.98893027  -0.20125282      1728000    753.94404        45450        33173 
 9100000   0.95801681  -0.20952749      1728000    754.83313        45500        33209 
 9110000    0.9502168  -0.19998028      1728000    755.70126        45550        33247 
 9120000   0.94263533  -0.21964701      1728000     756.5344        45600        33281 
 9130000    1.0093034  -0.21697616      1728000    757.38954        45650        33320 
 9140000    1.0379887  -0.21614736      1728000    758.27564        45700        33359 
 9150000   0.99625879  -0.21066931      1728000    759.14074        45750        33399 
 9160000    1.0137079   -0.2153863      1728000    760.02084        45800        33434 
 9170000      0.95227  -0.21564112      1728000    760.84999        45850        33471 
 9180000   0.94622159  -0.21960602      1728000    761.69711        45900        33508 
 9190000     1.039424  -0.23605358      1728000    762.58521        45950        33548 
 9200000    1.0292683  -0.25226853      1728000    763.41836        46000        33583 
 9210000   0.99523386   -0.2474306      1728000    764.23353        46050        33619 
 9220000   0.96192857  -0.23651617      1728000    765.03872        46100        33652 
 9230000     1.009298  -0.24230086      1728000    765.87986        46150        33686 
 9240000    1.0051712  -0.21665699      1728000    766.69604        46200        33724 
 9250000    1.0435694  -0.21942646      1728000    767.50522        46250        33758 
 9260000   0.99501738  -0.19326157      1728000    768.32638        46300        33793 
 9270000    1.0015316  -0.18701748      1728000    769.14386        46350        33833 
 9280000   0.96551365  -0.20273475      1728000    769.94684        46400        33865 
 9290000     0.963255  -0.19086484      1728000    770.74562        46450        33902 
 9300000   0.98656328  -0.18062673      1728000    771.56492        46500        33939 
 9310000   0.99896578  -0.17911835      1728000    772.42496        46550        33973 
 9320000    0.9928473   -0.1940334      1728000    773.24481        46600        34008 
 9330000   0.98319251  -0.20799883      1728000    774.13481        46650        34046 
 9340000    1.0190077   -0.1976637      1728000    775.00987        46700        34079 
 9350000    0.9969551    -0.211289      1728000    775.89473        46750        34114 
 9360000   0.98135403  -0.20605716      1728000    776.75992        46800        34156 
 9370000    0.9300053  -0.22926701      1728000    777.63095        46850        34190 
 9380000    1.0380263  -0.22325699      1728000    778.48989        46900        34227 
 9390000   0.95514736  -0.24390205      1728000    779.39799        46950        34258 
 9400000   0.90770676  -0.23363085      1728000    780.30001        47000        34292 
 9410000   0.98379878   -0.2446685      1728000    781.10398        47050        34328 
 9420000    0.9987664  -0.23046412      1728000    781.91798        47100        34366 
 9430000    1.0044241  -0.22607443      1728000    782.76253        47150        34399 
 9440000    1.0889891  -0.22099679      1728000     783.5977        47200        34437 
 9450000    1.0029145  -0.23045019      1728000    784.44084        47250        34470 
 9460000    1.0128597  -0.24575088      1728000    785.30094        47300        34504 
 9470000   0.94338609  -0.24071078      1728000    786.15508        47350        34538 
 9480000   0.99559347  -0.23322461      1728000    787.02219        47400        34573 
 9490000    1.0464633  -0.23763115      1728000    787.90328        47450        34611 
 9500000     0.990835  -0.22264092      1728000    788.80236        47500        34649 
 9510000   0.97955389  -0.22169198      1728000    789.66648        47550        34684 
 9520000   0.96498615  -0.21464374      1728000    790.50361        47600        34721 
 9530000   0.96694405  -0.21764395      1728000    791.36873        47650        34754 
 9540000   0.98142356  -0.22291267      1728000    792.20087        47700        34788 
 9550000   0.99605335  -0.20232716      1728000    793.10295        47750        34827 
 9560000    1.0559471  -0.22003991      1728000     793.9381        47800        34860 
 9570000    1.0141383  -0.21562191      1728000    794.76225        47850        34893 
 9580000    1.0424196  -0.20592476      1728000    795.64336        47900        34925 
 9590000    1.0011331  -0.22656939      1728000    796.45451        47950        34957 
 9600000   0.95968406  -0.20975619      1728000    797.31364        48000        34991 
 9610000    1.0217624  -0.20356664      1728000    798.12981        48050        35025 
 9620000   0.98051994  -0.21276143      1728000    798.98394        48100        35063 
 9630000   0.96181393  -0.21415416      1728000      799.882        48150        35098 
 9640000    1.0189388  -0.21761249      1728000    800.74515        48200        35134 
 9650000   0.98099856  -0.21307949      1728000    801.60224        48250        35171 
 9660000   0.99071001  -0.22005501      1728000    802.47835        48300        35208 
 9670000    1.0182235  -0.20747333      1728000    803.36443        48350        35246 
 9680000    1.0461451   -0.2005394      1728000    804.21958        48400        35286 
 9690000   0.96194223  -0.19309637      1728000    805.03975        48450        35322 
 9700000    1.0029003  -0.19081531      1728000    805.88287        48500        35361 
 9710000    1.0161581  -0.18369242      1728000    806.70303        48550        35401 
 9720000    1.0638741  -0.20052061      1728000    807.50622        48600        35437 
 9730000   0.97560019  -0.20012442      1728000    808.33241        48650        35478 
 9740000    1.0409227  -0.21164215      1728000    809.15858        48700        35516 
 9750000   0.96843581  -0.20284886      1728000    809.97773        48750        35552 
 9760000    1.0455521  -0.20244349      1728000    810.79886        48800        35590 
 9770000   0.99030318   -0.2110104      1728000    811.60402        48850        35619 
 9780000   0.93043685  -0.20706217      1728000    812.45116        48900        35653 
 9790000   0.96732247  -0.19467629      1728000    813.28134        48950        35690 
 9800000   0.98522977  -0.18870026      1728000    814.14945        49000        35732 
 9810000   0.92636929  -0.19634067      1728000    814.95967        49050        35763 
 9820000    0.9793753  -0.20028653      1728000    815.77122        49100        35792 
 9830000   0.98864409  -0.19513746      1728000    816.58041        49150        35827 
 9840000   0.93088726   -0.1896542      1728000    817.38279        49200        35868 
 9850000   0.96347117    -0.187321      1728000      818.195        49250        35903 
 9860000   0.95888197  -0.18267864      1728000    819.00721        49300        35943 
 9870000    1.0085053  -0.17968486      1728000    819.81548        49350        35979 
 9880000   0.96595691  -0.18568295      1728000    820.61764        49400        36011 
 9890000     1.041191  -0.18232852      1728000    821.42483        49450        36052 
 9900000    1.0567173  -0.17844689      1728000    822.29494        49500        36093 
 9910000    1.0090028  -0.17787226      1728000    823.13509        49550        36132 
 9920000   0.97870255  -0.18718692      1728000     824.0062        49600        36171 
 9930000    1.0382727  -0.20027324      1728000     824.8733        49650        36210 
 9940000    1.0077779  -0.19756144      1728000     825.6775        49700        36242 
 9950000    1.0351746  -0.21143498      1728000    826.49269        49750        36279 
 9960000   0.98241636  -0.21151095      1728000    827.30387        49800        36314 
 9970000    1.0224062  -0.19758916      1728000    828.09107        49850        36358 
 9980000    1.0055771  -0.19168781      1728000    828.88926        49900        36391 
 9990000   0.99835134  -0.18088435      1728000    829.69652        49950        36429 
10000000    1.0068178  -0.19094878      1728000    830.50594        50000        36470 
10010000   0.97607388  -0.19937974      1728000    831.30812        50050        36506 
10020000    0.9918336  -0.19841622      1728000    832.11008        50100        36543 
10030000    1.0541289  -0.19451136      1728000    832.93723        50150        36579 
10040000   0.94735723  -0.18726218      1728000    833.81734        50200        36610 
10050000    1.0472536  -0.19083497      1728000    834.64648        50250        36644 
10060000    1.1044527  -0.18802313      1728000    835.55255        50300        36682 
10070000   0.98691904  -0.18587994      1728000     836.3907        50350        36720 
10080000   0.97921557  -0.17223878      1728000    837.23083        50400        36760 
10090000    1.0550213  -0.18527761      1728000    838.08298        50450        36802 
10100000   0.97253993  -0.17180332      1728000    839.05905        50500        36832 
10110000    1.0421414   -0.1840707      1728000    839.94012        50550        36867 
10120000    1.0352296   -0.1849749      1728000    840.79625        50600        36906 
10130000   0.95890164  -0.18779398      1728000    841.59943        50650        36940 
10140000   0.95536087  -0.18227457      1728000    842.42159        50700        36979 
10150000   0.99623352  -0.17378987      1728000    843.23875        50750        37020 
10160000    1.0412923  -0.19216261      1728000    844.03993        50800        37056 
10170000    1.0328148  -0.18512672      1728000    844.84115        50850        37088 
10180000   0.98552247   -0.1982709      1728000    845.66632        50900        37124 
10190000    1.0278366  -0.18539142      1728000    846.46575        50950        37165 
10200000     0.969356  -0.19251413      1728000    847.27412        51000        37200 
10210000    1.0613515  -0.17876144      1728000    848.08628        51050        37243 
10220000    1.0024081  -0.19643874      1728000    848.90345        51100        37283 
10230000   0.98414112  -0.18534165      1728000    849.70279        51150        37319 
10240000   0.95168213  -0.19225021      1728000    850.49807        51200        37357 
10250000    1.0067641  -0.19541532      1728000    851.40288        51250        37392 
10260000   0.95059254  -0.19175537      1728000    852.25802        51300        37431 
10270000    1.0153144  -0.19532846      1728000    853.08417        51350        37466 
10280000   0.99271797  -0.20428679      1728000    853.88976        51400        37501 
10290000   0.93797086  -0.21993149      1728000    854.70692        51450        37539 
10300000    1.0141729  -0.20365037      1728000     855.5298        51500        37579 
10310000   0.93532373  -0.21267336      1728000    856.39488        51550        37611 
10320000   0.97901536  -0.21971203      1728000     857.2008        51600        37647 
10330000   0.94576676  -0.21395673      1728000    858.00976        51650        37688 
10340000    1.0932387  -0.21477837      1728000    858.83092        51700        37721 
10350000     1.022236  -0.19649857      1728000    859.63611        51750        37755 
10360000   0.93791995  -0.21669469      1728000    860.49026        51800        37788 
10370000   0.94605129  -0.18629094      1728000    861.30443        51850        37821 
10380000    1.0199827  -0.20304551      1728000    862.12459        51900        37856 
10390000    1.0174201  -0.19701217      1728000    862.96272        51950        37888 
10400000    1.0623689  -0.20688647      1728000    863.78489        52000        37930 
10410000   0.97741419  -0.17891898      1728000    864.58308        52050        37968 
10420000    1.0254232  -0.16575029      1728000    865.47316        52100        38004 
10430000   0.95867277   -0.1851955      1728000     866.3003        52150        38044 
10440000   0.95345072  -0.17666731      1728000    867.12246        52200        38084 
10450000    1.0022713  -0.17078142      1728000    867.92863        52250        38121 
10460000    1.0146727  -0.19504212      1728000    868.75381        52300        38165 
10470000    1.0247173  -0.17622932      1728000    869.56148        52350        38200 
10480000     1.057389  -0.16969556      1728000    870.36165        52400        38238 
10490000    1.0020885  -0.18737928      1728000     871.1908        52450        38278 
10500000    1.0293483  -0.18874134      1728000    872.00698        52500        38314 
10510000    1.0189354  -0.20555907      1728000    872.84812        52550        38355 
10520000    1.0036876  -0.20933532      1728000    873.66628        52600        38393 
10530000    1.0231563  -0.20491048      1728000    874.46867        52650        38430 
10540000    1.0202638  -0.20401862      1728000    875.32171        52700        38460 
10550000   0.98155541   -0.2055186      1728000    876.15038        52750        38498 
10560000   0.99551251  -0.19615557      1728000    876.96084        52800        38534 
10570000    1.0990049  -0.22955873      1728000    877.76654        52850        38570 
10580000    1.0013309  -0.22925039      1728000    878.57254        52900        38606 
10590000   0.91229109   -0.2399995      1728000    879.38789        52950        38636 
10600000   0.96514737  -0.22789634      1728000    880.20465        53000        38676 
10610000   0.96435092    -0.211841      1728000    881.00574        53050        38716 
10620000    0.9840693  -0.23107004      1728000    881.91047        53100        38751 
10630000    0.9932717  -0.20448659      1728000    882.75509        53150        38787 
10640000    1.0449086  -0.21977139      1728000    883.56428        53200        38825 
10650000    0.9779873  -0.20214228      1728000    884.37145        53250        38863 
10660000    1.0193477  -0.20530435      1728000     885.1976        53300        38902 
10670000    1.0126786  -0.22237481      1728000    886.03475        53350        38938 
10680000    1.0293054  -0.19718252      1728000    886.84791        53400        38974 
10690000    1.1050231  -0.20061656      1728000    887.66315        53450        39008 
10700000    1.0355091   -0.1863093      1728000    888.52736        53500        39047 
10710000    1.0188572  -0.18409274      1728000    889.34052        53550        39084 
10720000      1.01578  -0.19669177      1728000    890.14269        53600        39122 
10730000    1.0254259  -0.19351604      1728000    890.97286        53650        39151 
10740000   0.98563446   -0.2113458      1728000    891.78602        53700        39189 
10750000   0.93594793   -0.1989675      1728000    892.62098        53750        39232 
10760000    1.0186958  -0.19001631      1728000    893.48313        53800        39272 
10770000   0.97143398  -0.18687297      1728000    894.33924        53850        39312 
10780000   0.99085925  -0.18422079      1728000     895.1734        53900        39355 
10790000    1.0280095  -0.17798306      1728000    895.99355        53950        39393 
10800000    1.0401615  -0.18839011      1728000     896.8337        54000        39433 
10810000   0.99212748  -0.19264438      1728000    897.74375        54050        39469 
10820000    1.0409966   -0.1758879      1728000    898.56446        54100        39503 
10830000    1.0426399  -0.18097313      1728000    899.37463        54150        39540 
10840000    1.0488978  -0.17363079      1728000    900.19978        54200        39581 
10850000   0.96032785  -0.17890052      1728000    901.00197        54250        39613 
10860000    1.0365299  -0.19090484      1728000    901.87106        54300        39648 
10870000   0.97629259  -0.21140682      1728000    902.69921        54350        39692 
10880000    1.0111986  -0.21208509      1728000    903.54037        54400        39723 
10890000   0.93613648  -0.21937377      1728000    904.35551        54450        39763 
10900000    1.0613102  -0.21999139      1728000    905.18967        54500        39797 
10910000    1.0031102  -0.21502697      1728000     906.0298        54550        39835 
10920000   0.96899738  -0.20905299      1728000    906.83798        54600        39872 
10930000    1.0190904  -0.19986137      1728000    907.68001        54650        39910 
10940000     1.027371  -0.20010446      1728000    908.52416        54700        39944 
10950000    1.0172025  -0.19562995      1728000     909.3573        54750        39985 
10960000   0.99934202  -0.19512971      1728000    910.16947        54800        40023 
10970000   0.94878263  -0.19501264      1728000    911.06457        54850        40062 
10980000   0.96580594  -0.19158081      1728000    911.87871        54900        40097 
10990000   0.96806005  -0.20640594      1728000    912.71686        54950        40134 
11000000    1.0191686  -0.21483949      1728000    913.53702        55000        40168 
11010000    1.0086979   -0.2115591      1728000    914.36363        55050        40204 
11020000    1.0554128  -0.19549096      1728000     915.1892        55100        40236 
11030000   0.99155097  -0.21182482      1728000    916.01734        55150        40273 
11040000   0.94346481  -0.22529054      1728000    916.84449        55200        40311 
11050000   0.99898718   -0.2129528      1728000    917.68266        55250        40345 
11060000    1.0190587  -0.22192952      1728000    918.51183        55300        40380 
11070000   0.95420006  -0.21667313      1728000    919.35596        55350        40415 
11080000    1.0503918  -0.20421281      1728000    920.16812        55400        40449 
11090000    1.0866158  -0.21520885      1728000    921.03224        55450        40488 
11100000   0.97209317  -0.21047398      1728000     921.8604        55500        40530 
11110000    1.0012929  -0.22018312      1728000    922.70155        55550        40564 
11120000     0.933769  -0.21273344      1728000    923.55268        55600        40600 
11130000   0.96866347  -0.23193808      1728000    924.39183        55650        40634 
11140000    1.0110795  -0.23007868      1728000    925.33985        55700        40671 
11150000   0.99551641  -0.23651774      1728000      926.172        55750        40709 
11160000    1.0031256  -0.23880563      1728000    926.98128        55800        40748 
11170000   0.99709922  -0.24707315      1728000    927.80348        55850        40787 
11180000    0.9418773  -0.23764875      1728000     928.6586        55900        40816 
11190000   0.99145118  -0.24042671      1728000    929.46576        55950        40848 
11200000    1.0290194  -0.23241687      1728000    930.29093        56000        40876 
11210000   0.97237795  -0.24180848      1728000    931.14008        56050        40912 
11220000   0.96590491  -0.22590707      1728000    931.95323        56100        40946 
11230000   0.95078444  -0.22624044      1728000    932.78837        56150        40986 
11240000   0.98036428  -0.20496697      1728000    933.60061        56200        41024 
11250000    1.0229939   -0.2309201      1728000    934.43975        56250        41056 
11260000    1.0427996  -0.23520428      1728000    935.25992        56300        41094 
11270000    1.0058602  -0.23058486      1728000    936.08543        56350        41132 
11280000     1.020226  -0.23179782      1728000    936.89062        56400        41163 
11290000   0.97809467  -0.26245104      1728000     937.7068        56450        41199 
11300000   0.94678446  -0.24912277      1728000    938.53793        56500        41238 
11310000   0.99612388  -0.23940598      1728000     939.3559        56550        41273 
11320000    1.0155633  -0.22538071      1728000    940.24298        56600        41308 
11330000    1.0015864  -0.23496737      1728000    941.15905        56650        41341 
11340000   0.98518922  -0.22963987      1728000    941.98323        56700        41377 
11350000   0.96947316  -0.22827922      1728000    942.83746        56750        41419 
11360000     0.933066  -0.22312073      1728000    943.66563        56800        41458 
11370000     1.009817  -0.20790566      1728000    944.47678        56850        41497 
11380000   0.97135806  -0.19172747      1728000    945.35545        56900        41529 
11390000    1.0240471  -0.20035084      1728000    946.22755        56950        41559 
11400000    1.0035036  -0.22045262      1728000     947.0687        57000        41597 
11410000   0.97811162  -0.20951932      1728000    947.90484        57050        41633 
11420000    1.0410382  -0.21912079      1728000    948.70801        57100        41669 
11430000   0.97387134  -0.23696598      1728000    949.51719        57150        41706 
11440000   0.98075317  -0.24610254      1728000    950.32735        57200        41743 
11450000    1.0308034  -0.22187667      1728000    951.13858        57250        41777 
11460000    1.0325246   -0.2389674      1728000    951.97273        57300        41815 
11470000    1.0187178  -0.22471346      1728000    952.81786        57350        41849 
11480000   0.96526225  -0.23047562      1728000    953.63904        57400        41885 
11490000    0.9405603  -0.22011626      1728000    954.46419        57450        41915 
11500000   0.97113945   -0.2133382      1728000    955.27335        57500        41951 
11510000    1.0385904  -0.20813519      1728000    956.07752        57550        41987 
11520000   0.90165731  -0.21657775      1728000    956.88869        57600        42017 
11530000    1.0144864  -0.21339833      1728000    957.72084        57650        42056 
11540000    1.0073814  -0.22364864      1728000    958.57697        57700        42090 
11550000    1.1037567  -0.22503032      1728000     959.4201        57750        42129 
11560000   0.96623715  -0.22820196      1728000    960.24626        57800        42168 
11570000    1.0168931  -0.22622556      1728000    961.12564        57850        42202 
11580000   0.95799645  -0.22427562      1728000    961.96377        57900        42237 
11590000    1.0026697   -0.2242951      1728000    962.86285        57950        42275 
11600000    1.0990285  -0.22380852      1728000      963.695        58000        42313 
11610000    1.0285197  -0.24053409      1728000    964.55252        58050        42353 
11620000   0.99588396  -0.22359117      1728000    965.39964        58100        42390 
11630000    1.0428768   -0.2196475      1728000    966.26576        58150        42425 
11640000    1.0058785  -0.21446057      1728000     967.1039        58200        42466 
11650000   0.96844568  -0.21579778      1728000    967.93404        58250        42496 
11660000     1.006816   -0.2057661      1728000    968.75121        58300        42535 
11670000    0.9752244  -0.21084394      1728000    969.58635        58350        42574 
11680000   0.98051832  -0.18585597      1728000    970.41952        58400        42614 
11690000    1.0100277  -0.19209556      1728000    971.23367        58450        42653 
11700000     1.002541  -0.21535527      1728000    972.05883        58500        42685 
11710000    1.0418762   -0.2061169      1728000    972.89797        58550        42724 
11720000    1.0100772  -0.19677999      1728000    973.71214        58600        42762 
11730000   0.97850684   -0.2266054      1728000    974.57126        58650        42793 
11740000    1.0231405  -0.19277464      1728000    975.43576        58700        42833 
11750000    1.0040563  -0.19665801      1728000    976.23893        58750        42872 
11760000    1.0011368  -0.22303179      1728000     977.0501        58800        42907 
11770000   0.97062101  -0.21453459      1728000    977.90124        58850        42947 
11780000    1.0076829  -0.22103097      1728000    978.70641        58900        42984 
11790000   0.97539482  -0.21206195      1728000    979.52758        58950        43025 
11800000    1.0666112  -0.21732572      1728000    980.34457        59000        43060 
11810000   0.96951619  -0.19609391      1728000    981.17975        59050        43094 
11820000    0.9902645  -0.22523482      1728000    982.00489        59100        43132 
11830000    1.0403937  -0.20510659      1728000    982.86701        59150        43167 
11840000   0.98083942  -0.21173291      1728000    983.67618        59200        43207 
11850000   0.97809273  -0.19977595      1728000    984.47395        59250        43244 
11860000    1.0175877  -0.20321973      1728000    985.29811        59300        43278 
11870000    1.0103315  -0.20119804      1728000    986.09581        59350        43312 
11880000    1.0024136  -0.21338567      1728000    986.89566        59400        43347 
11890000    1.0645486  -0.19634031      1728000    987.70926        59450        43383 
11900000    1.0312828  -0.22865846      1728000     988.5504        59500        43414 
11910000    1.0296123  -0.23151185      1728000    989.36447        59550        43449 
11920000   0.91918595  -0.25538966      1728000    990.19873        59600        43485 
11930000    1.0909361  -0.24027914      1728000    991.01027        59650        43520 
11940000    1.0041767   -0.2385801      1728000    991.82345        59700        43556 
11950000   0.98156513  -0.24359403      1728000    992.66716        59750        43594 
11960000    1.0119026  -0.25604428      1728000    993.49095        59800        43635 
11970000    1.0356824  -0.26008618      1728000    994.31433        59850        43668 
11980000    1.0069007  -0.24750605      1728000    995.15478        59900        43704 
11990000   0.93283781  -0.24985471      1728000    996.00791        59950        43738 
12000000    1.0155384  -0.23126133      1728000    996.85603        60000        43771 
12010000    0.9659829  -0.23534068      1728000    997.68218        60050        43806 
12020000   0.93521242  -0.25164567      1728000    998.50835        60100        43838 
12030000   0.99410675  -0.23910207      1728000    999.32751        60150        43876 
12040000    1.0110183  -0.23566942      1728000    1000.1946        60200        43915 
12050000   0.96730203   -0.2468499      1728000    1001.0697        60250        43948 
12060000   0.92949685  -0.23665599      1728000    1001.8839        60300        43989 
12070000   0.99701898  -0.21773972      1728000     1002.736        60350        44022 
12080000    1.0310579  -0.20646852      1728000    1003.6401        60400        44062 
12090000    1.0160076  -0.21874519      1728000    1004.4732        60450        44102 
12100000    1.0022224  -0.22801918      1728000    1005.3164        60500        44138 
12110000    1.0545056  -0.20840414      1728000    1006.1495        60550        44170 
12120000   0.98894264   -0.2098137      1728000    1006.9827        60600        44204 
12130000    1.0044238  -0.20343969      1728000    1007.8235        60650        44238 
12140000    1.0278543  -0.21898182      1728000    1008.6313        60700        44276 
12150000    1.0031536  -0.19081161      1728000    1009.4423        60750        44316 
12160000   0.95776404  -0.19443524      1728000    1010.2487        60800        44356 
12170000    1.0126776  -0.17946653      1728000    1011.0499        60850        44396 
12180000    1.0364384  -0.18434913      1728000     1011.914        60900        44427 
12190000    1.0170517  -0.19296637      1728000    1012.7511        60950        44469 
12200000   0.98651135  -0.18577346      1728000    1013.6163        61000        44500 
12210000   0.96028199  -0.18998075      1728000    1014.4234        61050        44536 
12220000   0.98762377  -0.20469369      1728000    1015.2226        61100        44575 
12230000      1.01557  -0.21322489      1728000    1016.0727        61150        44614 
12240000   0.95337635  -0.21691568      1728000    1016.8899        61200        44651 
12250000   0.97336587  -0.20395716      1728000    1017.7301        61250        44688 
12260000    1.0490976  -0.22158128      1728000    1018.5844        61300        44724 
12270000   0.96777889  -0.19482039      1728000    1019.4151        61350        44757 
12280000   0.93542639  -0.20338411      1728000    1020.2582        61400        44798 
12290000    1.0558892  -0.17999095      1728000    1021.1004        61450        44837 
12300000   0.96191252  -0.21160636      1728000    1021.9362        61500        44873 
12310000   0.98758997  -0.19825094      1728000    1022.7843        61550        44913 
12320000   0.95187726  -0.21706883      1728000    1023.6055        61600        44946 
12330000   0.99558347  -0.21744667      1728000    1024.4472        61650        44979 
12340000    1.0325257  -0.21384192      1728000    1025.2602        61700        45018 
12350000   0.93458447    -0.197589      1728000    1026.0664        61750        45055 
12360000    1.0170818   -0.2301018      1728000    1026.8745        61800        45090 
12370000    1.0129948  -0.22165254      1728000    1027.6917        61850        45125 
12380000   0.94483033  -0.22275958      1728000    1028.5059        61900        45153 
12390000   0.96461597  -0.21878089      1728000     1029.343        61950        45189 
12400000    1.0278337  -0.22723285      1728000    1030.1682        62000        45224 
12410000    1.0286965  -0.23344456      1728000    1030.9761        62050        45261 
12420000    1.0099216  -0.21277722      1728000    1031.7933        62100        45290 
12430000   0.95066611  -0.22198205      1728000    1032.6264        62150        45325 
12440000   0.95880449  -0.22808144      1728000    1033.4487        62200        45358 
12450000   0.93069904  -0.22288517      1728000    1034.2559        62250        45392 
12460000    1.0302155  -0.21127923      1728000    1035.0813        62300        45434 
12470000    0.9685086  -0.22229148      1728000    1035.9045        62350        45470 
12480000   0.98085892  -0.23840145      1728000    1036.7167        62400        45507 
12490000    1.0027827  -0.23524229      1728000    1037.5318        62450        45545 
12500000   0.97657724   -0.2347298      1728000    1038.4469        62500        45578 
12510000   0.94898875  -0.23387914      1728000    1039.3203        62550        45608 
12520000   0.97049909  -0.23266219      1728000    1040.1428        62600        45638 
12530000   0.94555655  -0.23982814      1728000     1040.976        62650        45676 
12540000     1.034284  -0.21666083      1728000    1041.8451        62700        45709 
12550000    1.0275394  -0.20878034      1728000    1042.6892        62750        45745 
12560000    1.1183503  -0.21182019      1728000    1043.5244        62800        45778 
12570000    1.0319403  -0.21509134      1728000    1044.3275        62850        45814 
12580000   0.99568456  -0.23923573      1728000    1045.1987        62900        45850 
12590000    1.0859739  -0.22228288      1728000    1046.0173        62950        45886 
12600000    0.9429222  -0.20893667      1728000    1046.8384        63000        45928 
12610000    1.0170112  -0.22076537      1728000     1047.652        63050        45958 
12620000   0.99687194  -0.18993258      1728000    1048.4622        63100        45999 
12630000    1.0759082  -0.19957784      1728000    1049.3203        63150        46031 
12640000   0.98637934  -0.20360443      1728000    1050.1625        63200        46062 
12650000   0.95864834  -0.21764813      1728000    1050.9886        63250        46095 
12660000    0.9752906  -0.20760902      1728000    1051.8747        63300        46130 
12670000   0.98543694  -0.21628335      1728000    1052.7188        63350        46164 
12680000    0.9977656   -0.1662922      1728000     1053.582        63400        46197 
12690000    1.0088364  -0.19464293      1728000    1054.3932        63450        46235 
12700000    1.0551685  -0.20254477      1728000    1055.2018        63500        46274 
12710000    1.0216298  -0.20457994      1728000    1056.0429        63550        46312 
12720000    1.0624199  -0.20059488      1728000    1056.8653        63600        46348 
12730000   0.98763421  -0.21222117      1728000    1057.6774        63650        46386 
12740000   0.98994035  -0.21577001      1728000    1058.4826        63700        46420 
12750000    1.0076264  -0.20222221      1728000    1059.2963        63750        46459 
12760000    1.0383071  -0.20212485      1728000    1060.1054        63800        46498 
12770000    1.0373735  -0.18385593      1728000    1060.9106        63850        46531 
12780000   0.96304451  -0.18991426      1728000    1061.8067        63900        46564 
12790000    1.0081774  -0.18876848      1728000    1062.7218        63950        46599 
12800000    1.0111877  -0.20432422      1728000    1063.5569        64000        46638 
12810000   0.98246875  -0.19100053      1728000    1064.4381        64050        46676 
12820000   0.99526315  -0.21358871      1728000    1065.3052        64100        46714 
12830000   0.97556075  -0.21489916      1728000    1066.1494        64150        46749 
12840000     1.040144  -0.20814738      1728000    1066.9948        64200        46790 
12850000    1.0405706  -0.21171554      1728000     1067.811        64250        46819 
12860000   0.98037995  -0.21750572      1728000    1068.6204        64300        46855 
12870000    1.0467959  -0.21611205      1728000    1069.5167        64350        46894 
12880000    1.0192875  -0.20127016      1728000    1070.3968        64400        46926 
12890000    0.9814875  -0.20129424      1728000    1071.2339        64450        46960 
12900000   0.96093655  -0.21583131      1728000     1072.086        64500        46995 
12910000   0.96204195  -0.20044301      1728000    1072.9042        64550        47027 
12920000    1.0476264  -0.22487085      1728000    1073.7633        64600        47063 
12930000    1.0207701  -0.23353812      1728000    1074.5625        64650        47100 
12940000    1.0076039  -0.21775281      1728000    1075.3594        64700        47137 
12950000   0.99813636  -0.20500868      1728000    1076.2171        64750        47173 
12960000   0.96698842  -0.21721425      1728000    1077.0553        64800        47206 
12970000    1.0031408  -0.21526861      1728000    1077.8447        64850        47245 
12980000   0.98567491  -0.22246745      1728000    1078.6952        64900        47282 
12990000    1.0014607  -0.22718438      1728000    1079.5053        64950        47318 
13000000   0.94051103  -0.21960651      1728000    1080.3725        65000        47353 
13010000     1.022403  -0.22930375      1728000    1081.1991        65050        47391 
13020000    1.0252832  -0.22852083      1728000    1082.0003        65100        47425 
13030000    1.0088141  -0.23843338      1728000    1082.8053        65150        47460 
13040000   0.98892599  -0.23662406      1728000    1083.6054        65200        47493 
13050000    1.0653804  -0.23102059      1728000    1084.3961        65250        47529 
13060000    1.0304751  -0.21897184      1728000    1085.1862        65300        47568 
13070000   0.95515175  -0.21595191      1728000    1085.9874        65350        47600 
13080000    1.0133867   -0.2188633      1728000    1086.7854        65400        47638 
13090000   0.96890208  -0.22361224      1728000    1087.5853        65450        47669 
13100000    1.0821449  -0.21417096      1728000    1088.3934        65500        47702 
13110000    1.0439933  -0.21367147      1728000    1089.1984        65550        47735 
13120000    1.0483161  -0.19305538      1728000    1090.0022        65600        47777 
13130000    1.0169424  -0.20336819      1728000    1090.8082        65650        47818 
13140000   0.99059153  -0.21097177      1728000    1091.6457        65700        47856 
13150000   0.98551804   -0.1998221      1728000    1092.5888        65750        47889 
13160000   0.94199115  -0.19581691      1728000    1093.4579        65800        47926 
13170000    1.0543341  -0.18573506      1728000     1094.317        65850        47959 
13180000    1.0343511  -0.16091966      1728000    1095.1481        65900        48000 
13190000    1.0979368  -0.16944795      1728000    1095.9494        65950        48035 
13200000   0.98665936  -0.19266676      1728000    1096.7544        66000        48074 
13210000    1.0250619  -0.20053335      1728000    1097.5577        66050        48110 
13220000   0.92657423  -0.20110115      1728000     1098.372        66100        48150 
13230000   0.94369728  -0.18592681      1728000    1099.1802        66150        48190 
13240000    1.0290653  -0.19584649      1728000    1100.0004        66200        48228 
13250000   0.97768544  -0.19747225      1728000    1100.8153        66250        48265 
13260000   0.99199498  -0.17840703      1728000    1101.6066        66300        48302 
13270000   0.93981626  -0.16972256      1728000    1102.3982        66350        48343 
13280000   0.93789675  -0.17004162      1728000    1103.1902        66400        48384 
13290000   0.97319999  -0.16681662      1728000    1104.0013        66450        48427 
13300000     1.081345  -0.17384437      1728000    1104.8103        66500        48464 
13310000   0.97349302  -0.18174247      1728000    1105.6682        66550        48506 
13320000   0.94431564  -0.17902561      1728000    1106.5423        66600        48544 
13330000    1.0141082  -0.17027377      1728000    1107.3621        66650        48585 
13340000    1.0170333  -0.18830448      1728000    1108.1712        66700        48623 
13350000    1.0248278  -0.18934187      1728000    1108.9928        66750        48656 
13360000    1.0129562  -0.20983464      1728000    1109.8172        66800        48695 
13370000   0.99221148  -0.18028475      1728000    1110.6277        66850        48734 
13380000   0.99817408  -0.18416524      1728000     1111.448        66900        48772 
13390000    1.0565427  -0.17534947      1728000    1112.2841        66950        48810 
13400000    1.0105252  -0.17890967      1728000    1113.1353        67000        48846 
13410000   0.98499339  -0.19142366      1728000    1113.9994        67050        48888 
13420000   0.97985573  -0.18798026      1728000    1114.8526        67100        48922 
13430000    1.0008812  -0.17881006      1728000    1115.7245        67150        48956 
13440000    1.0062645  -0.18382487      1728000    1116.5736        67200        48995 
13450000   0.98555121  -0.16181684      1728000    1117.4001        67250        49029 
13460000    1.0158827  -0.17928025      1728000    1118.2324        67300        49071 
13470000   0.97302471  -0.18600318      1728000    1119.1185        67350        49105 
13480000    1.0013156    -0.174076      1728000    1119.9446        67400        49145 
13490000   0.94314166  -0.18097883      1728000    1120.7421        67450        49183 
13500000   0.98255675  -0.18772747      1728000    1121.5804        67500        49217 
13510000    1.0223189  -0.20849656      1728000    1122.3806        67550        49257 
13520000   0.95773474  -0.19200657      1728000    1123.1812        67600        49292 
13530000   0.93186848  -0.18939208      1728000    1123.9729        67650        49332 
13540000   0.98720562  -0.18850855      1728000    1124.7872        67700        49369 
13550000     0.964937  -0.19701036      1728000    1125.6014        67750        49410 
13560000    1.0153833  -0.18640159      1728000    1126.4225        67800        49449 
13570000   0.94678034  -0.18684094      1728000    1127.2487        67850        49489 
13580000    1.0509167  -0.19194682      1728000    1128.0728        67900        49530 
13590000    1.0053612  -0.19539947      1728000    1128.8955        67950        49570 
13600000     1.054746  -0.18925091      1728000    1129.7165        68000        49606 
13610000     0.995231  -0.18629752      1728000    1130.5373        68050        49646 
13620000    1.0354369  -0.18078455      1728000    1131.3321        68100        49685 
13630000   0.96464589  -0.18229519      1728000    1132.1213        68150        49722 
13640000   0.99775899  -0.17745982      1728000    1132.9143        68200        49758 
13650000    1.0660876  -0.17602384      1728000    1133.7213        68250        49795 
13660000    1.0259707  -0.16486814      1728000    1134.5329        68300        49836 
13670000     1.034043    -0.174965      1728000    1135.3549        68350        49872 
13680000    0.9770097  -0.16809538      1728000    1136.1762        68400        49914 
13690000    0.9878464  -0.16675241      1728000    1136.9852        68450        49954 
13700000   0.96201792  -0.17992125      1728000    1137.7995        68500        49994 
13710000    1.0423733  -0.17273511      1728000    1138.6982        68550        50034 
13720000    0.9608873  -0.19366536      1728000    1139.5442        68600        50072 
13730000   0.93332319  -0.18805455      1728000    1140.3492        68650        50115 
13740000    0.9660061  -0.19791531      1728000    1141.1741        68700        50152 
13750000   0.98564691  -0.18487317      1728000    1141.9603        68750        50192 
13760000    1.0464843   -0.1815459      1728000    1142.7442        68800        50226 
13770000    1.0416677  -0.19335423      1728000    1143.5494        68850        50262 
13780000    1.0184413  -0.20627662      1728000    1144.3531        68900        50299 
13790000   0.97110407  -0.21660236      1728000    1145.1791        68950        50336 
13800000    1.0162002   -0.2147869      1728000    1146.0013        69000        50370 
13810000    1.0142154  -0.20119857      1728000    1146.8352        69050        50407 
13820000    1.0463086    -0.202204      1728000      1147.64        69100        50441 
13830000     1.065793  -0.20310224      1728000    1148.4425        69150        50482 
13840000    1.0335034  -0.19896415      1728000    1149.2684        69200        50519 
13850000   0.92159153  -0.21076311      1728000     1150.082        69250        50557 
13860000     1.023129  -0.20613136      1728000    1150.8944        69300        50596 
13870000   0.90672474  -0.21690438      1728000    1151.6871        69350        50632 
13880000     1.001352  -0.20637473      1728000    1152.5002        69400        50670 
13890000    1.0574845  -0.19361806      1728000    1153.2973        69450        50703 
13900000   0.97788606  -0.20484565      1728000    1154.1233        69500        50739 
13910000   0.99569628  -0.20768099      1728000    1154.9504        69550        50770 
13920000   0.99373998  -0.20705624      1728000    1155.7746        69600        50808 
13930000    1.0199825  -0.20365786      1728000    1156.5919        69650        50848 
13940000    1.0166413  -0.20887272      1728000     1157.468        69700        50894 
13950000    1.0127524  -0.18856824      1728000    1158.3062        69750        50928 
13960000    1.0263331  -0.18939554      1728000    1159.1223        69800        50966 
13970000    1.0163658  -0.19666356      1728000    1159.9295        69850        51005 
13980000     1.077533  -0.20912592      1728000    1160.7447        69900        51040 
13990000   0.99033713  -0.22322577      1728000    1161.5672        69950        51080 
14000000    1.0224888  -0.22523628      1728000    1162.3981        70000        51116 
14010000    1.0316932  -0.22355818      1728000    1163.2173        70050        51151 
14020000    1.0420736   -0.2046539      1728000    1164.0441        70100        51184 
14030000   0.94388899  -0.20313087      1728000    1164.8661        70150        51223 
14040000   0.99590509  -0.20179658      1728000    1165.6757        70200        51259 
14050000    1.0725285   -0.2113138      1728000    1166.4922        70250        51298 
14060000    1.0135593   -0.1982061      1728000    1167.3285        70300        51329 
14070000    1.0436592  -0.20093566      1728000    1168.1327        70350        51363 
14080000   0.99368973  -0.20641878      1728000    1168.9398        70400        51396 
14090000    1.0032487  -0.21191419      1728000    1169.8612        70450        51433 
14100000    1.0069992   -0.1950107      1728000    1170.6872        70500        51462 
14110000   0.89866448  -0.20680188      1728000    1171.5073        70550        51503 
14120000    1.0285743  -0.20095108      1728000    1172.3041        70600        51542 
14130000    1.0289298   -0.1836139      1728000    1173.1142        70650        51577 
14140000    1.0297385  -0.20284393      1728000    1173.9042        70700        51613 
14150000     1.021251  -0.20326408      1728000    1174.7012        70750        51648 
14160000   0.91481908  -0.18888519      1728000    1175.4972        70800        51680 
14170000   0.99851212  -0.17274128      1728000    1176.3041        70850        51718 
14180000    1.0798835  -0.18077004      1728000       1177.1        70900        51753 
14190000    1.0198075  -0.18621281      1728000    1177.9022        70950        51789 
14200000     1.010969  -0.19379593      1728000     1178.723        71000        51825 
14210000    1.0277635  -0.19658064      1728000    1179.5322        71050        51864 
14220000   0.99657233  -0.19227721      1728000     1180.349        71100        51894 
14230000    1.0162622  -0.19686775      1728000    1181.1471        71150        51929 
14240000   0.94973912  -0.19699517      1728000    1181.9812        71200        51969 
14250000   0.91813557  -0.18879585      1728000    1182.7872        71250        52008 
14260000    1.0056216  -0.19794796      1728000    1183.6141        71300        52042 
14270000    1.0437261  -0.19284268      1728000    1184.4161        71350        52079 
14280000    1.0439853   -0.2091063      1728000     1185.294        71400        52116 
14290000   0.98246931  -0.22371864      1728000    1186.1132        71450        52152 
14300000   0.98209133   -0.2225325      1728000     1186.941        71500        52186 
14310000    1.0572559  -0.20464681      1728000    1187.7571        71550        52223 
14320000    1.0017773  -0.21284708      1728000    1188.6069        71600        52262 
14330000    1.0543885  -0.21044811      1728000     1189.443        71650        52298 
14340000   0.99989443  -0.21506917      1728000     1190.251        71700        52335 
14350000   0.99060948  -0.21076246      1728000    1191.0512        71750        52370 
14360000    1.0106395  -0.22234461      1728000    1191.8472        71800        52407 
14370000   0.93590705  -0.21181104      1728000    1192.6462        71850        52443 
14380000   0.98182222   -0.2038814      1728000    1193.4442        71900        52478 
14390000    1.0220009  -0.20984204      1728000     1194.247        71950        52513 
14400000    1.0204022   -0.1934168      1728000     1195.093        72000        52547 
14410000   0.98679437  -0.18054127      1728000    1195.9019        72050        52588 
14420000    1.0554958  -0.20714525      1728000    1196.7042        72100        52628 
14430000    0.9941255   -0.1940463      1728000    1197.5034        72150        52664 
14440000     0.966481  -0.18883354      1728000    1198.2991        72200        52705 
14450000   0.96359332  -0.17335591      1728000    1199.0972        72250        52743 
14460000    1.0034493   -0.1875032      1728000    1199.8959        72300        52780 
14470000   0.95300543  -0.19044679      1728000    1200.6912        72350        52816 
14480000   0.96301751  -0.19158865      1728000    1201.4902        72400        52849 
14490000   0.99382658  -0.19380975      1728000    1202.2819        72450        52887 
14500000    1.0735361  -0.18744391      1728000    1203.0902        72500        52921 
14510000   0.97964713  -0.21032474      1728000    1203.8872        72550        52956 
14520000   0.93326671  -0.21357672      1728000    1204.7021        72600        52992 
14530000   0.92510135  -0.21027397      1728000    1205.4932        72650        53030 
14540000    1.0305447  -0.22058162      1728000    1206.2999        72700        53065 
14550000    1.0086824  -0.21689338      1728000    1207.1123        72750        53098 
14560000   0.94733158  -0.21528972      1728000    1207.9031        72800        53139 
14570000   0.96837114   -0.2083192      1728000    1208.7022        72850        53176 
14580000   0.99546716  -0.21746597      1728000    1209.5012        72900        53212 
14590000   0.96845352  -0.23467219      1728000    1210.2972        72950        53244 
14600000    1.0307475  -0.21598199      1728000    1211.1429        73000        53282 
14610000   0.94791906  -0.22384981      1728000     1211.963        73050        53320 
14620000    1.0146451  -0.20328884      1728000    1212.8039        73100        53354 
14630000   0.99541941  -0.20091199      1728000    1213.6292        73150        53387 
14640000    1.0340333  -0.19930331      1728000    1214.4461        73200        53423 
14650000    1.0714326  -0.19067326      1728000    1215.2591        73250        53457 
14660000     1.002131  -0.18487927      1728000     1216.074        73300        53495 
14670000   0.97877621  -0.18097119      1728000    1216.8812        73350        53530 
14680000   0.98634723  -0.17768029      1728000    1217.6939        73400        53568 
14690000    1.0284906  -0.17246675      1728000     1218.492        73450        53603 
14700000    1.0400677  -0.17510167      1728000     1219.305        73500        53637 
14710000     1.011977   -0.1831139      1728000     1220.109        73550        53678 
14720000   0.93860551  -0.18309407      1728000     1220.918        73600        53720 
14730000    1.0536024  -0.18495878      1728000    1221.7481        73650        53758 
14740000    1.0452971  -0.19310314      1728000    1222.5872        73700        53795 
14750000   0.97871179  -0.18974556      1728000    1223.3921        73750        53837 
14760000   0.99994855  -0.17364187      1728000     1224.221        73800        53872 
14770000    1.0445081   -0.1891332      1728000    1225.0537        73850        53910 
14780000    1.0561591  -0.19888519      1728000    1225.9269        73900        53939 
14790000   0.98561408  -0.19138783      1728000     1226.829        73950        53974 
14800000    1.0404037  -0.21072867      1728000    1227.6591        74000        54008 
14810000   0.98687909  -0.20185635      1728000    1228.4631        74050        54049 
14820000   0.95649702  -0.18807491      1728000    1229.2703        74100        54084 
14830000    1.0117768  -0.20121167      1728000    1230.0747        74150        54119 
14840000    1.0166508  -0.20599957      1728000     1230.868        74200        54152 
14850000    1.0336589  -0.21442107      1728000    1231.6748        74250        54191 
14860000    1.0399372  -0.20135652      1728000    1232.4769        74300        54230 
14870000    1.0370719  -0.20656075      1728000    1233.2862        74350        54266 
14880000    1.0707312  -0.20579733      1728000    1234.0931        74400        54308 
14890000   0.98756818  -0.19734549      1728000     1234.895        74450        54347 
14900000    1.0415913  -0.21921462      1728000    1235.7059        74500        54389 
14910000   0.99628986  -0.22007184      1728000    1236.5211        74550        54420 
14920000    1.0068506  -0.21031353      1728000    1237.3271        74600        54459 
14930000    0.9594187  -0.21607985      1728000    1238.1338        74650        54496 
14940000   0.95341487  -0.22872029      1728000    1238.9411        74700        54528 
14950000    1.0159424  -0.21731736      1728000    1239.7499        74750        54562 
14960000    1.0286267  -0.21773587      1728000    1240.5622        74800        54598 
14970000    1.0352358  -0.20994116      1728000     1241.368        74850        54624 
14980000    0.9686998  -0.22540775      1728000    1242.1861        74900        54657 
14990000   0.99485711  -0.19936483      1728000    1242.9909        74950        54699 
15000000    1.0175454  -0.20729865      1728000    1243.8139        75000        54733 
15010000   0.96339374  -0.21217912      1728000    1244.6131        75050        54769 
15020000    1.0534369  -0.20660984      1728000     1245.418        75100        54804 
15030000     1.019692  -0.22125052      1728000    1246.2331        75150        54842 
15040000     1.027071   -0.2079628      1728000    1247.0373        75200        54877 
15050000     1.048447   -0.1933289      1728000    1247.8502        75250        54913 
15060000   0.99701915  -0.19823768      1728000    1248.6692        75300        54951 
15070000   0.96699963  -0.20044097      1728000    1249.4631        75350        54989 
15080000    1.0156749  -0.21039248      1728000    1250.2637        75400        55030 
15090000   0.99106876  -0.19569985      1728000    1251.0692        75450        55065 
15100000   0.98550927  -0.18980332      1728000    1251.8791        75500        55106 
15110000     1.063415  -0.17993897      1728000    1252.6879        75550        55144 
15120000    1.0417837  -0.19133006      1728000    1253.4843        75600        55183 
15130000    1.0138213  -0.17889025      1728000    1254.2801        75650        55223 
15140000   0.98479664  -0.16582983      1728000    1255.0739        75700        55259 
15150000     1.069114  -0.15969039      1728000    1255.8643        75750        55296 
15160000   0.94318328  -0.16154827      1728000    1256.6752        75800        55334 
15170000    1.0645911  -0.15677042      1728000     1257.489        75850        55375 
15180000    1.0115672  -0.15375964      1728000    1258.2741        75900        55410 
15190000    1.0582681  -0.17348859      1728000    1259.0629        75950        55449 
15200000   0.93815627  -0.18246397      1728000    1259.8612        76000        55492 
15210000   0.97204768  -0.16610437      1728000      1260.66        76050        55530 
15220000    1.0474926  -0.18353117      1728000    1261.4542        76100        55567 
15230000   0.99080917  -0.17581403      1728000    1262.2531        76150        55608 
15240000     1.072229   -0.1762368      1728000     1263.048        76200        55646 
15250000   0.96361943  -0.16138067      1728000    1263.8351        76250        55689 
15260000   0.97403039  -0.16613996      1728000    1264.6209        76300        55732 
15270000   0.97488769  -0.17362448      1728000     1265.416        76350        55762 
15280000      1.00877  -0.18606273      1728000    1266.2045        76400        55799 
15290000   0.97980438  -0.18005804      1728000    1267.0113        76450        55835 
15300000    1.0482337   -0.1740854      1728000    1267.8168        76500        55876 
15310000    1.0068149  -0.18793924      1728000    1268.6089        76550        55911 
15320000   0.96458399  -0.17789616      1728000    1269.4043        76600        55949 
15330000    1.0266397  -0.19047429      1728000    1270.1903        76650        55990 
15340000   0.96849995   -0.1916747      1728000    1270.9813        76700        56025 
15350000   0.96812043  -0.19082394      1728000     1271.766        76750        56058 
15360000    1.0096741   -0.1835321      1728000    1272.5611        76800        56092 
15370000    1.0091493  -0.18525727      1728000    1273.3552        76850        56128 
15380000   0.95865842  -0.18545511      1728000    1274.1541        76900        56167 
15390000    0.9867884  -0.19095835      1728000    1274.9492        76950        56205 
15400000   0.99316345  -0.21642438      1728000    1275.7749        77000        56247 
15410000   0.98415082  -0.20366822      1728000    1276.5801        77050        56286 
15420000    1.0900889  -0.21079043      1728000    1277.4136        77100        56320 
15430000    1.0565689  -0.20404122      1728000    1278.2682        77150        56354 
15440000    1.0677469  -0.21085919      1728000    1279.0731        77200        56385 
15450000    1.0204873  -0.21048838      1728000    1279.8892        77250        56419 
15460000    0.9870611  -0.20994314      1728000    1280.6903        77300        56459 
15470000    1.0334872  -0.20229229      1728000    1281.5089        77350        56503 
15480000    1.0019578  -0.19614459      1728000    1282.3192        77400        56542 
15490000   0.99543705  -0.17471486      1728000    1283.1138        77450        56582 
15500000   0.96021324  -0.18025925      1728000    1283.9429        77500        56623 
15510000    1.0539968  -0.17951232      1728000    1284.7531        77550        56656 
15520000   0.98616925  -0.18464498      1728000    1285.5539        77600        56693 
15530000    1.0058563  -0.18728406      1728000    1286.3663        77650        56728 
15540000    1.0062525  -0.19189534      1728000    1287.1679        77700        56765 
15550000    1.0791805  -0.19251257      1728000    1287.9619        77750        56802 
15560000    0.9961532  -0.20748026      1728000    1288.7679        77800        56835 
15570000    1.0000134  -0.19868621      1728000     1289.566        77850        56874 
15580000   0.95955127  -0.20062868      1728000    1290.3652        77900        56910 
15590000    1.0278572  -0.18418592      1728000    1291.1481        77950        56952 
15600000    1.0373012  -0.17393375      1728000    1291.9478        78000        56988 
15610000   0.94463447  -0.19351288      1728000    1292.7418        78050        57023 
15620000   0.99434682  -0.20084742      1728000    1293.5334        78100        57062 
15630000    1.0177553   -0.2153092      1728000     1294.328        78150        57097 
15640000   0.93778807  -0.18974011      1728000      1295.13        78200        57128 
15650000    1.0207327  -0.19587715      1728000    1295.9471        78250        57166 
15660000    1.0102654   -0.2012893      1728000     1296.741        78300        57209 
15670000    1.0087307  -0.19592157      1728000     1297.542        78350        57246 
15680000   0.99097707  -0.20060839      1728000     1298.365        78400        57274 
15690000    1.0281445  -0.22661904      1728000    1299.1671        78450        57310 
15700000   0.96125279  -0.20179948      1728000    1299.9699        78500        57347 
15710000    1.0529583  -0.20409158      1728000    1300.7748        78550        57386 
15720000   0.93708322  -0.21695965      1728000    1301.5741        78600        57425 
15730000   0.98810327  -0.23296645      1728000    1302.3749        78650        57459 
15740000   0.96759943  -0.24682791      1728000    1303.1759        78700        57496 
15750000   0.99243318  -0.24682096      1728000    1303.9909        78750        57530 
15760000   0.99867451  -0.25183726      1728000     1304.792        78800        57564 
15770000    1.0252571  -0.24196743      1728000     1305.595        78850        57600 
15780000   0.97893513  -0.23971466      1728000    1306.3921        78900        57634 
15790000    1.0591156  -0.22776727      1728000    1307.2001        78950        57674 
15800000   0.91896287  -0.23556104      1728000     1308.071        79000        57709 
15810000   0.92848427  -0.23643353      1728000    1308.9136        79050        57742 
15820000   0.98287738  -0.22360956      1728000    1309.7268        79100        57777 
15830000   0.92365107  -0.25240812      1728000    1310.5279        79150        57812 
15840000    1.0628108  -0.23806006      1728000    1311.3281        79200        57855 
15850000    1.0113196  -0.24707359      1728000    1312.1213        79250        57892 
15860000    1.0287438  -0.23521685      1728000    1312.9211        79300        57923 
15870000   0.95296897  -0.24167546      1728000    1313.7372        79350        57955 
15880000    0.9724794  -0.23953085      1728000    1314.5578        79400        57988 
15890000   0.96266093  -0.23062845      1728000    1315.3581        79450        58023 
15900000   0.97184143  -0.23469249      1728000     1316.161        79500        58052 
15910000    1.0293089  -0.22409723      1728000    1317.0338        79550        58086 
15920000    0.9567137  -0.21839689      1728000    1317.8343        79600        58126 
15930000    1.0081215  -0.19984796      1728000     1318.651        79650        58170 
15940000    1.0208344  -0.20388583      1728000    1319.4385        79700        58206 
15950000    1.0091669  -0.22535605      1728000    1320.2501        79750        58241 
15960000   0.97054024  -0.23207973      1728000    1321.0449        79800        58277 
15970000   0.95673159   -0.2139679      1728000    1321.8388        79850        58316 
15980000   0.95375459  -0.21037367      1728000    1322.6531        79900        58354 
15990000    1.0085945   -0.2203042      1728000    1323.4401        79950        58386 
16000000   0.98350165  -0.21026561      1728000    1324.2454        80000        58421 
16010000   0.96662189  -0.21920087      1728000    1325.0313        80050        58459 
16020000    1.0271344  -0.23084371      1728000    1325.8221        80100        58495 
16030000    1.0153787  -0.22819114      1728000    1326.6158        80150        58525 
16040000   0.99248956  -0.20558616      1728000    1327.4037        80200        58564 
16050000    1.0812852  -0.20562698      1728000     1328.199        80250        58597 
16060000    1.0012593  -0.22584447      1728000    1329.0199        80300        58631 
16070000    1.0106411  -0.23211975      1728000     1329.814        80350        58666 
16080000   0.94189884  -0.22831942      1728000     1330.607        80400        58705 
16090000    1.0268402  -0.22063928      1728000    1331.4037        80450        58742 
16100000    0.9563463   -0.2105146      1728000    1332.2229        80500        58780 
16110000    1.0733367  -0.21088287      1728000     1333.013        80550        58818 
16120000     1.038131  -0.22498798      1728000    1333.8079        80600        58848 
16130000   0.96191119  -0.22281386      1728000     1334.606        80650        58883 
16140000   0.97697127  -0.22302569      1728000    1335.4079        80700        58916 
16150000    1.0876465  -0.22589375      1728000    1336.2009        80750        58951 
16160000   0.96695771    -0.221667      1728000     1336.994        80800        58985 
16170000    1.0017012  -0.21411209      1728000    1337.7919        80850        59020 
16180000   0.98929439  -0.21929024      1728000     1338.578        80900        59060 
16190000    0.9777335    -0.203509      1728000     1339.367        80950        59097 
16200000   0.95598922  -0.20181499      1728000    1340.1809        81000        59136 
16210000      0.95367  -0.20135819      1728000     1340.969        81050        59177 
16220000   0.95925492  -0.19152796      1728000     1341.761        81100        59215 
16230000   0.97509727  -0.19097311      1728000    1342.5668        81150        59257 
16240000    1.0023981  -0.20379495      1728000    1343.3527        81200        59297 
16250000   0.95910408  -0.19219275      1728000     1344.161        81250        59334 
16260000    1.0210652  -0.19271142      1728000    1344.9597        81300        59374 
16270000      1.00921  -0.18831682      1728000    1345.7538        81350        59412 
16280000   0.99915313  -0.18481846      1728000    1346.5538        81400        59449 
16290000    1.0561709  -0.17723655      1728000    1347.3368        81450        59489 
16300000   0.97197843  -0.18093193      1728000    1348.1669        81500        59525 
16310000    1.0246413  -0.19429349      1728000     1348.962        81550        59566 
16320000    1.0052949  -0.19941794      1728000    1349.7718        81600        59607 
16330000    0.9675937   -0.2150386      1728000    1350.5659        81650        59644 
16340000    1.0139627  -0.19492107      1728000     1351.357        81700        59676 
16350000   0.98791116  -0.19980959      1728000    1352.1479        81750        59711 
16360000    1.0459298  -0.19494138      1728000     1352.951        81800        59746 
16370000   0.97842962  -0.18129939      1728000    1353.7459        81850        59780 
16380000    1.0042864  -0.18676715      1728000    1354.5559        81900        59815 
16390000   0.96790057  -0.21119175      1728000    1355.3689        81950        59848 
16400000    1.0237318  -0.19794889      1728000      1356.17        82000        59881 
16410000     1.042185  -0.19489674      1728000    1356.9709        82050        59917 
16420000   0.99031832  -0.19054694      1728000    1357.7611        82100        59954 
16430000   0.97203558  -0.18637817      1728000    1358.5509        82150        59987 
16440000   0.98608546  -0.18219884      1728000    1359.3379        82200        60030 
16450000   0.98389523  -0.18188641      1728000    1360.1311        82250        60065 
16460000    1.0556782  -0.18374953      1728000    1360.9129        82300        60103 
16470000    1.0583097   -0.1784735      1728000     1361.697        82350        60136 
16480000    0.9741544  -0.17037669      1728000     1362.491        82400        60168 
16490000    1.0278793  -0.17339143      1728000     1363.284        82450        60204 
16500000    1.0426225   -0.1788135      1728000    1364.0851        82500        60243 
16510000   0.99018282     -0.18748      1728000    1364.8771        82550        60281 
16520000   0.99745929  -0.18977716      1728000    1365.6641        82600        60324 
16530000    1.0372558  -0.18095332      1728000     1366.453        82650        60362 
16540000   0.96442198  -0.17722976      1728000    1367.2472        82700        60400 
16550000   0.95409059  -0.16511233      1728000     1368.051        82750        60443 
16560000   0.91096619  -0.18153964      1728000    1368.8578        82800        60480 
16570000   0.96506116  -0.18788123      1728000       1369.7        82850        60516 
16580000   0.99433183  -0.21471035      1728000    1370.5881        82900        60556 
16590000   0.99864554  -0.20555398      1728000    1371.3899        82950        60592 
16600000   0.98710693  -0.19779087      1728000    1372.2191        83000        60634 
16610000    1.0197364  -0.19173691      1728000    1373.0214        83050        60671 
16620000    1.0106366  -0.19529683      1728000    1373.8515        83100        60707 
16630000   0.98440184  -0.19274802      1728000    1374.6531        83150        60743 
16640000    1.0381947  -0.19343551      1728000    1375.4484        83200        60781 
16650000    1.0331734   -0.1884165      1728000    1376.2362        83250        60817 
16660000   0.97595965  -0.17709781      1728000    1377.0274        83300        60856 
16670000    1.0438626  -0.18366424      1728000    1377.8198        83350        60891 
16680000   0.99439082  -0.17678651      1728000    1378.6173        83400        60930 
16690000   0.90716081  -0.17562631      1728000     1379.486        83450        60968 
16700000    1.0159184  -0.17790082      1728000    1380.2799        83500        60999 
16710000    1.0902522  -0.16602188      1728000    1381.0691        83550        61040 
16720000   0.97847077  -0.18732757      1728000    1381.8601        83600        61079 
16730000   0.95512811  -0.20532162      1728000     1382.646        83650        61119 
16740000    1.0006046   -0.2013695      1728000    1383.4381        83700        61150 
16750000   0.98846904  -0.19700127      1728000      1384.23        83750        61185 
16760000    1.0381757  -0.19177613      1728000    1385.0191        83800        61218 
16770000   0.99923491  -0.18680564      1728000    1385.8111        83850        61259 
16780000   0.96861842  -0.18545097      1728000    1386.6179        83900        61297 
16790000    1.0226949  -0.19468553      1728000    1387.4041        83950        61339 
16800000    1.0046261   -0.1863959      1728000    1388.2317        84000        61376 
16810000    1.0287435   -0.2004502      1728000      1389.03        84050        61416 
16820000   0.95941778  -0.18695099      1728000    1389.8201        84100        61458 
16830000    1.0393687  -0.20501087      1728000     1390.614        84150        61495 
16840000   0.99231635  -0.19445728      1728000    1391.4119        84200        61534 
16850000    1.0228242  -0.19336246      1728000     1392.222        84250        61568 
16860000    1.0202451  -0.18209953      1728000     1393.009        84300        61604 
16870000   0.99247338  -0.20620222      1728000     1393.804        84350        61644 
16880000   0.96701534  -0.21438873      1728000    1394.5969        84400        61685 
16890000    1.0276818  -0.21593254      1728000    1395.3919        84450        61719 
16900000   0.94343205   -0.2256851      1728000    1396.1968        84500        61757 
16910000   0.99397495  -0.22535171      1728000    1396.9851        84550        61792 
16920000    1.0402999  -0.22297479      1728000    1397.7757        84600        61828 
16930000    1.0441102  -0.21235753      1728000    1398.5581        84650        61864 
16940000   0.94843904  -0.21647228      1728000    1399.3437        84700        61895 
16950000    1.0247183  -0.21740541      1728000    1400.1307        84750        61932 
16960000   0.99035549  -0.22099497      1728000    1400.9418        84800        61968 
16970000    1.0360484  -0.21743213      1728000    1401.7561        84850        61999 
16980000   0.98130529  -0.20450948      1728000     1402.553        84900        62033 
16990000   0.99556782  -0.20828815      1728000    1403.3483        84950        62065 
17000000   0.98837193  -0.20876423      1728000    1404.1559        85000        62102 
17010000    1.0203087  -0.20878264      1728000    1404.9448        85050        62142 
17020000   0.94608774  -0.18240696      1728000    1405.7329        85100        62186 
17030000    0.9724019  -0.17586959      1728000    1406.5237        85150        62226 
17040000   0.99057292  -0.17207866      1728000    1407.3053        85200        62265 
17050000    1.0161379   -0.1684781      1728000     1408.088        85250        62303 
17060000    1.0360328  -0.17822107      1728000    1408.8721        85300        62344 
17070000    1.0082392  -0.18893471      1728000    1409.6658        85350        62384 
17080000   0.93543644  -0.20401385      1728000    1410.4619        85400        62416 
17090000   0.98811768  -0.19344041      1728000    1411.2529        85450        62451 
17100000    1.0297247  -0.19468699      1728000    1412.0529        85500        62490 
17110000   0.95219009  -0.21434187      1728000    1412.8716        85550        62525 
17120000   0.99211665  -0.20468573      1728000    1413.6999        85600        62558 
17130000   0.99396047  -0.21293606      1728000    1414.5142        85650        62598 
17140000   0.97493178  -0.20225733      1728000    1415.3864        85700        62636 
17150000   0.99142847  -0.19644044      1728000     1416.202        85750        62676 
17160000    1.0237307  -0.20144085      1728000    1417.0604        85800        62714 
17170000   0.98303393   -0.1877088      1728000    1417.9565        85850        62757 
17180000   0.96620902  -0.18350607      1728000    1418.8237        85900        62794 
17190000   0.97350588  -0.20860568      1728000    1419.7428        85950        62828 
17200000   0.97672149  -0.21185651      1728000    1420.7647        86000        62859 
17210000   0.97099908   -0.2126274      1728000    1421.7567        86050        62892 
17220000    1.0093246   -0.2075266      1728000    1422.6897        86100        62927 
17230000   0.96799024  -0.20062912      1728000    1423.5399        86150        62964 
17240000    1.0284002  -0.21031424      1728000    1424.3511        86200        63003 
17250000   0.99507889  -0.21796032      1728000    1425.1843        86250        63040 
17260000   0.96367901  -0.21049299      1728000    1426.0794        86300        63073 
17270000     1.027115  -0.21477712      1728000     1426.949        86350        63112 
17280000    1.0178663  -0.21951098      1728000    1427.8261        86400        63149 
17290000   0.98748483  -0.21105566      1728000    1428.7461        86450        63186 
17300000    1.0680568  -0.22210214      1728000    1429.5917        86500        63226 
17310000    1.0372845  -0.22148931      1728000    1430.4109        86550        63267 
17320000   0.96448418  -0.22133008      1728000    1431.2248        86600        63302 
17330000   0.94854413  -0.22667601      1728000     1432.108        86650        63338 
17340000   0.99317175  -0.22889501      1728000    1432.9364        86700        63374 
17350000    1.0093017  -0.22593533      1728000    1433.7986        86750        63410 
17360000    1.0029945  -0.21771189      1728000    1434.6746        86800        63447 
17370000    1.0584255  -0.22053289      1728000    1435.5128        86850        63485 
17380000    1.0118781  -0.22261001      1728000     1436.336        86900        63524 
17390000    1.0434453  -0.21978868      1728000    1437.1741        86950        63567 
17400000    1.0260809  -0.21484012      1728000    1438.0892        87000        63607 
17410000   0.99327552  -0.21443616      1728000    1438.9523        87050        63641 
17420000   0.98553676  -0.20794938      1728000    1439.7804        87100        63678 
17430000    1.0412498  -0.21840365      1728000    1440.6715        87150        63717 
17440000   0.92475564  -0.21953094      1728000    1441.6445        87200        63757 
17450000    1.0923573  -0.21497374      1728000    1442.5896        87250        63796 
17460000   0.95307245  -0.21515825      1728000    1443.4367        87300        63832 
17470000    1.0392933   -0.2230437      1728000    1444.3468        87350        63867 
17480000    1.0414901  -0.21425507      1728000    1445.3617        87400        63911 
17490000    1.0499325  -0.19344094      1728000    1446.1849        87450        63950 
17500000    1.0016471   -0.2179457      1728000     1447.064        87500        63985 
17510000   0.98436797  -0.19714357      1728000    1447.9081        87550        64025 
17520000   0.93973558  -0.19884638      1728000    1448.7543        87600        64061 
17530000    1.0214225  -0.18980211      1728000    1449.5735        87650        64097 
17540000    1.0612976  -0.19388827      1728000    1450.4386        87700        64139 
17550000   0.96260741  -0.19744403      1728000    1451.2447        87750        64177 
17560000    1.0263982  -0.20593861      1728000    1452.0499        87800        64207 
17570000   0.96644263  -0.22271285      1728000    1452.8711        87850        64243 
17580000    1.0479948  -0.20085549      1728000    1453.6983        87900        64276 
17590000   0.99845329  -0.24133142      1728000    1454.5175        87950        64311 
17600000   0.96740531  -0.21967002      1728000    1455.3456        88000        64349 
17610000    1.0331953  -0.22587754      1728000    1456.1748        88050        64384 
17620000   0.98531759  -0.23942523      1728000    1457.0848        88100        64422 
17630000    1.0271694  -0.21299625      1728000     1457.911        88150        64459 
17640000    1.0180162  -0.22421593      1728000    1458.7784        88200        64493 
17650000   0.96489817  -0.21742522      1728000    1459.5978        88250        64532 
17660000   0.98301768  -0.21670109      1728000    1460.3939        88300        64569 
17670000    1.0033163  -0.22255032      1728000     1461.193        88350        64605 
17680000    0.9610339  -0.22754846      1728000    1462.0139        88400        64642 
17690000   0.97849779  -0.23241756      1728000    1462.8199        88450        64677 
17700000    1.0752236  -0.21656032      1728000    1463.6468        88500        64713 
17710000    1.0429832  -0.22742525      1728000    1464.4546        88550        64757 
17720000   0.93454904   -0.2268903      1728000    1465.2648        88600        64785 
17730000    1.0489532  -0.23573837      1728000    1466.0618        88650        64820 
17740000   0.99603652  -0.21012139      1728000    1466.8567        88700        64860 
17750000    1.0133607  -0.21504859      1728000     1467.646        88750        64898 
17760000   0.98238568    -0.204101      1728000    1468.4537        88800        64933 
17770000   0.93562296  -0.22799417      1728000     1469.252        88850        64971 
17780000   0.95012737  -0.21786001      1728000    1470.0538        88900        65006 
17790000   0.99108038  -0.21270601      1728000    1470.8639        88950        65038 
17800000   0.94458101  -0.20573032      1728000    1471.6896        89000        65077 
17810000   0.97984731   -0.1895448      1728000     1472.505        89050        65106 
17820000   0.98143509  -0.19950882      1728000     1473.315        89100        65143 
17830000   0.95550993  -0.19504499      1728000    1474.1529        89150        65179 
17840000   0.99831686  -0.20070862      1728000    1474.9569        89200        65217 
17850000    1.0643673   -0.1965068      1728000     1475.757        89250        65254 
17860000    0.9845966  -0.20686149      1728000    1476.5618        89300        65289 
17870000   0.93627387  -0.19756239      1728000    1477.3936        89350        65324 
17880000   0.97850629  -0.18481493      1728000    1478.1929        89400        65363 
17890000     1.007262  -0.17572687      1728000     1478.993        89450        65403 
17900000    1.0004928   -0.1892521      1728000    1479.8067        89500        65438 
17910000   0.92015545  -0.19052137      1728000    1480.6205        89550        65468 
17920000   0.99112008  -0.20017328      1728000     1481.416        89600        65510 
17930000    0.9641879  -0.19506134      1728000    1482.2178        89650        65552 
17940000    1.0168333  -0.21422364      1728000    1483.0177        89700        65590 
17950000    1.0156501  -0.20368408      1728000    1483.9181        89750        65630 
17960000    1.0170312  -0.19975528      1728000    1484.7279        89800        65664 
17970000   0.99733088  -0.19328052      1728000    1485.5258        89850        65706 
17980000    1.0846068   -0.1986606      1728000    1486.3239        89900        65740 
17990000    1.0056652  -0.18491321      1728000    1487.1341        89950        65775 
18000000   0.96642324  -0.18835587      1728000    1487.9696        90000        65813 
18010000    1.0303571  -0.18741833      1728000    1488.8006        90050        65848 
18020000    1.0407082  -0.20551448      1728000    1489.6058        90100        65885 
18030000   0.99881943  -0.19233681      1728000     1490.414        90150        65922 
18040000    1.0399309  -0.20242597      1728000    1491.2232        90200        65962 
18050000   0.94688848  -0.21042914      1728000    1492.0424        90250        66003 
18060000    1.0147834  -0.19037502      1728000    1492.8784        90300        66035 
18070000   0.99339517  -0.19592658      1728000    1493.7138        90350        66074 
18080000   0.96166699  -0.19731841      1728000    1494.5171        90400        66110 
18090000   0.95736317  -0.18312357      1728000    1495.3293        90450        66148 
18100000    0.9944007  -0.20695717      1728000    1496.1598        90500        66182 
18110000    1.0231837  -0.20295172      1728000     1496.971        90550        66222 
18120000   0.97944297  -0.21687393      1728000      1497.76        90600        66262 
18130000   0.94751269   -0.2099287      1728000    1498.5798        90650        66301 
18140000   0.94545932  -0.20446766      1728000    1499.4136        90700        66339 
18150000   0.95319515  -0.20593887      1728000    1500.2319        90750        66375 
18160000    1.0124252  -0.19112876      1728000    1501.0386        90800        66410 
18170000   0.91370283  -0.20303067      1728000    1501.8649        90850        66448 
18180000   0.97910906  -0.19543827      1728000    1502.6627        90900        66488 
18190000   0.94023547   -0.2003262      1728000    1503.4846        90950        66523 
18200000   0.92838076  -0.21034642      1728000    1504.3357        91000        66556 
18210000    1.0184172  -0.21334076      1728000    1505.1718        91050        66596 
18220000    1.0261899  -0.20173824      1728000    1506.0116        91100        66637 
18230000   0.99007331  -0.22575154      1728000    1506.8694        91150        66676 
18240000    1.0321178  -0.23565802      1728000    1507.7045        91200        66713 
18250000   0.95027403  -0.22965546      1728000    1508.5458        91250        66751 
18260000    1.0099072  -0.22337396      1728000     1509.369        91300        66778 
18270000    1.0101484  -0.22421581      1728000    1510.1951        91350        66809 
18280000   0.91200055  -0.22529021      1728000     1510.999        91400        66840 
18290000    0.9981354  -0.22646318      1728000    1511.8384        91450        66871 
18300000   0.96803074  -0.22106314      1728000    1512.6976        91500        66914 
18310000    1.0135977  -0.20516216      1728000    1513.5048        91550        66952 
18320000    0.9901822  -0.21030756      1728000    1514.3379        91600        66990 
18330000   0.96798006  -0.21395207      1728000    1515.1591        91650        67031 
18340000   0.97485904  -0.23831469      1728000    1515.9727        91700        67065 
18350000   0.99631066  -0.20741743      1728000    1516.7788        91750        67102 
18360000    1.0200573  -0.20158848      1728000     1517.596        91800        67134 
18370000   0.95940642   -0.1922095      1728000    1518.4087        91850        67170 
18380000      1.02968  -0.19636092      1728000    1519.2392        91900        67209 
18390000    1.0481406  -0.18420596      1728000    1520.0854        91950        67241 
18400000     1.005135  -0.17845832      1728000    1521.0264        92000        67280 
18410000   0.99413371  -0.20666961      1728000    1521.9175        92050        67317 
18420000    1.0318492  -0.21403298      1728000    1522.7816        92100        67354 
18430000    1.0102228  -0.21571624      1728000    1523.6902        92150        67387 
18440000   0.94768039  -0.21403561      1728000    1524.5048        92200        67425 
18450000   0.98454345  -0.19795087      1728000    1525.3201        92250        67462 
18460000   0.97294642  -0.20382896      1728000    1526.1393        92300        67500 
18470000    1.0665433  -0.18216883      1728000    1526.9574        92350        67537 
18480000    1.0309264   -0.1647605      1728000    1527.7599        92400        67573 
18490000   0.95262905  -0.17799168      1728000    1528.5611        92450        67612 
18500000     1.005242  -0.18049171      1728000    1529.3698        92500        67650 
18510000   0.94677101  -0.20650584      1728000     1530.171        92550        67688 
18520000    1.0461507   -0.1842207      1728000    1530.9707        92600        67721 
18530000    1.0385824  -0.16477685      1728000     1531.782        92650        67760 
18540000    1.0329384  -0.18659132      1728000     1532.581        92700        67798 
18550000   0.95569885  -0.17342158      1728000    1533.4022        92750        67837 
18560000    1.0004581  -0.18187254      1728000    1534.2215        92800        67878 
18570000    1.0493743  -0.17027721      1728000    1535.0294        92850        67916 
18580000    1.0025454  -0.18465884      1728000    1535.8766        92900        67954 
18590000    1.0000588  -0.20435934      1728000    1536.6758        92950        67990 
18600000   0.93991524  -0.19457626      1728000    1537.4979        93000        68022 
18610000    1.0224584  -0.20663783      1728000    1538.3104        93050        68061 
18620000     1.020267  -0.21128328      1728000    1539.1088        93100        68100 
18630000   0.99442695  -0.20289389      1728000    1539.9241        93150        68136 
18640000    1.0116134  -0.21026019      1728000    1540.7323        93200        68175 
18650000    1.0173533  -0.21259803      1728000    1541.5744        93250        68211 
18660000   0.97127675  -0.20320229      1728000    1542.3886        93300        68251 
18670000   0.98168376  -0.20460924      1728000    1543.2046        93350        68289 
18680000     1.078207  -0.20445683      1728000    1544.0247        93400        68327 
18690000     1.015741  -0.19576736      1728000    1544.8279        93450        68361 
18700000    1.0721759  -0.19949469      1728000    1545.6408        93500        68403 
18710000    1.0061116  -0.19722352      1728000    1546.4418        93550        68438 
18720000   0.93546015  -0.21051322      1728000    1547.2428        93600        68473 
18730000   0.92326038  -0.20668072      1728000     1548.058        93650        68511 
18740000   0.98411986  -0.20283909      1728000    1548.8668        93700        68550 
18750000   0.94184606  -0.20059545      1728000    1549.7636        93750        68590 
18760000    1.0097975  -0.22247249      1728000    1550.5997        93800        68627 
18770000   0.98767635  -0.22455245      1728000    1551.4488        93850        68664 
18780000    1.1138458  -0.20739374      1728000    1552.2557        93900        68700 
18790000   0.93893778  -0.20559619      1728000    1553.0644        93950        68736 
18800000    1.0220515  -0.21499217      1728000    1553.9116        94000        68776 
18810000   0.96399705  -0.22603072      1728000    1554.7198        94050        68807 
18820000   0.97288247  -0.21809348      1728000    1555.5223        94100        68844 
18830000   0.95462514  -0.24339213      1728000    1556.3844        94150        68882 
18840000   0.98695202  -0.22444144      1728000    1557.2475        94200        68916 
18850000    1.0046751  -0.21482262      1728000    1558.0887        94250        68955 
18860000   0.98517521  -0.21083478      1728000    1558.9658        94300        68987 
18870000   0.99337535  -0.22900511      1728000    1559.7839        94350        69020 
18880000    1.0466848   -0.2089313      1728000    1560.6151        94400        69052 
18890000    1.0231564  -0.22846678      1728000    1561.4306        94450        69087 
18900000   0.97224069  -0.21984661      1728000    1562.2506        94500        69125 
18910000    1.0320452  -0.21950792      1728000    1563.0955        94550        69161 
18920000    1.0288461  -0.22588798      1728000    1563.9267        94600        69195 
18930000    1.0156253  -0.23238545      1728000    1564.8058        94650        69231 
18940000    1.0133183  -0.22562396      1728000    1565.6509        94700        69264 
18950000    1.0766403  -0.21030151      1728000     1566.482        94750        69299 
18960000    1.0156279  -0.20848539      1728000    1567.3791        94800        69332 
18970000    1.0100338   -0.2103238      1728000    1568.3391        94850        69368 
18980000    1.0065269  -0.21883782      1728000    1569.1683        94900        69400 
18990000    1.0399914  -0.22201737      1728000    1569.9885        94950        69435 
19000000    1.0500611  -0.21633271      1728000    1570.8108        95000        69469 
19010000    0.9668911  -0.22531006      1728000    1571.6387        95050        69504 
19020000    0.9188024  -0.20338086      1728000    1572.4948        95100        69542 
19030000    0.9801186  -0.20125157      1728000    1573.3217        95150        69574 
19040000    1.0588838  -0.22088444      1728000    1574.1367        95200        69616 
19050000   0.91416889  -0.21576479      1728000    1574.9887        95250        69646 
19060000   0.97576216  -0.22402042      1728000    1575.8104        95300        69678 
19070000   0.96950844  -0.22856244      1728000    1576.6446        95350        69717 
19080000    1.0208062  -0.21563041      1728000    1577.4715        95400        69751 
19090000   0.93059577  -0.22377131      1728000    1578.3046        95450        69787 
19100000    1.0311675  -0.22734816      1728000    1579.1616        95500        69817 
19110000    1.0441926  -0.21839397      1728000    1579.9906        95550        69851 
19120000   0.97384123  -0.21864166      1728000    1580.9246        95600        69889 
19130000    1.0552418  -0.22917185      1728000    1581.8301        95650        69922 
19140000   0.99852547  -0.22499811      1728000    1582.7012        95700        69959 
19150000   0.92801037  -0.23147411      1728000    1583.5544        95750        69987 
19160000    1.0374204  -0.22469114      1728000    1584.3825        95800        70025 
19170000   0.95242807  -0.22450383      1728000    1585.2127        95850        70064 
19180000   0.96807385  -0.21348238      1728000    1586.0548        95900        70109 
19190000   0.99209423  -0.20237145      1728000    1586.8779        95950        70142 
19200000    1.0678687  -0.20478033      1728000     1587.744        96000        70183 
19210000    1.0164269  -0.21731466      1728000    1588.5862        96050        70218 
19220000    1.0466155  -0.19629495      1728000    1589.4133        96100        70254 
19230000    1.0020366  -0.18692651      1728000    1590.4033        96150        70287 
19240000   0.99705902  -0.19382094      1728000    1591.2265        96200        70325 
19250000    1.0328098  -0.20481971      1728000    1592.0577        96250        70356 
19260000    1.0046238  -0.18137704      1728000     1592.889        96300        70394 
19270000    1.0398961  -0.18596568      1728000    1593.7101        96350        70432 
19280000   0.97768664  -0.18775617      1728000    1594.5513        96400        70469 
19290000   0.99633392  -0.20286205      1728000    1595.3774        96450        70506 
19300000    1.0089654  -0.18529411      1728000    1596.2585        96500        70540 
19310000    1.0790348  -0.18104684      1728000    1597.0597        96550        70582 
19320000   0.92976623   -0.1902394      1728000    1597.8779        96600        70619 
19330000    1.0458622  -0.18590084      1728000     1598.689        96650        70654 
19340000   0.97796645   -0.2021457      1728000    1599.4872        96700        70691 
19350000     1.040495  -0.19255588      1728000    1600.3314        96750        70734 
19360000    1.0042405  -0.19370699      1728000    1601.1465        96800        70770 
19370000    1.0124243  -0.19655956      1728000    1601.9578        96850        70811 
19380000    0.9542696  -0.20748144      1728000    1602.8109        96900        70853 
19390000    0.9874073  -0.19131846      1728000    1603.6311        96950        70892 
19400000   0.99250851  -0.19737243      1728000    1604.4503        97000        70932 
19410000    0.9849722  -0.20300628      1728000    1605.2575        97050        70964 
19420000    0.9824885  -0.20611182      1728000    1606.0856        97100        71004 
19430000   0.98067885  -0.19635527      1728000    1607.1026        97150        71044 
19440000   0.94917558  -0.19529316      1728000    1607.9847        97200        71084 
19450000    1.0067872  -0.19907452      1728000    1608.9208        97250        71119 
19460000    1.0153791  -0.21171446      1728000    1609.7519        97300        71157 
19470000   0.97011477  -0.20791692      1728000    1610.5991        97350        71196 
19480000   0.99573025  -0.20145968      1728000    1611.4371        97400        71232 
19490000    1.0478664  -0.21111441      1728000    1612.2801        97450        71272 
19500000   0.97002396  -0.18557282      1728000    1613.1103        97500        71310 
19510000   0.99905917  -0.17281549      1728000    1613.9564        97550        71348 
19520000    1.0201232  -0.16655167      1728000    1614.7616        97600        71391 
19530000   0.93939371  -0.18063777      1728000    1615.5788        97650        71432 
19540000   0.96410072  -0.16852472      1728000    1616.3833        97700        71468 
19550000   0.97124628  -0.17295883      1728000    1617.1985        97750        71510 
19560000     1.046188  -0.15791417      1728000    1618.0329        97800        71548 
19570000    1.0072003  -0.16567891      1728000    1618.8417        97850        71581 
19580000    0.9919083  -0.17181912      1728000    1619.6397        97900        71621 
19590000    1.0379224  -0.18310572      1728000    1620.4306        97950        71662 
19600000   0.95252908  -0.18000581      1728000    1621.2377        98000        71702 
19610000   0.98076295  -0.18299882      1728000    1622.0336        98050        71744 
19620000   0.94025054  -0.19094051      1728000    1622.8244        98100        71783 
19630000    1.0606742  -0.19226783      1728000    1623.6367        98150        71823 
19640000    1.0487913  -0.21153797      1728000    1624.4327        98200        71856 
19650000    1.0865733  -0.18967467      1728000    1625.2644        98250        71895 
19660000   0.96252658  -0.19199427      1728000    1626.0596        98300        71938 
19670000   0.98150629  -0.20220765      1728000    1626.9005        98350        71978 
19680000    0.9971445  -0.19414521      1728000    1627.7156        98400        72012 
19690000    1.0054354  -0.20884591      1728000    1628.5205        98450        72049 
19700000    1.0026887  -0.20005531      1728000    1629.3706        98500        72091 
19710000    0.9839835  -0.18958163      1728000    1630.1858        98550        72127 
19720000    1.0201118  -0.20794257      1728000     1630.988        98600        72166 
19730000    1.0037547  -0.21609867      1728000    1631.7884        98650        72199 
19740000   0.92604303  -0.21512666      1728000    1632.6016        98700        72238 
19750000   0.97988159   -0.2236845      1728000    1633.4052        98750        72273 
19760000    1.0276922   -0.2269543      1728000    1634.3437        98800        72313 
19770000   0.93139833  -0.21180071      1728000    1635.1769        98850        72348 
19780000   0.98819812  -0.20664424      1728000     1636.007        98900        72378 
19790000    1.0354733  -0.22318126      1728000    1636.8482        98950        72418 
19800000   0.97812759  -0.22286084      1728000    1637.7013        99000        72454 
19810000   0.93789131  -0.21840443      1728000    1638.5554        99050        72488 
19820000   0.93664345  -0.21507172      1728000    1639.3675        99100        72522 
19830000    1.0223365  -0.21609075      1728000    1640.1847        99150        72554 
19840000     1.068722  -0.21022959      1728000    1641.0059        99200        72590 
19850000   0.94415332   -0.2184178      1728000    1641.8085        99250        72630 
19860000    1.0988738  -0.20395734      1728000    1642.6116        99300        72671 
19870000    1.0046134  -0.20840731      1728000    1643.4094        99350        72704 
19880000    0.9281585  -0.19437569      1728000    1644.2096        99400        72738 
19890000    1.0228346  -0.19199689      1728000    1645.0146        99450        72773 
19900000    1.0660312  -0.20729973      1728000    1645.8617        99500        72813 
19910000    1.0158484  -0.22095683      1728000    1646.6595        99550        72846 
19920000    1.0138689  -0.20637343      1728000    1647.4744        99600        72883 
19930000   0.99325594   -0.2052881      1728000    1648.2895        99650        72921 
19940000   0.99053496  -0.20520569      1728000    1649.1899        99700        72959 
19950000   0.96364467  -0.20849679      1728000    1649.9901        99750        72990 
19960000   0.94954501  -0.21326795      1728000    1650.8873        99800        73030 
19970000    1.0172188  -0.21615093      1728000    1651.8892        99850        73069 
19980000   0.97664564  -0.19619694      1728000    1652.7264        99900        73106 
19990000   0.98180943  -0.20712239      1728000    1653.5665        99950        73139 
20000000    1.0591803  -0.21456662      1728000    1654.4047       100000        73175 
20010000    1.0201057  -0.20133969      1728000    1655.2209       100050        73210 
20020000    1.0266181    -0.194148      1728000    1656.0217       100100        73245 
20030000     1.068543  -0.23250998      1728000     1656.843       100150        73279 
20040000   0.99927858  -0.22129898      1728000    1657.6614       100200        73309 
20050000    1.0092793  -0.21750756      1728000    1658.4666       100250        73342 
20060000    1.0487656  -0.22044445      1728000    1659.2623       100300        73371 
20070000   0.99797006  -0.22594509      1728000    1660.0595       100350        73403 
20080000   0.99079008  -0.21275041      1728000    1660.8598       100400        73433 
20090000   0.98023741  -0.21522931      1728000    1661.6764       100450        73467 
20100000    1.0041953  -0.21090013      1728000    1662.4776       100500        73508 
20110000    1.0180663  -0.21602813      1728000      1663.27       100550        73545 
20120000   0.98797042   -0.2214464      1728000    1664.0717       100600        73580 
20130000   0.95044748  -0.21949085      1728000    1664.8725       100650        73611 
20140000    1.0534305  -0.20820827      1728000    1665.6725       100700        73645 
20150000     1.018864  -0.20095475      1728000    1666.4805       100750        73680 
20160000    1.0192292  -0.20554957      1728000    1667.3004       100800        73718 
20170000   0.93573189  -0.20442759      1728000    1668.1274       100850        73752 
20180000   0.99745708  -0.20356588      1728000    1668.9344       100900        73787 
20190000   0.96567772  -0.20541353      1728000    1669.7286       100950        73826 
20200000   0.99034328  -0.20972484      1728000    1670.5394       101000        73862 
20210000    1.0232675   -0.2248044      1728000    1671.3625       101050        73899 
20220000     0.966275  -0.22841316      1728000    1672.1725       101100        73933 
20230000    1.0065527  -0.22161821      1728000    1672.9997       101150        73969 
20240000   0.92794206  -0.22769508      1728000    1673.8024       101200        74006 
20250000     0.924153  -0.23538333      1728000    1674.6034       101250        74043 
20260000    1.0538161  -0.22409748      1728000    1675.3956       101300        74081 
20270000   0.94600957  -0.22269342      1728000    1676.2024       101350        74116 
20280000    1.0036977  -0.21806489      1728000    1677.0344       101400        74152 
20290000    0.9952902   -0.2131419      1728000    1677.8416       101450        74192 
20300000    1.0416065  -0.22624547      1728000    1678.6746       101500        74229 
20310000    0.9899663  -0.21338095      1728000    1679.5064       101550        74265 
20320000    1.0462783  -0.21081505      1728000    1680.3017       101600        74304 
20330000   0.95750018   -0.2225684      1728000    1681.1244       101650        74346 
20340000    1.0208657  -0.21084515      1728000    1681.9266       101700        74382 
20350000    1.0342809  -0.21677483      1728000    1682.7286       101750        74419 
20360000    1.0402992  -0.19969984      1728000    1683.5333       101800        74456 
20370000    1.0338629  -0.20223879      1728000    1684.3444       101850        74492 
20380000     1.032317  -0.22194595      1728000    1685.1477       101900        74531 
20390000   0.98885106  -0.22002346      1728000    1685.9405       101950        74568 
20400000   0.97986001  -0.21565712      1728000    1686.7406       102000        74604 
20410000   0.99210436  -0.24662067      1728000    1687.5415       102050        74638 
20420000   0.97642791  -0.24316872      1728000    1688.3465       102100        74673 
20430000    1.0315162  -0.21412521      1728000    1689.1602       102150        74709 
20440000   0.94269338  -0.22319283      1728000    1689.9944       102200        74745 
20450000    1.0258918  -0.22022304      1728000    1690.7905       102250        74780 
20460000    1.0190371  -0.22819757      1728000    1691.5965       102300        74816 
20470000   0.96864324  -0.20627705      1728000    1692.4011       102350        74855 
20480000   0.97544182  -0.20270998      1728000    1693.1983       102400        74885 
20490000    1.0041336   -0.2038261      1728000    1694.0155       102450        74919 
20500000    1.0585374  -0.20558447      1728000    1694.8246       102500        74956 
20510000    1.0416958   -0.2153669      1728000    1695.6388       102550        74997 
20520000    1.0320221  -0.20849926      1728000    1696.4461       102600        75031 
20530000   0.97264556  -0.21969043      1728000    1697.2465       102650        75070 
20540000    0.9347804  -0.23127754      1728000    1698.0717       102700        75113 
20550000    1.0725135  -0.22911384      1728000    1698.8744       102750        75150 
20560000    1.0243348   -0.2305462      1728000    1699.6784       102800        75182 
20570000   0.97522674  -0.21179499      1728000    1700.4775       102850        75220 
20580000   0.99923714  -0.19314416      1728000    1701.2744       102900        75261 
20590000    1.0333146  -0.20425141      1728000    1702.0754       102950        75296 
20600000   0.95502475  -0.22359209      1728000    1702.9056       103000        75326 
20610000    1.0152959  -0.21576799      1728000    1703.7075       103050        75366 
20620000     1.002214  -0.21849686      1728000    1704.5304       103100        75398 
20630000    1.0696059  -0.21872873      1728000    1705.3483       103150        75435 
20640000    1.0132981  -0.21442037      1728000    1706.1504       103200        75470 
20650000    1.0152486  -0.19803158      1728000    1706.9576       103250        75511 
20660000   0.91667735  -0.21272572      1728000    1707.7622       103300        75551 
20670000   0.98079588  -0.21138638      1728000    1708.5635       103350        75587 
20680000   0.97362582      -0.2158      1728000    1709.3606       103400        75622 
20690000    1.0797513  -0.21182604      1728000    1710.1606       103450        75656 
20700000   0.96363193  -0.21307749      1728000    1710.9734       103500        75693 
20710000    1.0416669  -0.20679787      1728000    1711.7685       103550        75729 
20720000    1.0623504  -0.20389093      1728000    1712.5712       103600        75762 
20730000    0.9953222   -0.2024858      1728000    1713.3786       103650        75799 
20740000   0.99268898  -0.20618232      1728000    1714.1986       103700        75835 
20750000   0.94603988   -0.2101471      1728000    1715.0044       103750        75868 
20760000    1.0451909  -0.21830523      1728000    1715.8176       103800        75900 
20770000   0.95931029  -0.20406287      1728000    1716.6215       103850        75937 
20780000   0.97106808  -0.18560984      1728000    1717.4364       103900        75972 
20790000    1.0140243  -0.21549807      1728000    1718.2395       103950        76007 
20800000    1.0055954  -0.20105064      1728000    1719.0584       104000        76034 
20810000    1.0161505  -0.21654076      1728000    1719.8791       104050        76070 
20820000    1.0532426   -0.2147578      1728000    1720.6783       104100        76107 
20830000    1.0288824  -0.22309505      1728000    1721.5324       104150        76140 
20840000     1.046439  -0.22267029      1728000    1722.3346       104200        76175 
20850000    1.0365084  -0.22584189      1728000    1723.1523       104250        76209 
20860000    1.0516299  -0.22182548      1728000    1723.9666       104300        76248 
20870000   0.95910917  -0.21480821      1728000    1724.7615       104350        76285 
20880000    1.0059485  -0.20490811      1728000    1725.5654       104400        76324 
20890000     1.011169  -0.20092591      1728000    1726.3765       104450        76361 
20900000   0.93860862  -0.20407613      1728000    1727.1866       104500        76399 
20910000    1.0462101  -0.19355082      1728000    1728.0034       104550        76432 
20920000   0.98387018  -0.19044335      1728000    1728.8114       104600        76470 
20930000   0.98660218  -0.18683156      1728000    1729.6926       104650        76507 
20940000    1.0504042  -0.20267025      1728000    1730.4894       104700        76545 
20950000   0.93520901  -0.19993058      1728000    1731.2836       104750        76589 
20960000   0.98515279  -0.20640648      1728000    1732.0851       104800        76623 
20970000    1.0168487  -0.19809629      1728000    1732.9005       104850        76660 
20980000    1.0211681  -0.20737152      1728000    1733.7184       104900        76696 
20990000   0.98373895  -0.19824167      1728000    1734.5253       104950        76727 
21000000   0.94616844  -0.21746849      1728000    1735.3384       105000        76764 
21010000   0.98453202  -0.23810297      1728000    1736.1513       105050        76801 
21020000     1.034225  -0.21213285      1728000    1736.9524       105100        76832 
21030000   0.97840441  -0.21290626      1728000    1737.7565       105150        76875 
21040000    1.0487946  -0.20753716      1728000    1738.5592       105200        76907 
21050000    1.0033011  -0.20568287      1728000    1739.3594       105250        76941 
21060000   0.92948694  -0.20207439      1728000    1740.1592       105300        76968 
21070000    1.0312936  -0.18097761      1728000    1740.9585       105350        77011 
21080000   0.99925018  -0.19858595      1728000    1741.7746       105400        77049 
21090000   0.96014522  -0.20384475      1728000    1742.5768       105450        77087 
21100000   0.99492394  -0.20790005      1728000    1743.5328       105500        77121 
21110000    1.0113836  -0.20270044      1728000    1744.4379       105550        77151 
21120000    1.0367545   -0.2057717      1728000     1745.286       105600        77186 
21130000   0.93671666  -0.20745971      1728000    1746.1512       105650        77225 
21140000    1.0101325  -0.18752146      1728000    1747.1251       105700        77259 
21150000     0.980588   -0.1935801      1728000    1747.9435       105750        77293 
21160000   0.87123238  -0.21280583      1728000    1748.7497       105800        77330 
21170000   0.96982278  -0.20483898      1728000    1749.5573       105850        77363 
21180000   0.99838117  -0.20555965      1728000    1750.4005       105900        77402 
21190000    1.0016086   -0.1986064      1728000    1751.2133       105950        77440 
21200000     1.001552  -0.18866375      1728000    1752.0324       106000        77475 
21210000    1.0452348  -0.21045062      1728000    1752.8283       106050        77515 
21220000   0.93602654  -0.20789384      1728000    1753.6333       106100        77551 
21230000   0.92798634  -0.19809627      1728000    1754.4345       106150        77595 
21240000   0.90112052  -0.20923688      1728000    1755.2284       106200        77633 
21250000    1.0499309  -0.21881924      1728000    1756.0334       106250        77668 
21260000   0.98819792  -0.21750352      1728000    1756.9129       106300        77703 
21270000     1.007072  -0.22467738      1728000    1757.7172       106350        77742 
21280000   0.99518324  -0.22695648      1728000    1758.5449       106400        77780 
21290000    1.0288476  -0.22242083      1728000     1759.387       106450        77807 
21300000    1.0177605  -0.22125892      1728000    1760.2283       106500        77846 
21310000   0.94442158  -0.22490469      1728000    1761.0944       106550        77885 
21320000    1.0497757  -0.21130924      1728000    1761.9276       106600        77918 
21330000   0.94921168  -0.22019339      1728000    1762.7323       106650        77953 
21340000    1.0376753  -0.22378911      1728000    1763.5336       106700        77990 
21350000   0.97263342  -0.19991205      1728000    1764.3398       106750        78027 
21360000    1.0342234  -0.20426725      1728000    1765.1344       106800        78068 
21370000    1.0140298  -0.18422204      1728000    1765.9514       106850        78103 
21380000    1.0060197   -0.1980921      1728000    1766.7531       106900        78140 
21390000      1.04016  -0.20098684      1728000    1767.5515       106950        78178 
21400000    1.0365788  -0.18979547      1728000    1768.3612       107000        78214 
21410000    1.0236536  -0.18624107      1728000    1769.1575       107050        78252 
21420000    1.0151164  -0.20352516      1728000    1769.9794       107100        78290 
21430000    1.0303936  -0.21586719      1728000    1770.7812       107150        78331 
21440000   0.98451412  -0.22559935      1728000    1771.5823       107200        78367 
21450000   0.94697255  -0.20897728      1728000    1772.3763       107250        78400 
21460000    1.0411612  -0.23141732      1728000    1773.1873       107300        78432 
21470000    1.0129099  -0.21149693      1728000    1774.0215       107350        78467 
21480000   0.97332933  -0.19859896      1728000    1774.8174       107400        78502 
21490000    1.0486036  -0.21300673      1728000    1775.6174       107450        78541 
21500000    1.0209706  -0.19283749      1728000    1776.4334       107500        78583 
21510000    1.0372076  -0.18666199      1728000    1777.2374       107550        78617 
21520000   0.96287703     -0.17491      1728000    1778.0334       107600        78655 
21530000      1.02129  -0.17523207      1728000    1778.8364       107650        78691 
21540000   0.95336678  -0.18509256      1728000    1779.6585       107700        78728 
21550000    1.0198999  -0.17934963      1728000    1780.4504       107750        78764 
21560000   0.93533448  -0.18055649      1728000    1781.2634       107800        78803 
21570000     0.995768  -0.17355722      1728000    1782.0844       107850        78837 
21580000   0.96690211  -0.16670789      1728000    1782.8774       107900        78877 
21590000    1.0449397  -0.18450924      1728000    1783.6972       107950        78913 
21600000     1.004252  -0.17955498      1728000    1784.5063       108000        78943 
21610000   0.95481656  -0.18500366      1728000    1785.3081       108050        78976 
21620000   0.96092055  -0.17053593      1728000    1786.1202       108100        79013 
21630000     1.024641  -0.16803111      1728000    1786.9133       108150        79054 
21640000    1.0268257  -0.16812945      1728000    1787.7013       108200        79092 
21650000    1.0369451   -0.1636072      1728000    1788.4834       108250        79128 
21660000   0.97957575  -0.18297409      1728000    1789.2723       108300        79170 
21670000    1.0058919  -0.19685174      1728000    1790.0683       108350        79205 
21680000   0.97137137  -0.18594993      1728000    1790.8653       108400        79237 
21690000    1.0074356  -0.19304668      1728000    1791.6582       108450        79278 
21700000   0.99026347  -0.17649962      1728000    1792.4563       108500        79313 
21710000     0.971646   -0.1965133      1728000    1793.2631       108550        79348 
21720000    1.0250549  -0.18441312      1728000    1794.0582       108600        79384 
21730000     1.074624  -0.18536863      1728000    1794.8501       108650        79414 
21740000    1.0230497  -0.20769909      1728000    1795.6473       108700        79447 
21750000   0.98411299  -0.19777658      1728000    1796.4422       108750        79479 
21760000    1.0586021  -0.20743753      1728000    1797.2345       108800        79512 
21770000    1.0237071   -0.2146783      1728000    1798.0322       108850        79543 
21780000    1.0703406   -0.2253613      1728000    1798.8274       108900        79580 
21790000   0.99717836  -0.23008781      1728000    1799.6303       108950        79606 
21800000   0.94521856  -0.22302548      1728000    1800.4593       109000        79641 
21810000   0.96504881  -0.22353814      1728000    1801.2591       109050        79678 
21820000    1.0050879  -0.21161433      1728000    1802.0531       109100        79713 
21830000   0.95403399  -0.22400466      1728000    1802.8601       109150        79742 
21840000   0.95972814  -0.22844278      1728000    1803.6752       109200        79775 
21850000   0.97958415  -0.24026803      1728000     1804.484       109250        79806 
21860000   0.98832188  -0.23662238      1728000    1805.3061       109300        79848 
21870000   0.96534646  -0.23876109      1728000    1806.1162       109350        79886 
21880000    1.0352558  -0.24020799      1728000    1806.9211       109400        79920 
21890000    1.0425246  -0.21990872      1728000    1807.7413       109450        79955 
21900000    1.0066984   -0.2155951      1728000    1808.5491       109500        79990 
21910000     1.004464  -0.23695659      1728000    1809.3463       109550        80029 
21920000    1.0337497  -0.23798787      1728000    1810.1422       109600        80066 
21930000    1.0162755  -0.23327237      1728000    1810.9391       109650        80101 
21940000   0.98089746  -0.22979734      1728000    1811.7453       109700        80133 
21950000    1.0166183  -0.21604123      1728000    1812.5482       109750        80172 
21960000   0.97297484  -0.21159961      1728000    1813.3512       109800        80202 
21970000   0.96766802  -0.21489339      1728000    1814.1932       109850        80243 
21980000    1.0102954  -0.21166325      1728000     1814.994       109900        80281 
21990000   0.98407671  -0.21715236      1728000    1815.8112       109950        80316 
22000000    0.9836729  -0.22799361      1728000    1816.6172       110000        80354 
22010000    1.1046108  -0.23788705      1728000    1817.4236       110050        80389 
22020000     1.047338  -0.24481418      1728000    1818.2427       110100        80420 
22030000    1.0333418  -0.23664089      1728000    1819.0589       110150        80456 
22040000    1.0176264  -0.21981617      1728000    1819.8575       110200        80493 
22050000   0.95692163  -0.23032695      1728000    1820.6602       110250        80527 
22060000   0.98347986  -0.21997744      1728000    1821.4599       110300        80563 
22070000    0.9677936  -0.22185193      1728000    1822.2635       110350        80597 
22080000    1.0360339  -0.23177164      1728000    1823.0822       110400        80637 
22090000     1.084211  -0.21691404      1728000    1823.8954       110450        80676 
22100000    1.0455218  -0.21644504      1728000    1824.7085       110500        80713 
22110000   0.98579651  -0.23255756      1728000    1825.5088       110550        80747 
22120000    1.0418186  -0.21279397      1728000    1826.3153       110600        80781 
22130000    0.9526693  -0.20359969      1728000    1827.1349       110650        80820 
22140000   0.98071469  -0.20176636      1728000    1827.9321       110700        80858 
22150000    1.0552899  -0.21042777      1728000    1828.7346       110750        80896 
22160000    1.0283023  -0.21825382      1728000    1829.5362       110800        80927 
22170000    1.0606161  -0.22941984      1728000    1830.3321       110850        80966 
22180000   0.98722665  -0.23794309      1728000    1831.1273       110900        81007 
22190000   0.92517215  -0.23345205      1728000     1831.928       110950        81039 
22200000    1.1213607  -0.23075535      1728000    1832.7372       111000        81074 
22210000    1.0404218  -0.23721118      1728000    1833.5518       111050        81107 
22220000   0.98392247  -0.23308875      1728000    1834.3493       111100        81141 
22230000    1.0381877   -0.2472895      1728000    1835.1534       111150        81175 
22240000   0.97050943   -0.2407605      1728000    1835.9482       111200        81201 
22250000    1.0002586  -0.21527835      1728000    1836.7477       111250        81233 
22260000    1.0517603  -0.22112882      1728000    1837.5578       111300        81274 
22270000    1.0101467  -0.22417922      1728000    1838.3662       111350        81309 
22280000    1.0443422  -0.23123628      1728000    1839.2079       111400        81345 
22290000    1.0139336  -0.24234513      1728000     1840.013       111450        81383 
22300000    1.0311745  -0.22903983      1728000    1840.8251       111500        81419 
22310000   0.97080893  -0.21190258      1728000    1841.6521       111550        81455 
22320000    1.0120533  -0.21273181      1728000    1842.4711       111600        81489 
22330000   0.91770007  -0.22441517      1728000    1843.2832       111650        81527 
22340000    1.0159286  -0.22098798      1728000    1844.0924       111700        81566 
22350000    1.0272986  -0.24451149      1728000    1844.9102       111750        81600 
22360000    1.0100837  -0.23740467      1728000     1845.745       111800        81635 
22370000    1.0466119  -0.23801391      1728000     1846.563       111850        81675 
22380000   0.98977151  -0.23416734      1728000    1847.3573       111900        81715 
22390000   0.99554454  -0.22267888      1728000     1848.151       111950        81754 
22400000    1.0637159   -0.2096783      1728000    1848.9753       112000        81789 
22410000    1.0540347  -0.21535055      1728000    1849.7692       112050        81824 
22420000    1.0451637  -0.20732498      1728000    1850.5616       112100        81859 
22430000   0.97511729  -0.22417446      1728000    1851.3552       112150        81896 
22440000   0.93756529   -0.2122093      1728000    1852.1484       112200        81930 
22450000    1.0550624  -0.21145284      1728000    1852.9503       112250        81971 
22460000    1.0038893  -0.20747262      1728000    1853.7475       112300        82007 
22470000    1.0030772  -0.21181161      1728000    1854.5371       112350        82047 
22480000   0.99865684  -0.21980525      1728000    1855.3402       112400        82087 
22490000    1.0437219  -0.20812745      1728000    1856.1521       112450        82122 
22500000   0.91285389   -0.2118664      1728000    1856.9541       112500        82161 
22510000    1.0305152  -0.20817194      1728000    1857.7591       112550        82202 
22520000     1.036476  -0.21379389      1728000    1858.5894       112600        82240 
22530000    1.0037357  -0.21503991      1728000    1859.4198       112650        82273 
22540000   0.98833267  -0.21696431      1728000     1860.259       112700        82308 
22550000    1.0318787  -0.22486762      1728000    1861.0493       112750        82347 
22560000    0.9786189  -0.24732104      1728000    1861.8506       112800        82380 
22570000   0.98231167  -0.21029345      1728000    1862.6476       112850        82412 
22580000   0.98535994   -0.2176847      1728000     1863.452       112900        82449 
22590000    1.0059479  -0.22183581      1728000    1864.2587       112950        82482 
22600000    1.0028502  -0.22586079      1728000    1865.0681       113000        82516 
22610000    1.0286273  -0.24125615      1728000    1865.8902       113050        82551 
22620000    1.0065055  -0.23532059      1728000    1866.7572       113100        82583 
22630000    1.0381184    -0.220795      1728000    1867.5752       113150        82616 
22640000   0.95097473  -0.20171702      1728000     1868.373       113200        82655 
22650000   0.97563318  -0.19796167      1728000    1869.2288       113250        82691 
22660000    1.0740009  -0.19094136      1728000    1870.0469       113300        82728 
22670000   0.99241093  -0.19393237      1728000    1870.8722       113350        82763 
22680000   0.97373478  -0.20048588      1728000    1871.6814       113400        82797 
22690000   0.97382795  -0.20525312      1728000    1872.4797       113450        82832 
22700000   0.96525024  -0.20773356      1728000    1873.2892       113500        82870 
22710000   0.98339941   -0.2094191      1728000    1874.0975       113550        82902 
22720000    1.0159777  -0.20151132      1728000    1874.8956       113600        82937 
22730000    1.0140105  -0.19345977      1728000    1875.7001       113650        82974 
22740000   0.99440015  -0.20963729      1728000    1876.5242       113700        83015 
22750000    1.0033264  -0.19180558      1728000    1877.3181       113750        83050 
22760000   0.96044469  -0.20381903      1728000    1878.1351       113800        83085 
22770000    1.0728315  -0.19680677      1728000    1878.9282       113850        83121 
22780000    1.0148948  -0.20187416      1728000    1879.7419       113900        83156 
22790000   0.98835596  -0.20411282      1728000    1880.5661       113950        83192 
22800000    1.0093229  -0.21672835      1728000    1881.3683       114000        83227 
22810000    1.0015767  -0.20886864      1728000    1882.1662       114050        83260 
22820000    0.9720198  -0.20812002      1728000    1882.9692       114100        83303 
22830000   0.97244596  -0.20235824      1728000    1883.7781       114150        83332 
22840000   0.98882217  -0.21156757      1728000     1884.592       114200        83371 
22850000    1.0011923  -0.22242084      1728000    1885.3912       114250        83410 
22860000    1.0680557  -0.22463818      1728000    1886.2202       114300        83448 
22870000     0.978065  -0.21852813      1728000    1887.0271       114350        83482 
22880000   0.94407009  -0.22724754      1728000    1887.8361       114400        83518 
22890000    1.0732555  -0.23030802      1728000    1888.6571       114450        83552 
22900000    1.0709562  -0.20905653      1728000     1889.471       114500        83588 
22910000   0.94969742  -0.20289454      1728000    1890.3001       114550        83617 
22920000    1.0443436  -0.22662052      1728000    1891.0972       114600        83658 
22930000   0.99970888  -0.22424303      1728000    1891.9019       114650        83697 
22940000    0.9736338  -0.21167428      1728000    1892.7232       114700        83732 
22950000   0.97971389  -0.21544448      1728000     1893.533       114750        83764 
22960000    0.9736797  -0.21473132      1728000    1894.3389       114800        83798 
22970000   0.95807712  -0.18727919      1728000    1895.1349       114850        83831 
22980000    1.0060321  -0.20462765      1728000    1895.9321       114900        83871 
22990000    1.0355365  -0.20366694      1728000    1896.7778       114950        83913 
23000000    1.0629822  -0.20621208      1728000    1897.6222       115000        83956 
23010000   0.97722428  -0.20220159      1728000    1898.4338       115050        83995 
23020000   0.95341494  -0.19578274      1728000     1899.294       115100        84033 
23030000   0.96077553   -0.1827348      1728000    1900.0862       115150        84077 
23040000    1.0338283  -0.19437208      1728000    1900.8854       115200        84113 
23050000    1.0265474  -0.19451571      1728000    1901.7086       115250        84149 
23060000   0.99157893  -0.19196907      1728000    1902.5068       115300        84184 
23070000    1.0003799  -0.21623395      1728000     1903.311       115350        84224 
23080000    1.0141836  -0.21111396      1728000    1904.1243       115400        84256 
23090000    1.0107238  -0.19738011      1728000    1904.9169       115450        84290 
23100000   0.98408414  -0.19591876      1728000    1905.7271       115500        84327 
23110000    1.0672214  -0.18064182      1728000    1906.5479       115550        84360 
23120000    1.0555974  -0.17768194      1728000    1907.3582       115600        84401 
23130000    0.9652351  -0.17118162      1728000    1908.1712       115650        84442 
23140000    1.0493008  -0.17148419      1728000     1908.974       115700        84483 
23150000   0.92718411  -0.18044699      1728000    1909.7691       115750        84521 
23160000     1.024886  -0.19450533      1728000    1910.5898       115800        84552 
23170000    1.0132876  -0.19841293      1728000    1911.3861       115850        84592 
23180000    1.0195009  -0.19029781      1728000    1912.1806       115900        84632 
23190000    0.9702903  -0.19000973      1728000    1912.9939       115950        84667 
23200000    1.0548393  -0.19940269      1728000    1913.7943       116000        84707 
23210000   0.96254967  -0.21064836      1728000    1914.5968       116050        84740 
23220000    1.0162071  -0.21068781      1728000    1915.4066       116100        84771 
23230000    1.0594735  -0.20345681      1728000    1916.2142       116150        84807 
23240000    1.0479046   -0.1869461      1728000    1917.0113       116200        84841 
23250000    1.0162553  -0.19445716      1728000    1917.8141       116250        84878 
23260000    1.0227803   -0.2113382      1728000    1918.6162       116300        84915 
23270000   0.97832623  -0.22571119      1728000    1919.4402       116350        84954 
23280000   0.97835256  -0.21824446      1728000    1920.2393       116400        84992 
23290000   0.98782084  -0.21889201      1728000    1921.0363       116450        85031 
23300000    1.0122985   -0.2265612      1728000     1921.843       116500        85069 
23310000    1.0290772  -0.24227315      1728000    1922.6522       116550        85104 
23320000    1.0225831  -0.23263463      1728000    1923.4546       116600        85133 
23330000    1.0231685  -0.23471647      1728000    1924.2473       116650        85168 
23340000    1.0439068  -0.22410305      1728000    1925.0391       116700        85200 
23350000   0.99942245  -0.22441737      1728000    1925.8491       116750        85235 
23360000    0.9540907  -0.21974962      1728000    1926.6552       116800        85270 
23370000   0.99266713  -0.20461648      1728000    1927.4612       116850        85302 
23380000     1.004641  -0.21297267      1728000     1928.268       116900        85335 
23390000    1.0333199  -0.22022773      1728000    1929.0729       116950        85372 
23400000    1.0127415  -0.21058124      1728000    1929.8925       117000        85405 
23410000   0.99315854  -0.21527337      1728000    1930.6971       117050        85438 
23420000   0.93430752  -0.19132284      1728000    1931.4931       117100        85472 
23430000   0.99456052  -0.19890423      1728000    1932.3451       117150        85508 
23440000    1.0454482  -0.18585402      1728000    1933.1593       117200        85542 
23450000    1.0209423   -0.1866853      1728000     1933.977       117250        85574 
23460000    1.0116112  -0.19271821      1728000    1934.7851       117300        85613 
23470000    1.0609783  -0.20446672      1728000    1935.5841       117350        85651 
23480000    1.0041268  -0.20870291      1728000     1936.386       117400        85684 
23490000   0.95827269  -0.22849838      1728000    1937.1868       117450        85717 
23500000    1.0022542  -0.22591785      1728000    1937.9991       117500        85752 
23510000   0.95713494  -0.20860991      1728000    1938.8162       117550        85785 
23520000   0.94046146   -0.1921814      1728000    1939.6199       117600        85823 
23530000   0.95867915  -0.19105777      1728000     1940.448       117650        85860 
23540000   0.99007888  -0.19352501      1728000    1941.2462       117700        85898 
23550000   0.98604026  -0.17432346      1728000    1942.0451       117750        85936 
23560000   0.99549511  -0.18164659      1728000    1942.8551       117800        85974 
23570000    1.0210245  -0.18773883      1728000    1943.6859       117850        86015 
23580000   0.92500668  -0.19927741      1728000    1944.4941       117900        86050 
23590000   0.94768411  -0.19070039      1728000    1945.3069       117950        86084 
23600000    1.0000335  -0.19734923      1728000     1946.116       118000        86117 
23610000    1.0023594  -0.20505078      1728000    1946.9103       118050        86148 
23620000   0.99367278  -0.20268233      1728000    1947.7096       118100        86185 
23630000   0.93850822   -0.2009943      1728000     1948.532       118150        86218 
23640000   0.99875557  -0.20369875      1728000    1949.3281       118200        86259 
23650000    1.0082226  -0.18958383      1728000    1950.1472       118250        86299 
23660000   0.97852206   -0.2061072      1728000     1950.957       118300        86336 
23670000    1.0344072  -0.20906086      1728000    1951.7563       118350        86371 
23680000   0.96070132  -0.18310183      1728000    1952.5564       118400        86412 
23690000   0.96021377  -0.18713043      1728000    1953.3646       118450        86455 
23700000    1.0372315  -0.18492061      1728000    1954.1692       118500        86493 
23710000   0.97134983  -0.18102071      1728000    1954.9821       118550        86530 
23720000    1.0405726  -0.18141179      1728000    1955.7972       118600        86569 
23730000    0.9895332  -0.16963526      1728000    1956.5902       118650        86607 
23740000    1.0321473  -0.16875991      1728000    1957.3822       118700        86643 
23750000    1.0338899  -0.18473712      1728000    1958.1772       118750        86678 
23760000    1.0819007  -0.18400002      1728000    1958.9959       118800        86720 
23770000    1.0282127  -0.17432648      1728000    1959.8322       118850        86759 
23780000    1.0499544  -0.17513884      1728000    1960.6451       118900        86795 
23790000   0.97672395  -0.17169813      1728000    1961.4432       118950        86836 
23800000    1.0131103   -0.1893979      1728000    1962.2931       119000        86868 
23810000   0.97809982  -0.20213152      1728000     1963.127       119050        86905 
23820000   0.99937472  -0.22003289      1728000    1963.9349       119100        86940 
23830000    1.0169452  -0.21230672      1728000     1964.738       119150        86974 
23840000    1.0215405  -0.20872185      1728000     1965.542       119200        87011 
23850000   0.99030612   -0.2207715      1728000    1966.3462       119250        87045 
23860000   0.95830592   -0.2277646      1728000    1967.1442       119300        87083 
23870000     1.023335  -0.22145755      1728000     1967.961       119350        87116 
23880000   0.97007292  -0.23297691      1728000    1968.7737       119400        87153 
23890000    0.9914512  -0.22920993      1728000    1969.5768       119450        87188 
23900000    1.0048612  -0.23398463      1728000    1970.3842       119500        87218 
23910000    0.9735309   -0.2254268      1728000    1971.1901       119550        87252 
23920000   0.96795167  -0.22944357      1728000     1971.999       119600        87286 
23930000   0.98410692  -0.21759599      1728000    1972.8121       119650        87321 
23940000   0.99484831   -0.2235751      1728000    1973.6243       119700        87350 
23950000   0.93543069  -0.22121898      1728000    1974.4229       119750        87385 
23960000    1.0169971  -0.20718886      1728000    1975.2494       119800        87426 
23970000   0.98581142  -0.21332554      1728000    1976.0529       119850        87465 
23980000   0.99011435  -0.22883279      1728000    1976.8552       119900        87504 
23990000    1.0519305  -0.20636298      1728000     1977.646       119950        87543 
24000000    1.0078424  -0.21831308      1728000    1978.4618       120000        87584 
24010000   0.97536512  -0.21091899      1728000    1979.2639       120050        87621 
24020000   0.91332456  -0.19826716      1728000     1980.065       120100        87657 
24030000   0.99753507  -0.22180791      1728000    1980.8783       120150        87695 
24040000   0.95594204  -0.21213172      1728000    1981.6782       120200        87732 
24050000   0.95825422  -0.21936343      1728000    1982.5019       120250        87768 
24060000   0.97649854  -0.19278028      1728000    1983.3082       120300        87805 
24070000    1.0687191  -0.19719794      1728000    1984.1069       120350        87842 
24080000   0.99950553  -0.19730277      1728000     1984.905       120400        87881 
24090000   0.98631763  -0.19966134      1728000     1985.699       120450        87915 
24100000    1.0354381  -0.19585887      1728000    1986.4999       120500        87952 
24110000    1.0331212  -0.19529698      1728000    1987.3099       120550        87984 
24120000    1.0374955  -0.18109807      1728000    1988.1072       120600        88024 
24130000   0.96452579  -0.19458627      1728000    1988.9238       120650        88059 
24140000    1.0184148  -0.17038754      1728000     1989.741       120700        88093 
24150000   0.96471019    -0.206822      1728000     1990.568       120750        88131 
24160000    1.0425891   -0.1901003      1728000    1991.3671       120800        88167 
24170000    1.0384314  -0.20570245      1728000      1992.17       120850        88198 
24180000    1.0402589  -0.19285627      1728000    1992.9838       120900        88235 
24190000    1.0446226  -0.20187206      1728000     1993.803       120950        88268 
24200000    1.0344691  -0.19123181      1728000    1994.6381       121000        88304 
24210000   0.99344424  -0.19718101      1728000      1995.44       121050        88339 
24220000    1.0104265  -0.20409186      1728000    1996.2602       121100        88383 
24230000    1.0173028  -0.19926825      1728000    1997.0738       121150        88420 
24240000   0.98729616  -0.19198675      1728000    1997.9306       121200        88458 
24250000   0.95280958  -0.18896429      1728000    1998.7564       121250        88497 
24260000    1.0643593  -0.19162605      1728000    1999.5572       121300        88532 
24270000   0.96803299   -0.1807967      1728000    2000.3519       121350        88572 
24280000    1.0176655  -0.19545813      1728000    2001.1484       121400        88603 
24290000   0.97871558  -0.18567184      1728000    2001.9421       121450        88643 
24300000    1.0272719  -0.19853492      1728000     2002.768       121500        88682 
24310000    1.0236554  -0.18840864      1728000    2003.5602       121550        88721 
24320000   0.95105799  -0.18209699      1728000    2004.3648       121600        88759 
24330000   0.96488644  -0.18584243      1728000    2005.1644       121650        88794 
24340000   0.98854915   -0.1895811      1728000    2005.9621       121700        88831 
24350000   0.99110676  -0.18587815      1728000    2006.7593       121750        88863 
24360000    1.0256851  -0.17736194      1728000    2007.5518       121800        88900 
24370000    1.0073115  -0.19786607      1728000    2008.3564       121850        88942 
24380000     1.036223   -0.1859103      1728000    2009.1471       121900        88979 
24390000   0.99826955  -0.19989257      1728000    2009.9751       121950        89012 
24400000    1.0099551  -0.21073692      1728000    2010.7867       122000        89042 
24410000   0.98935445  -0.20740786      1728000    2011.6048       122050        89081 
24420000   0.88557686  -0.20474831      1728000    2012.4071       122100        89117 
24430000    1.0134024  -0.20113791      1728000     2013.221       122150        89149 
24440000   0.98454522  -0.21159941      1728000     2014.032       122200        89188 
24450000    1.0354189    -0.219645      1728000    2014.8261       122250        89225 
24460000    1.0580231   -0.2266331      1728000      2015.65       122300        89263 
24470000     1.010263  -0.22714009      1728000    2016.4519       122350        89299 
24480000    1.0157342  -0.22815783      1728000    2017.2511       122400        89336 
24490000    1.0564815  -0.22452844      1728000    2018.0629       122450        89370 
24500000    1.0431056  -0.23291626      1728000    2018.8841       122500        89407 
24510000   0.99111695  -0.22212263      1728000    2019.7199       122550        89440 
24520000   0.95788365  -0.20132678      1728000    2020.5467       122600        89474 
24530000   0.91521881  -0.20070721      1728000    2021.3649       122650        89511 
24540000    1.0380999  -0.20157073      1728000    2022.1619       122700        89547 
24550000   0.95090353  -0.18872135      1728000    2022.9622       122750        89579 
24560000    1.0605355  -0.18918137      1728000     2023.765       122800        89614 
24570000   0.97080586  -0.19186044      1728000     2024.584       122850        89651 
24580000   0.94841624  -0.18584353      1728000     2025.387       122900        89682 
24590000    1.0608429  -0.16834722      1728000    2026.1891       122950        89720 
24600000   0.99590391   -0.1915895      1728000    2026.9891       123000        89758 
24610000   0.95241549  -0.19315618      1728000    2027.8078       123050        89797 
24620000    1.0199201  -0.17791769      1728000    2028.6623       123100        89836 
24630000    1.0068113  -0.18055597      1728000    2029.5674       123150        89871 
24640000   0.99780038  -0.16003175      1728000    2030.3911       123200        89910 
24650000     1.004739   -0.1678301      1728000    2031.2541       123250        89946 
24660000   0.98772321  -0.17734446      1728000    2032.0441       123300        89988 
24670000    1.0092374   -0.1769503      1728000    2032.8669       123350        90018 
24680000   0.97851933  -0.16698433      1728000    2033.6829       123400        90049 
24690000    1.0151932  -0.16984923      1728000    2034.4797       123450        90084 
24700000    1.0511045  -0.17930213      1728000    2035.2801       123500        90124 
24710000    1.0638927  -0.17798933      1728000    2036.0848       123550        90163 
24720000    1.0055912  -0.16824319      1728000    2036.8781       123600        90203 
24730000   0.95413906  -0.16995345      1728000    2037.6808       123650        90234 
24740000    1.0851953  -0.18628115      1728000     2038.476       123700        90276 
24750000   0.97118001  -0.17027464      1728000     2039.285       123750        90319 
24760000   0.99253041  -0.16868535      1728000    2040.1256       123800        90362 
24770000   0.99066243  -0.18821564      1728000    2040.9521       123850        90402 
24780000   0.97644508  -0.16750308      1728000     2041.747       123900        90443 
24790000    1.0387889  -0.18315422      1728000    2042.5431       123950        90483 
24800000   0.99699738   -0.1761772      1728000    2043.3761       124000        90524 
24810000   0.97388543  -0.18393024      1728000    2044.1691       124050        90561 
24820000   0.97805663  -0.17764884      1728000    2044.9678       124100        90601 
24830000    1.0030796  -0.18632099      1728000    2045.7741       124150        90641 
24840000   0.99758891   -0.1852016      1728000    2046.6027       124200        90674 
24850000    1.0161573  -0.17297489      1728000    2047.5149       124250        90716 
24860000   0.92609385  -0.14586717      1728000    2048.3308       124300        90753 
24870000    1.0002017   -0.1659881      1728000    2049.1359       124350        90792 
24880000   0.94672696   -0.1669688      1728000    2049.9326       124400        90833 
24890000    1.0100309  -0.17164337      1728000    2050.7298       124450        90868 
24900000   0.94241293  -0.18217995      1728000    2051.5589       124500        90909 
24910000    1.0028281  -0.18061454      1728000    2052.3638       124550        90946 
24920000    1.0490888  -0.18492913      1728000    2053.1779       124600        90984 
24930000   0.92168608  -0.19092802      1728000    2053.9859       124650        91022 
24940000    1.0078959   -0.1890311      1728000    2054.8078       124700        91062 
24950000    1.0158756   -0.1970778      1728000    2055.6049       124750        91102 
24960000   0.99156986  -0.20627579      1728000    2056.3978       124800        91142 
24970000   0.98536635  -0.19937949      1728000    2057.1958       124850        91177 
24980000    1.0164053  -0.21019624      1728000    2058.0139       124900        91220 
24990000   0.96711275  -0.22139003      1728000    2058.8219       124950        91255 
25000000   0.97911817  -0.21686129      1728000    2059.6409       125000        91293 
25010000   0.98244014  -0.20891365      1728000    2060.4418       125050        91325 
25020000   0.94103279  -0.20567027      1728000    2061.2518       125100        91363 
25030000    1.0250774  -0.21520603      1728000    2062.0569       125150        91400 
25040000   0.93390962  -0.21500434      1728000    2062.8719       125200        91435 
25050000   0.93179838  -0.22037039      1728000    2063.6928       125250        91466 
25060000    1.0774704  -0.22792775      1728000    2064.4978       125300        91499 
25070000   0.99886279  -0.22793184      1728000    2065.3279       125350        91529 
25080000   0.99662568   -0.2300736      1728000    2066.1458       125400        91570 
25090000    1.0438376  -0.22210959      1728000    2066.9528       125450        91605 
25100000    1.0223297  -0.21479492      1728000    2067.7658       125500        91642 
25110000    0.9780571  -0.23050555      1728000    2068.5969       125550        91680 
25120000   0.95380694  -0.21397841      1728000    2069.4068       125600        91715 
25130000    1.0184521  -0.23550056      1728000    2070.2238       125650        91743 
25140000    1.0319847  -0.21761575      1728000    2071.0339       125700        91779 
25150000   0.95107241  -0.22775174      1728000    2071.8478       125750        91806 
25160000   0.99147469  -0.25370232      1728000    2072.6589       125800        91839 
25170000   0.94587348  -0.22922382      1728000    2073.4617       125850        91874 
25180000   0.97253776  -0.23287069      1728000    2074.2739       125900        91914 
25190000   0.98197168  -0.22707586      1728000    2075.0855       125950        91950 
25200000    1.0643829  -0.21973271      1728000    2075.8958       126000        91986 
25210000    1.0098288  -0.22819334      1728000    2076.6937       126050        92018 
25220000   0.95202348  -0.21580388      1728000    2077.5328       126100        92054 
25230000    1.0588263  -0.22274528      1728000    2078.3379       126150        92089 
25240000    1.0035858  -0.21186813      1728000    2079.1358       126200        92119 
25250000    1.0047582  -0.22959367      1728000    2079.9357       126250        92152 
25260000   0.99929919   -0.2057169      1728000    2080.7359       126300        92181 
25270000   0.99855191   -0.2168417      1728000    2081.5418       126350        92218 
25280000    1.0358412  -0.19110857      1728000    2082.3418       126400        92255 
25290000   0.95334277  -0.21361675      1728000    2083.1509       126450        92291 
25300000    1.0266572  -0.20673099      1728000    2083.9688       126500        92329 
25310000    0.9818002  -0.21533324      1728000    2084.7698       126550        92361 
25320000   0.97819453  -0.21180972      1728000    2085.5707       126600        92404 
25330000   0.98943788  -0.21378006      1728000    2086.3866       126650        92441 
25340000    1.0411518  -0.21718833      1728000    2087.2497       126700        92477 
25350000   0.95512518   -0.2212666      1728000    2088.0639       126750        92510 
25360000   0.96134577  -0.22054334      1728000    2088.8828       126800        92551 
25370000     1.026751  -0.21407976      1728000    2089.7197       126850        92580 
25380000    1.0028432  -0.21827077      1728000    2090.5598       126900        92616 
25390000   0.99874055  -0.21617295      1728000    2091.4027       126950        92650 
25400000    1.0296457   -0.2213626      1728000    2092.2178       127000        92689 
25410000    1.0147907  -0.21973053      1728000    2093.0398       127050        92718 
25420000    1.0194879  -0.20095239      1728000    2093.8436       127100        92757 
25430000   0.97823851  -0.21292716      1728000    2094.6418       127150        92790 
25440000    1.0232257  -0.20937835      1728000    2095.4377       127200        92824 
25450000    1.0427465  -0.22559519      1728000    2096.2397       127250        92859 
25460000   0.97504291  -0.21819371      1728000    2097.0987       127300        92893 
25470000    1.0015289  -0.20829554      1728000    2097.9005       127350        92936 
25480000   0.95578303  -0.21873137      1728000    2098.7067       127400        92971 
25490000   0.97798697  -0.22472066      1728000    2099.5356       127450        93006 
25500000    1.0691939   -0.2191065      1728000    2100.3908       127500        93044 
25510000   0.98771181  -0.22545849      1728000    2101.1968       127550        93075 
25520000    1.0441265  -0.20773984      1728000    2101.9998       127600        93112 
25530000    1.0238318   -0.1893328      1728000    2102.8035       127650        93142 
25540000   0.96707396  -0.22461338      1728000    2103.6097       127700        93180 
25550000   0.95947985  -0.21671348      1728000    2104.4189       127750        93214 
25560000     1.004585  -0.21819202      1728000    2105.2378       127800        93244 
25570000    1.0805737  -0.20650718      1728000    2106.0476       127850        93279 
25580000    1.0280174  -0.20526023      1728000    2106.8538       127900        93308 
25590000   0.96107667  -0.20434488      1728000    2107.6578       127950        93341 
25600000    1.0053197   -0.1933284      1728000    2108.4687       128000        93374 
25610000   0.99647187  -0.21896012      1728000    2109.2808       128050        93409 
25620000    1.0285082  -0.20747951      1728000    2110.0908       128100        93448 
25630000    1.0329859   -0.2185351      1728000    2110.9346       128150        93478 
25640000    1.0299443  -0.22605333      1728000    2111.7388       128200        93509 
25650000    1.0016695  -0.20728085      1728000    2112.5718       128250        93545 
25660000    1.0266936  -0.19908265      1728000    2113.3859       128300        93583 
25670000     1.002453  -0.20374538      1728000    2114.1968       128350        93616 
25680000    1.0200245  -0.20580947      1728000    2114.9997       128400        93650 
25690000   0.96394324  -0.18963847      1728000    2115.7968       128450        93687 
25700000    1.0427327  -0.19205141      1728000    2116.6086       128500        93726 
25710000   0.98552175  -0.19930738      1728000    2117.4287       128550        93767 
25720000    1.0345732  -0.20253075      1728000    2118.2387       128600        93803 
25730000    1.0042972  -0.20120035      1728000    2119.0495       128650        93832 
25740000    1.0317945  -0.18907125      1728000    2119.8517       128700        93872 
25750000   0.95502526  -0.19647153      1728000    2120.6647       128750        93917 
25760000   0.96172351  -0.19178157      1728000    2121.4927       128800        93956 
25770000    1.0305134  -0.19594319      1728000    2122.3197       128850        93993 
25780000   0.94951295  -0.18894158      1728000    2123.1368       128900        94030 
25790000   0.95121055   -0.2043071      1728000    2123.9648       128950        94068 
25800000    1.0370479  -0.20478848      1728000    2124.8098       129000        94100 
25810000     1.060554  -0.20444859      1728000    2125.6106       129050        94134 
25820000      1.02356  -0.18976894      1728000    2126.4145       129100        94175 
25830000     1.020492   -0.1991105      1728000    2127.2268       129150        94205 
25840000    1.0382801  -0.21973196      1728000    2128.0295       129200        94239 
25850000   0.98394444  -0.21949273      1728000    2128.8738       129250        94269 
25860000   0.97971183  -0.21114046      1728000    2129.6806       129300        94304 
25870000   0.96574902  -0.23725871      1728000    2130.5056       129350        94336 
25880000    1.0118091  -0.22038349      1728000    2131.3357       129400        94368 
25890000   0.98647742  -0.22150934      1728000    2132.1727       129450        94403 
25900000   0.98318114  -0.22646838      1728000    2132.9878       129500        94442 
25910000   0.99581307  -0.21706432      1728000    2133.8018       129550        94478 
25920000    1.0094252  -0.21203504      1728000    2134.6158       129600        94511 
25930000    1.0001235  -0.22388574      1728000    2135.4217       129650        94552 
25940000    1.0229394  -0.22505894      1728000    2136.2307       129700        94589 
25950000   0.98545545  -0.20029058      1728000    2137.0388       129750        94623 
25960000     1.029399  -0.23660243      1728000    2137.8977       129800        94662 
25970000    0.9969968  -0.21764845      1728000    2138.7317       129850        94692 
25980000   0.98852614  -0.21383268      1728000    2139.5287       129900        94732 
25990000    1.0491547   -0.2100874      1728000    2140.3968       129950        94770 
26000000   0.92535912   -0.2082834      1728000    2141.2178       130000        94803 
26010000   0.99665609  -0.21910611      1728000    2142.0268       130050        94839 
26020000   0.99989158  -0.21881902      1728000    2142.8336       130100        94870 
26030000    1.0280492  -0.20444263      1728000    2143.6415       130150        94907 
26040000   0.98452682  -0.19454131      1728000    2144.4465       130200        94940 
26050000    1.0253854  -0.21145705      1728000    2145.2556       130250        94971 
26060000    1.0346101  -0.20169584      1728000    2146.0607       130300        95014 
26070000     1.061872   -0.2001972      1728000    2146.8588       130350        95047 
26080000    1.0485788  -0.18145267      1728000    2147.6557       130400        95084 
26090000   0.94446287  -0.19259404      1728000    2148.4697       130450        95115 
26100000    1.0491593   -0.1645022      1728000    2149.2856       130500        95155 
26110000   0.91355863  -0.17098493      1728000    2150.0856       130550        95195 
26120000    1.0356378  -0.17608897      1728000    2150.8807       130600        95236 
26130000     0.960742  -0.18114599      1728000    2151.6767       130650        95274 
26140000   0.99056746  -0.18985653      1728000    2152.4737       130700        95310 
26150000   0.93868929  -0.19208996      1728000    2153.2898       130750        95347 
26160000   0.93405597  -0.18773604      1728000    2154.0807       130800        95385 
26170000    1.0149797  -0.19292472      1728000    2154.8785       130850        95422 
26180000   0.95600734    -0.192272      1728000    2155.6747       130900        95464 
26190000   0.99729838  -0.18666754      1728000    2156.4876       130950        95500 
26200000   0.95675618  -0.18935863      1728000    2157.2938       131000        95539 
26210000    1.0066333  -0.19989132      1728000    2158.0887       131050        95576 
26220000    1.0085438  -0.19411975      1728000    2158.8826       131100        95610 
26230000   0.97407103  -0.20084235      1728000    2159.7146       131150        95642 
26240000    1.0078489  -0.21063011      1728000    2160.5077       131200        95676 
26250000   0.95868094  -0.20103323      1728000    2161.2986       131250        95710 
26260000   0.98462324  -0.20978231      1728000    2162.0948       131300        95747 
26270000   0.97242486  -0.19909998      1728000    2162.9045       131350        95785 
26280000    1.0097991  -0.20187884      1728000    2163.7106       131400        95821 
26290000     1.018846  -0.19448774      1728000    2164.5136       131450        95863 
26300000    1.0027755  -0.18486749      1728000    2165.7743       131500        95899 
26310000   0.97337294  -0.16873683      1728000    2166.7343       131550        95930 
26320000   0.97491794  -0.18870574      1728000    2167.5896       131600        95972 
26330000   0.92649713  -0.19889736      1728000    2168.4517       131650        96013 
26340000    1.0148176  -0.19551119      1728000    2169.3238       131700        96048 
26350000    1.0164624   -0.2068844      1728000    2170.1618       131750        96080 
26360000   0.98704679  -0.21514966      1728000    2170.9686       131800        96118 
26370000   0.99839824  -0.22451721      1728000    2171.7677       131850        96157 
26380000    1.0130248    -0.230796      1728000    2172.5946       131900        96196 
26390000   0.97549419  -0.21244916      1728000    2173.4017       131950        96233 
26400000   0.91251928  -0.20660838      1728000    2174.2567       132000        96268 
26410000   0.99030002  -0.20731635      1728000    2175.0966       132050        96303 
26420000   0.90922963  -0.19705262      1728000    2175.8996       132100        96340 
26430000    1.0717241  -0.20091847      1728000    2176.6917       132150        96381 
26440000   0.96657665  -0.21333211      1728000    2177.4907       132200        96418 
26450000   0.99872262  -0.22770628      1728000    2178.2906       132250        96454 
26460000   0.93811796  -0.23573232      1728000    2179.1422       132300        96492 
26470000    1.0273959  -0.22477159      1728000    2180.0113       132350        96527 
26480000   0.96345449  -0.23059836      1728000    2180.8484       132400        96565 
26490000   0.98273929   -0.2255466      1728000    2181.6847       132450        96600 
26500000    1.0106891  -0.21989539      1728000    2182.5047       132500        96631 
26510000   0.97389735  -0.21738895      1728000    2183.3177       132550        96663 
26520000   0.98218343  -0.22735384      1728000    2184.1387       132600        96695 
26530000    1.0039817  -0.21314999      1728000    2184.9495       132650        96727 
26540000    1.0620102  -0.21627355      1728000    2185.7796       132700        96761 
26550000    0.9844477  -0.21908781      1728000    2186.6377       132750        96794 
26560000    1.0251824  -0.21171494      1728000    2187.4677       132800        96833 
26570000   0.96374862  -0.21098818      1728000    2188.2917       132850        96868 
26580000    1.0481251  -0.19040174      1728000    2189.1356       132900        96902 
26590000   0.96512797  -0.19878506      1728000    2189.9636       132950        96931 
26600000   0.99046248  -0.17507861      1728000    2190.7736       133000        96969 
26610000    1.0050215   -0.1775296      1728000    2191.5754       133050        97007 
26620000    1.0086331  -0.19809176      1728000    2192.3827       133100        97044 
26630000    1.0131471  -0.19803337      1728000    2193.2177       133150        97083 
26640000   0.99307246  -0.20426456      1728000    2194.0187       133200        97115 
26650000    0.9910834  -0.19482649      1728000    2194.8156       133250        97156 
26660000    1.0534198  -0.17711798      1728000    2195.6117       133300        97196 
26670000    1.0629077  -0.18843688      1728000    2196.4085       133350        97235 
26680000    1.0069717  -0.18820312      1728000    2197.2106       133400        97268 
26690000    0.9032648  -0.19179342      1728000    2198.0276       133450        97307 
26700000   0.98735423  -0.20708939      1728000    2198.8665       133500        97341 
26710000     1.024745   -0.2161894      1728000    2199.7206       133550        97371 
26720000    1.0611533  -0.19806547      1728000    2200.5485       133600        97408 
26730000   0.99562143  -0.20924572      1728000    2201.3517       133650        97443 
26740000   0.99803348  -0.22889593      1728000    2202.1486       133700        97483 
26750000   0.96878403  -0.20313589      1728000    2202.9855       133750        97515 
26760000    1.0580255   -0.2095916      1728000    2203.7927       133800        97552 
26770000    1.0130843  -0.20990764      1728000    2204.5846       133850        97594 
26780000   0.98066416  -0.20567549      1728000    2205.3856       133900        97628 
26790000    1.0308633  -0.19656373      1728000    2206.1857       133950        97664 
26800000    1.0295397  -0.21467877      1728000    2206.9915       134000        97704 
26810000   0.98676305  -0.19939386      1728000    2207.8015       134050        97730 
26820000   0.96388419   -0.1978434      1728000    2208.6065       134100        97768 
26830000    0.9764213  -0.21368127      1728000    2209.4355       134150        97807 
26840000   0.99460576  -0.22096648      1728000    2210.2456       134200        97847 
26850000    0.9946472  -0.20718036      1728000    2211.0565       134250        97882 
26860000   0.99743862  -0.20682131      1728000    2211.8791       134300        97909 
26870000    1.0179795  -0.21802414      1728000    2212.7592       134350        97945 
26880000    1.0474799  -0.20978366      1728000    2213.5843       134400        97987 
26890000   0.97561752  -0.22216526      1728000    2214.3857       134450        98024 
26900000    1.0115787  -0.20967437      1728000    2215.2331       134500        98058 
26910000   0.99446356  -0.21268902      1728000    2216.0445       134550        98098 
26920000    0.9890396  -0.21532108      1728000    2216.8467       134600        98136 
26930000   0.96510018  -0.22487883      1728000    2217.6576       134650        98169 
26940000    1.0134754  -0.23059424      1728000    2218.4886       134700        98208 
26950000    1.0252892  -0.23486608      1728000    2219.3007       134750        98242 
26960000   0.96280176  -0.25011755      1728000    2220.1556       134800        98278 
26970000    1.0378142  -0.24839036      1728000    2220.9976       134850        98308 
26980000    1.0295333  -0.23974988      1728000    2221.8647       134900        98345 
26990000   0.97958754  -0.23355917      1728000    2222.6776       134950        98376 
27000000   0.99068804   -0.2504831      1728000    2223.4964       135000        98415 
27010000    1.0368263  -0.23215848      1728000    2224.2996       135050        98448 
27020000   0.96372121  -0.21917511      1728000    2225.1244       135100        98483 
27030000    1.0000484  -0.22986481      1728000    2225.9993       135150        98515 
27040000    1.0192434  -0.22100147      1728000    2226.8375       135200        98553 
27050000    1.0100539   -0.2176571      1728000    2227.6936       135250        98590 
27060000     1.029197   -0.2097264      1728000    2228.5348       135300        98630 
27070000    1.0280585  -0.20887961      1728000    2229.3679       135350        98667 
27080000   0.94863843  -0.21510097      1728000    2230.1913       135400        98705 
27090000   0.94271073  -0.20689665      1728000    2231.1064       135450        98742 
27100000    1.0144323  -0.20750611      1728000    2231.9456       135500        98781 
27110000    1.0031689   -0.2015291      1728000    2232.7907       135550        98811 
27120000   0.96698218  -0.21258989      1728000    2233.7347       135600        98844 
27130000    1.0028471  -0.22177111      1728000    2234.5639       135650        98884 
27140000   0.93384964  -0.22768004      1728000     2235.403       135700        98922 
27150000    1.0410051  -0.23776673      1728000    2236.3011       135750        98957 
27160000    1.0151804  -0.23441161      1728000    2237.1632       135800        98997 
27170000    1.0162808  -0.23090175      1728000    2238.0055       135850        99031 
27180000   0.94102132  -0.22761769      1728000    2238.8396       135900        99065 
27190000    1.0427637  -0.21545437      1728000    2239.6868       135950        99108 
27200000   0.96405018  -0.20738255      1728000    2240.5499       136000        99147 
27210000    1.0187804  -0.20222169      1728000    2241.3516       136050        99179 
27220000     1.034666  -0.19091484      1728000    2242.1846       136100        99218 
27230000     0.932598  -0.18998001      1728000    2243.0076       136150        99254 
27240000      1.04427  -0.20737856      1728000    2243.8236       136200        99294 
27250000    1.0024452  -0.20597983      1728000    2244.6624       136250        99334 
27260000   0.97590531  -0.22699788      1728000    2245.4704       136300        99372 
27270000    0.9922734  -0.22422966      1728000    2246.3266       136350        99401 
27280000     1.015907  -0.22477297      1728000    2247.1815       136400        99437 
27290000   0.97730164  -0.20312193      1728000    2248.0666       136450        99461 
27300000    1.0670808  -0.20571955      1728000    2248.8865       136500        99498 
27310000   0.99180123  -0.23352495      1728000    2249.7106       136550        99535 
27320000    0.9889895  -0.23645352      1728000    2250.5275       136600        99564 
27330000   0.97450721  -0.20288541      1728000    2251.3824       136650        99595 
27340000    1.0284493  -0.21050217      1728000    2252.1844       136700        99632 
27350000   0.98186576  -0.21591908      1728000    2253.0105       136750        99670 
27360000   0.97114813  -0.20212377      1728000    2253.8196       136800        99708 
27370000   0.95951327  -0.20865686      1728000    2254.6282       136850        99742 
27380000    1.0167375  -0.20972854      1728000    2255.4706       136900        99781 
27390000    0.9937461  -0.20368095      1728000    2256.2956       136950        99818 
27400000   0.96078399  -0.22098576      1728000    2257.1155       137000        99850 
27410000   0.97393606  -0.18851613      1728000    2257.9496       137050        99881 
27420000   0.97521949  -0.18842513      1728000    2258.7566       137100        99918 
27430000   0.98227093  -0.19372712      1728000    2259.5796       137150        99949 
27440000    1.0218445  -0.17905265      1728000    2260.3836       137200        99978 
27450000   0.95867721  -0.20956385      1728000    2261.2275       137250       100017 
27460000    1.0791279  -0.20342491      1728000    2262.0403       137300       100052 
27470000    1.0100488  -0.18606015      1728000    2262.8695       137350       100092 
27480000    1.0183347  -0.19594247      1728000    2263.6834       137400       100133 
27490000   0.99566255  -0.20291285      1728000    2264.4965       137450       100165 
27500000    1.0010446  -0.19238873      1728000    2265.3095       137500       100198 
27510000     1.056645  -0.20917983      1728000    2266.1235       137550       100235 
27520000    1.0278871  -0.21599501      1728000    2266.9586       137600       100271 
27530000   0.95615999  -0.23000171      1728000    2267.8165       137650       100304 
27540000   0.98571691  -0.22331584      1728000    2268.6991       137700       100339 
27550000    1.0169985  -0.22986298      1728000    2269.5436       137750       100371 
27560000    0.9684551  -0.22743321      1728000    2270.3464       137800       100404 
27570000    1.0249931  -0.22110484      1728000    2271.1473       137850       100439 
27580000    0.9644157  -0.21882427      1728000    2271.9575       137900       100480 
27590000   0.94420551  -0.21425916      1728000    2272.7749       137950       100515 
27600000    1.0501889  -0.19557872      1728000    2273.5977       138000       100548 
27610000    1.0237957  -0.20650171      1728000    2274.3925       138050       100584 
27620000     1.068093  -0.19054412      1728000    2275.2046       138100       100624 
27630000    1.0180694  -0.20362796      1728000    2276.0166       138150       100662 
27640000      1.02358  -0.18503823      1728000    2276.8175       138200       100695 
27650000   0.96906881   -0.1887838      1728000    2277.6573       138250       100735 
27660000    1.0073196  -0.20411074      1728000    2278.4704       138300       100774 
27670000    0.9159494    -0.203569      1728000    2279.2883       138350       100808 
27680000      1.00842  -0.19275681      1728000    2280.1044       138400       100844 
27690000    1.0140185  -0.20239702      1728000    2280.9215       138450       100883 
27700000   0.95062217  -0.21351928      1728000    2281.7666       138500       100918 
27710000    1.0435479  -0.21171666      1728000    2282.6055       138550       100960 
27720000    1.0767689  -0.21663465      1728000    2283.4275       138600       100997 
27730000   0.95908488  -0.22359686      1728000    2284.2595       138650       101032 
27740000   0.94524758  -0.19571494      1728000    2285.0714       138700       101063 
27750000   0.97327882  -0.19468855      1728000    2285.9125       138750       101100 
27760000    1.0656099  -0.20795532      1728000    2286.7255       138800       101135 
27770000   0.99943428  -0.21694895      1728000    2287.5627       138850       101178 
27780000   0.94944353  -0.21080796      1728000    2288.3922       138900       101219 
27790000   0.99443864  -0.20545003      1728000     2289.233       138950       101252 
27800000   0.98381798  -0.21207119      1728000    2290.0616       139000       101297 
27810000   0.95040125  -0.20646437      1728000     2290.878       139050       101334 
27820000   0.97467239  -0.19273768      1728000    2291.7021       139100       101369 
27830000     1.025514  -0.20513234      1728000    2292.5443       139150       101403 
27840000    1.0103216  -0.19704016      1728000    2293.3635       139200       101443 
27850000    1.0254419  -0.19047963      1728000    2294.1986       139250       101482 
27860000   0.98116858  -0.19613108      1728000    2294.9987       139300       101526 
27870000    1.0515258  -0.19113473      1728000    2295.8022       139350       101564 
27880000    1.0194154  -0.18728965      1728000    2296.6254       139400       101603 
27890000    1.0090521  -0.18792344      1728000    2297.4245       139450       101637 
27900000    1.0178114  -0.20455177      1728000    2298.2355       139500       101677 
27910000     1.066135   -0.2044839      1728000    2299.0684       139550       101716 
27920000   0.97413568  -0.19772172      1728000    2299.9088       139600       101746 
27930000   0.97685125  -0.20288416      1728000    2300.7443       139650       101784 
27940000   0.98714459  -0.20151703      1728000    2301.6034       139700       101817 
27950000     1.064911  -0.20930355      1728000    2302.4127       139750       101851 
27960000   0.95319347  -0.21544229      1728000    2303.2558       139800       101890 
27970000   0.96829222  -0.23161771      1728000    2304.0839       139850       101926 
27980000    1.0462415  -0.21250151      1728000    2304.8926       139900       101966 
27990000   0.99624331  -0.21592614      1728000    2305.7219       139950       102002 
28000000    1.0369121  -0.21153489      1728000     2306.619       140000       102035 
28010000    1.0324373  -0.21172886      1728000    2307.4582       140050       102074 
28020000    1.0075475  -0.20319264      1728000    2308.3358       140100       102109 
28030000   0.95192182  -0.19012439      1728000    2309.1409       140150       102150 
28040000   0.99949687  -0.20575871      1728000    2309.9425       140200       102188 
28050000    1.0016475  -0.20064413      1728000    2310.7425       140250       102221 
28060000    1.0332955   -0.1904777      1728000    2311.5535       140300       102258 
28070000   0.99963099  -0.19475353      1728000    2312.3505       140350       102303 
28080000     1.051284  -0.20273022      1728000    2313.1905       140400       102347 
28090000    0.9454756  -0.19060649      1728000    2313.9953       140450       102386 
28100000    1.0078172  -0.18212094      1728000    2314.8454       140500       102429 
28110000      1.00622  -0.19762015      1728000    2315.6794       140550       102463 
28120000   0.97632341  -0.21548416      1728000    2316.4852       140600       102499 
28130000   0.99069953  -0.21502708      1728000    2317.3212       140650       102534 
28140000   0.98482889   -0.2010963      1728000    2318.1425       140700       102571 
28150000     1.042792  -0.19900552      1728000    2318.9445       140750       102604 
28160000    1.0131222  -0.20940146      1728000    2319.7644       140800       102638 
28170000    1.0082893  -0.22186743      1728000    2320.5855       140850       102679 
28180000    1.0306539  -0.21418626      1728000    2321.4084       140900       102718 
28190000     1.002778  -0.24969459      1728000    2322.2653       140950       102750 
28200000    1.0073141  -0.23556746      1728000    2323.0885       141000       102789 
28210000   0.97705662  -0.23357102      1728000    2323.9065       141050       102831 
28220000   0.97402189  -0.23597097      1728000    2324.7094       141100       102864 
28230000   0.98893419  -0.22416049      1728000    2325.5104       141150       102901 
28240000   0.97200883   -0.2098465      1728000    2326.3394       141200       102939 
28250000    1.0770389   -0.2275686      1728000    2327.1843       141250       102975 
28260000   0.99824446  -0.21837554      1728000    2328.0051       141300       103004 
28270000    1.0463862  -0.22714813      1728000    2328.8304       141350       103044 
28280000    1.0045535   -0.2280869      1728000    2329.6872       141400       103077 
28290000    1.0825477  -0.22052178      1728000    2330.4904       141450       103111 
28300000    1.0183093  -0.23506457      1728000    2331.3325       141500       103144 
28310000    1.0549228  -0.22575708      1728000    2332.1585       141550       103182 
28320000    1.0982815  -0.21732256      1728000    2333.0324       141600       103219 
28330000   0.94704187  -0.22742743      1728000    2333.8531       141650       103253 
28340000    1.0238484  -0.21488344      1728000    2334.6638       141700       103286 
28350000    1.0030929  -0.20192717      1728000    2335.4584       141750       103322 
28360000    1.0079051  -0.19866984      1728000    2336.2465       141800       103361 
28370000    0.9872867  -0.19338228      1728000    2337.0383       141850       103400 
28380000     1.003581   -0.1973478      1728000    2337.8654       141900       103433 
28390000     1.071455  -0.20357491      1728000    2338.6844       141950       103464 
28400000   0.92608706  -0.19785118      1728000    2339.5185       142000       103505 
28410000   0.98077095  -0.19396534      1728000     2340.335       142050       103540 
28420000    1.0218245  -0.21369263      1728000    2341.1505       142100       103583 
28430000    1.0261697  -0.19739337      1728000     2341.962       142150       103620 
28440000   0.96433821   -0.1938552      1728000    2342.7731       142200       103662 
28450000    1.0334135  -0.19265144      1728000    2343.6024       142250       103693 
28460000   0.94413483  -0.17840904      1728000    2344.4015       142300       103723 
28470000   0.95439124  -0.19156719      1728000    2345.2074       142350       103757 
28480000   0.95252823  -0.17836195      1728000     2346.036       142400       103798 
28490000   0.91831895  -0.17777286      1728000    2346.9045       142450       103837 
28500000    1.0022209  -0.17201383      1728000    2347.7363       142500       103876 
28510000   0.98568415   -0.1723182      1728000    2348.5454       142550       103911 
28520000    1.0215826  -0.17134036      1728000    2349.3654       142600       103948 
28530000    1.0494799  -0.17333103      1728000    2350.1674       142650       103987 
28540000   0.98846182   -0.1725077      1728000    2350.9674       142700       104028 
28550000   0.97173576  -0.16614032      1728000    2351.7694       142750       104061 
28560000   0.97772007  -0.17460605      1728000    2352.5834       142800       104103 
28570000   0.99706474   -0.1797497      1728000    2353.3874       142850       104141 
28580000   0.95499986  -0.18427849      1728000    2354.2004       142900       104184 
28590000    1.0409798  -0.19116937      1728000    2355.0314       142950       104223 
28600000    1.0140246  -0.19791272      1728000    2355.8454       143000       104260 
28610000   0.94969416  -0.19336776      1728000    2356.6773       143050       104298 
28620000   0.99115407   -0.1930231      1728000    2357.5562       143100       104337 
28630000    1.0300315  -0.19540331      1728000    2358.3754       143150       104371 
28640000    1.0394612  -0.18047229      1728000    2359.2134       143200       104406 
28650000   0.95932161  -0.19323101      1728000    2360.0243       143250       104443 
28660000   0.95670584  -0.20601461      1728000    2360.8382       143300       104480 
28670000    1.0327821  -0.21053609      1728000    2361.6613       143350       104516 
28680000    0.9280069  -0.20319508      1728000    2362.4704       143400       104546 
28690000   0.91830491  -0.21316166      1728000    2363.3472       143450       104582 
28700000    1.0308297  -0.22390269      1728000    2364.1882       143500       104620 
28710000    1.0411385  -0.23059341      1728000    2365.0053       143550       104657 
28720000    1.0209932  -0.22785501      1728000    2365.8302       143600       104694 
28730000   0.94142679  -0.21064688      1728000    2366.6654       143650       104730 
28740000   0.98960243  -0.21661453      1728000    2367.4704       143700       104765 
28750000   0.97151059  -0.20063999      1728000    2368.2843       143750       104795 
28760000   0.94665186  -0.20511446      1728000    2369.1254       143800       104833 
28770000    1.0496711  -0.20677166      1728000    2369.9382       143850       104869 
28780000   0.97334731  -0.20163865      1728000    2370.7835       143900       104910 
28790000     1.027089  -0.19321987      1728000    2371.5752       143950       104947 
28800000    1.0078829  -0.18836994      1728000    2372.3754       144000       104989 
28810000   0.95424333  -0.17959467      1728000    2373.2024       144050       105022 
28820000    1.0362949  -0.18031169      1728000    2374.0042       144100       105061 
28830000     1.066852  -0.17313946      1728000    2374.8094       144150       105102 
28840000   0.98792097  -0.18477436      1728000    2375.6233       144200       105139 
28850000    1.0368973  -0.19497996      1728000    2376.4211       144250       105177 
28860000   0.99169901   -0.2099451      1728000    2377.2294       144300       105210 
28870000   0.96328563  -0.19867159      1728000    2378.0484       144350       105251 
28880000   0.99063971  -0.17053348      1728000    2378.8841       144400       105285 
28890000    1.0479025  -0.19627044      1728000    2379.7223       144450       105326 
28900000    1.0316188   -0.2044803      1728000    2380.5543       144500       105368 
28910000    1.0275266  -0.21441199      1728000    2381.3711       144550       105402 
28920000   0.98137867  -0.21911858      1728000    2382.2185       144600       105434 
28930000     1.058056   -0.2153919      1728000    2383.0527       144650       105470 
28940000   0.96928736  -0.20941815      1728000     2383.883       144700       105503 
28950000    1.0464179  -0.21808953      1728000    2384.6944       144750       105540 
28960000    1.0108362  -0.21798351      1728000    2385.5145       144800       105572 
28970000    1.0726287  -0.22462131      1728000    2386.3267       144850       105608 
28980000    0.9787084  -0.21098872      1728000    2387.1294       144900       105643 
28990000    1.0189547  -0.21507258      1728000    2387.9585       144950       105678 
29000000    1.0222277  -0.20823149      1728000    2388.7767       145000       105712 
29010000    1.0080281  -0.20392335      1728000    2389.5865       145050       105749 
29020000   0.95667093  -0.21841741      1728000    2390.3904       145100       105783 
29030000    1.0153927  -0.19627968      1728000    2391.1944       145150       105820 
29040000     1.007108  -0.20063875      1728000    2391.9893       145200       105859 
29050000   0.97714074  -0.18636999      1728000    2392.7982       145250       105897 
29060000    0.9799695  -0.21684995      1728000    2393.6154       145300       105935 
29070000   0.99655488  -0.20397041      1728000    2394.4464       145350       105976 
29080000   0.99749418  -0.21043623      1728000    2395.2731       145400       106011 
29090000     1.016199  -0.21628391      1728000    2396.1283       145450       106044 
29100000   0.96542904  -0.19396633      1728000    2396.9543       145500       106074 
29110000    1.0128613  -0.20587366      1728000    2397.7753       145550       106111 
29120000    1.0702253  -0.21051154      1728000    2398.5973       145600       106148 
29130000   0.96425702  -0.22317601      1728000    2399.4223       145650       106183 
29140000    1.0253446  -0.22117608      1728000    2400.2622       145700       106225 
29150000    1.0185241  -0.23189985      1728000    2401.0953       145750       106260 
29160000   0.98856775  -0.21796391      1728000    2401.8994       145800       106296 
29170000   0.97022974  -0.23512806      1728000    2402.7143       145850       106331 
29180000   0.97609842  -0.22624127      1728000    2403.5293       145900       106371 
29190000    1.0272172  -0.21032297      1728000    2404.3552       145950       106412 
29200000    1.0100017  -0.22406773      1728000    2405.1733       146000       106455 
29210000   0.99208194  -0.21742899      1728000    2406.0114       146050       106487 
29220000   0.94520789  -0.21861148      1728000    2406.8433       146100       106524 
29230000    1.0385873  -0.23620353      1728000    2407.6672       146150       106564 
29240000   0.98011491  -0.22122964      1728000    2408.4983       146200       106599 
29250000    1.0560883  -0.21242003      1728000    2409.3134       146250       106637 
29260000    1.0582484  -0.20160874      1728000    2410.1473       146300       106671 
29270000     1.075359  -0.20127317      1728000    2411.0023       146350       106708 
29280000    1.0139764  -0.20597146      1728000    2411.8552       146400       106748 
29290000   0.98013672  -0.21160658      1728000    2412.6703       146450       106784 
29300000    1.0424204  -0.20534424      1728000    2413.5062       146500       106817 
29310000    1.0003616  -0.19130005      1728000    2414.3233       146550       106848 
29320000   0.99264419  -0.18877249      1728000    2415.1283       146600       106883 
29330000    1.0401407  -0.19923543      1728000    2415.9882       146650       106923 
29340000   0.96130575  -0.19542575      1728000    2416.7892       146700       106963 
29350000   0.98352844  -0.18805025      1728000    2417.6257       146750       106995 
29360000   0.96393533   -0.1954868      1728000    2418.4605       146800       107032 
29370000   0.96428248  -0.20440185      1728000    2419.2903       146850       107069 
29380000   0.96642209   -0.1999572      1728000    2420.1074       146900       107103 
29390000   0.97365137  -0.21013004      1728000    2420.9112       146950       107128 
29400000   0.89166257  -0.19083521      1728000    2421.7324       147000       107160 
29410000    1.0241239  -0.20563076      1728000    2422.5424       147050       107198 
29420000    1.0031847   -0.1983629      1728000    2423.3523       147100       107224 
29430000    1.0347085  -0.21516608      1728000    2424.1941       147150       107260 
29440000    1.0117719  -0.22902958      1728000    2425.0161       147200       107294 
29450000    1.0268587  -0.23649612      1728000    2425.8463       147250       107329 
29460000   0.99688973  -0.23954503      1728000    2426.6873       147300       107364 
29470000    1.0025307  -0.22359263      1728000    2427.5201       147350       107397 
29480000    1.0776962  -0.22801555      1728000    2428.3838       147400       107434 
29490000   0.98036848  -0.24861982      1728000    2429.2219       147450       107474 
29500000   0.92009775  -0.21702987      1728000     2430.067       147500       107508 
29510000    1.0160761  -0.22171817      1728000    2430.8862       147550       107543 
29520000   0.99705228  -0.22269611      1728000    2431.7513       147600       107578 
29530000    1.0301869  -0.22315552      1728000    2432.5778       147650       107612 
29540000    1.0493445  -0.23381173      1728000     2433.417       147700       107643 
29550000   0.99608682  -0.22698325      1728000    2434.2143       147750       107679 
29560000     1.019416  -0.21597067      1728000    2435.0202       147800       107710 
29570000   0.99225191  -0.20744931      1728000    2435.8102       147850       107747 
29580000    1.0242413  -0.19779151      1728000    2436.6233       147900       107781 
29590000    1.0543719  -0.19355593      1728000    2437.4144       147950       107817 
29600000    1.0529844  -0.20063439      1728000    2438.2161       148000       107850 
29610000     1.009288  -0.19645998      1728000    2439.0163       148050       107890 
29620000   0.97656507  -0.20349065      1728000    2439.8092       148100       107923 
29630000   0.98281555  -0.21353286      1728000    2440.6043       148150       107955 
29640000   0.98288064  -0.18373538      1728000    2441.4183       148200       107990 
29650000    1.0374907  -0.20143466      1728000    2442.2252       148250       108028 
29660000   0.98361788  -0.20589836      1728000    2443.0201       148300       108069 
29670000   0.98508695  -0.19680908      1728000     2443.825       148350       108107 
29680000   0.97968154  -0.19608401      1728000    2444.6303       148400       108144 
29690000    1.0290728  -0.20382447      1728000    2445.4253       148450       108176 
29700000    1.0367383  -0.17222389      1728000    2446.2553       148500       108210 
29710000    0.9954326  -0.20123606      1728000    2447.0491       148550       108251 
29720000   0.96844114  -0.19331502      1728000    2447.8481       148600       108283 
29730000   0.99230271  -0.19946098      1728000    2448.6562       148650       108323 
29740000   0.98398709  -0.19282527      1728000    2449.4563       148700       108361 
29750000   0.99487735  -0.17995867      1728000    2450.2483       148750       108396 
29760000    1.1189821  -0.18851386      1728000    2451.0432       148800       108433 
29770000    1.0158143  -0.18982962      1728000    2451.8343       148850       108464 
29780000    1.0827403  -0.19639808      1728000    2452.6273       148900       108501 
29790000   0.97252899  -0.19657408      1728000    2453.4242       148950       108528 
29800000   0.99627378  -0.19033894      1728000    2454.2309       149000       108570 
29810000    1.0313273  -0.19114902      1728000    2455.0341       149050       108604 
29820000    1.0266981  -0.18613143      1728000    2455.8553       149100       108640 
29830000   0.95015934  -0.18648976      1728000    2456.6535       149150       108675 
29840000   0.99462394  -0.18299263      1728000    2457.4537       149200       108713 
29850000   0.95202566  -0.19365975      1728000    2458.2594       149250       108752 
29860000    1.0438464  -0.19243102      1728000    2459.0841       149300       108794 
29870000   0.99791604  -0.17552697      1728000    2459.8826       149350       108835 
29880000   0.97757815  -0.17243875      1728000    2460.6804       149400       108871 
29890000   0.97058969  -0.15878386      1728000    2461.5305       149450       108911 
29900000    1.0007117  -0.18530297      1728000     2462.379       149500       108953 
29910000   0.95552003  -0.17600472      1728000    2463.2142       149550       108993 
29920000   0.98792969  -0.17461241      1728000    2464.0372       149600       109028 
29930000   0.98127288  -0.19331766      1728000    2464.8453       149650       109068 
29940000   0.98942334  -0.18622972      1728000    2465.6694       149700       109101 
29950000   0.97205764  -0.17610305      1728000    2466.4722       149750       109142 
29960000   0.97696396  -0.17502686      1728000    2467.2813       149800       109175 
29970000    1.0123973  -0.19908377      1728000    2468.1023       149850       109210 
29980000   0.96738991  -0.22353508      1728000    2468.9284       149900       109250 
29990000   0.90597894  -0.20560424      1728000    2469.7593       149950       109293 
30000000     1.039582  -0.20385531      1728000    2470.6299       150000       109331 
30010000   0.98120079  -0.21600995      1728000    2471.4439       150050       109366 
30020000    1.0253456  -0.20915983      1728000    2472.2854       150100       109401 
30030000    1.0159985  -0.20068205      1728000    2473.0961       150150       109431 
30040000    1.0531366  -0.20753016      1728000    2473.9094       150200       109462 
30050000   0.96647689  -0.20983918      1728000    2474.7196       150250       109500 
30060000    1.0177037  -0.18529928      1728000    2475.5264       150300       109537 
30070000    0.9850199  -0.19666094      1728000    2476.3594       150350       109572 
30080000    1.0001184  -0.19334051      1728000    2477.1836       150400       109617 
30090000    0.9742219  -0.20136695      1728000    2478.0652       150450       109655 
30100000    1.0018014  -0.18673573      1728000    2478.9193       150500       109691 
30110000   0.97722818  -0.19331705      1728000    2479.7765       150550       109723 
30120000    1.0177774  -0.18720833      1728000    2480.5869       150600       109756 
30130000   0.96827556  -0.20390817      1728000    2481.4111       150650       109791 
30140000   0.97626677   -0.2007874      1728000    2482.2154       150700       109823 
30150000   0.95532549  -0.21167662      1728000    2483.0875       150750       109856 
30160000    1.0223501  -0.18556461      1728000     2483.902       150800       109898 
30170000   0.96486327  -0.18666484      1728000     2484.769       150850       109933 
30180000   0.95736053  -0.18026343      1728000    2485.5923       150900       109976 
30190000   0.98655516  -0.18521491      1728000    2486.4062       150950       110017 
30200000    1.0267376  -0.21299968      1728000    2487.2352       151000       110054 
30210000    0.9858553  -0.20697737      1728000    2488.0301       151050       110088 
30220000   0.98688057  -0.19633029      1728000    2488.8382       151100       110130 
30230000     1.016623  -0.21994569      1728000    2489.6551       151150       110167 
30240000   0.95818967  -0.20082855      1728000     2490.465       151200       110206 
30250000   0.95793673  -0.19622994      1728000    2491.3142       151250       110247 
30260000   0.98084866  -0.22717325      1728000    2492.1352       151300       110284 
30270000    1.0078317  -0.21393723      1728000    2492.9571       151350       110318 
30280000   0.98742085  -0.20758459      1728000    2493.7812       151400       110349 
30290000   0.92688378   -0.2131243      1728000    2494.6342       151450       110382 
30300000    1.0417424  -0.17775968      1728000    2495.4536       151500       110414 
30310000   0.95688987  -0.18048034      1728000    2496.2677       151550       110457 
30320000    1.0084316  -0.21575268      1728000    2497.0733       151600       110491 
30330000    1.0414793  -0.20725828      1728000    2497.8892       151650       110525 
30340000   0.95841704  -0.21695999      1728000     2498.687       151700       110560 
30350000    1.0273118  -0.22808216      1728000    2499.5092       151750       110596 
30360000    1.0522633  -0.22377404      1728000    2500.3251       151800       110634 
30370000   0.95668026   -0.2214754      1728000    2501.1162       151850       110671 
30380000   0.93791116  -0.22640031      1728000    2501.9513       151900       110708 
30390000   0.94621106  -0.20773102      1728000    2502.7602       151950       110745 
30400000     1.009408  -0.21348507      1728000     2503.634       152000       110782 
30410000   0.95394995  -0.21245037      1728000    2504.4262       152050       110823 
30420000    1.0234499  -0.21959216      1728000    2505.2281       152100       110861 
30430000     1.019606  -0.22067516      1728000    2506.0292       152150       110899 
30440000    0.9739751  -0.22082073      1728000    2506.8702       152200       110932 
30450000    1.0570484  -0.22382988      1728000    2507.6782       152250       110965 
30460000    1.0035973  -0.21181904      1728000    2508.4972       152300       110998 
30470000   0.98943852  -0.19309064      1728000    2509.3042       152350       111033 
30480000    1.0490869  -0.21047978      1728000      2510.11       152400       111071 
30490000     1.024676  -0.21644363      1728000    2510.9391       152450       111106 
30500000   0.95209348  -0.21534043      1728000    2511.7422       152500       111143 
30510000    1.0441039  -0.19433163      1728000    2512.5421       152550       111177 
30520000    1.0422438  -0.19184431      1728000    2513.3481       152600       111218 
30530000   0.98141931    -0.213357      1728000    2514.1751       152650       111257 
30540000   0.99554075  -0.19447316      1728000    2514.9721       152700       111291 
30550000   0.95439001  -0.18580877      1728000    2515.7692       152750       111326 
30560000    1.0499919   -0.1994666      1728000    2516.5641       152800       111366 
30570000   0.96946411  -0.19260288      1728000    2517.3602       152850       111409 
30580000   0.97598603  -0.19330605      1728000    2518.1622       152900       111450 
30590000    1.0176387  -0.20109515      1728000    2518.9931       152950       111482 
30600000   0.96791984  -0.19983494      1728000    2519.8061       153000       111513 
30610000   0.96121891  -0.20975651      1728000     2520.607       153050       111549 
30620000   0.97904683  -0.20694493      1728000     2521.423       153100       111587 
30630000   0.98409844   -0.1917383      1728000    2522.2171       153150       111627 
30640000    1.0178993  -0.20217411      1728000    2523.0341       153200       111662 
30650000   0.98502189  -0.21318487      1728000    2523.8412       153250       111696 
30660000     1.007293  -0.21193693      1728000    2524.6449       153300       111732 
30670000     1.007279  -0.21713348      1728000    2525.4905       153350       111775 
30680000    1.0084398  -0.20027246      1728000     2526.313       153400       111813 
30690000   0.97875054  -0.18422718      1728000    2527.1651       153450       111845 
30700000   0.95322077  -0.18970307      1728000    2527.9681       153500       111881 
30710000    1.0269973  -0.19258164      1728000    2528.7716       153550       111915 
30720000   0.97016594  -0.17880431      1728000    2529.5923       153600       111956 
30730000   0.98565811  -0.19019182      1728000     2530.411       153650       111999 
30740000    1.0436343  -0.21122355      1728000    2531.2242       153700       112032 
30750000   0.96677743  -0.20618502      1728000    2532.0361       153750       112072 
30760000    1.0099436    -0.206768      1728000    2532.8429       153800       112108 
30770000    1.0380444  -0.19295669      1728000    2533.6649       153850       112143 
30780000    1.0029273  -0.20028744      1728000    2534.4813       153900       112174 
30790000   0.96667466  -0.19689296      1728000    2535.3025       153950       112215 
30800000    1.0346156  -0.20040024      1728000     2536.127       154000       112247 
30810000    1.0200276  -0.21533865      1728000    2536.9354       154050       112285 
30820000   0.99674854  -0.22237328      1728000    2537.7381       154100       112329 
30830000   0.96022862  -0.23518473      1728000    2538.5473       154150       112364 
30840000   0.97476718  -0.22982253      1728000    2539.3645       154200       112398 
30850000   0.99100886  -0.22430407      1728000    2540.1657       154250       112432 
30860000   0.94569217  -0.22127256      1728000    2540.9733       154300       112466 
30870000    1.0409361  -0.22560662      1728000    2541.7833       154350       112496 
30880000   0.98547359  -0.20788703      1728000    2542.5916       154400       112532 
30890000   0.98521787  -0.21239405      1728000     2543.422       154450       112574 
30900000   0.96893414  -0.22579536      1728000    2544.2391       154500       112609 
30910000    1.0685667  -0.21609053      1728000     2545.053       154550       112643 
30920000       0.9773    -0.202044      1728000    2545.8682       154600       112679 
30930000    1.0338458  -0.21625528      1728000     2546.672       154650       112710 
30940000   0.99369032  -0.18683383      1728000    2547.4989       154700       112744 
30950000    1.0390491  -0.20244868      1728000    2548.3411       154750       112780 
30960000    1.0436334  -0.21835307      1728000    2549.1442       154800       112811 
30970000    1.0251605  -0.23103588      1728000    2549.9542       154850       112847 
30980000    1.0797345   -0.2411351      1728000    2550.7581       154900       112879 
30990000    1.0107454  -0.21635541      1728000    2551.5651       154950       112912 
31000000   0.97319741  -0.21369603      1728000    2552.3761       155000       112947 
31010000   0.97372413  -0.19884296      1728000    2553.1802       155050       112983 
31020000    1.0266716  -0.22328028      1728000    2553.9958       155100       113017 
31030000    0.9956608  -0.22860322      1728000    2554.8621       155150       113050 
31040000   0.99831069  -0.21280312      1728000    2555.6631       155200       113087 
31050000   0.99016868  -0.21401659      1728000    2556.4632       155250       113121 
31060000   0.97932436   -0.2139695      1728000    2557.2609       155300       113162 
31070000    1.0230668   -0.2196306      1728000    2558.0651       155350       113198 
31080000     1.036437  -0.20420122      1728000    2558.8699       155400       113234 
31090000    1.0531697  -0.20855646      1728000    2559.6742       155450       113269 
31100000    1.0450615  -0.20980967      1728000     2560.495       155500       113312 
31110000    1.0396489  -0.21353514      1728000    2561.2921       155550       113349 
31120000   0.96766874  -0.21685586      1728000    2562.1139       155600       113382 
31130000    1.0468635  -0.21723077      1728000    2562.9662       155650       113423 
31140000    1.0849645  -0.20532041      1728000    2563.7709       155700       113458 
31150000   0.96097253  -0.21382221      1728000    2564.5711       155750       113492 
31160000    1.0851183  -0.20604605      1728000    2565.3931       155800       113528 
31170000    1.0545825  -0.21665286      1728000    2566.2124       155850       113563 
31180000   0.97170221   -0.2119645      1728000    2567.0281       155900       113596 
31190000    1.0126158  -0.21386283      1728000     2567.857       155950       113633 
31200000    1.0391656  -0.20957799      1728000    2568.7262       156000       113665 
31210000    1.0314907  -0.21027818      1728000    2569.5641       156050       113696 
31220000     1.031193  -0.20604913      1728000     2570.468       156100       113737 
31230000   0.99698741  -0.20499897      1728000     2571.284       156150       113774 
31240000    1.0716845  -0.21436357      1728000    2572.1192       156200       113811 
31250000   0.97208401  -0.23593168      1728000    2572.9841       156250       113845 
31260000    1.0485724  -0.22879858      1728000    2573.8534       156300       113882 
31270000   0.99640823  -0.22047031      1728000    2574.6652       156350       113915 
31280000   0.97579807  -0.21991573      1728000    2575.4821       156400       113949 
31290000    1.0188578  -0.21053136      1728000    2576.2992       156450       113990 
31300000    1.0195465  -0.20953354      1728000    2577.1511       156500       114027 
31310000     0.988677  -0.22196822      1728000    2578.0101       156550       114062 
31320000   0.99764943  -0.23106985      1728000    2578.8501       156600       114098 
31330000    1.0585994  -0.22721874      1728000    2579.7271       156650       114128 
31340000   0.97989372  -0.22359554      1728000    2580.5282       156700       114163 
31350000   0.97008088  -0.23122871      1728000     2581.373       156750       114197 
31360000   0.96510654  -0.21014507      1728000    2582.2492       156800       114237 
31370000    0.9669677  -0.22082558      1728000    2583.0611       156850       114275 
31380000    1.0602373  -0.20240529      1728000    2583.8578       156900       114315 
31390000    1.0050084  -0.20663155      1728000     2584.753       156950       114353 
31400000   0.98593521  -0.20937717      1728000    2585.5752       157000       114390 
31410000    0.9594356  -0.21207618      1728000     2586.383       157050       114431 
31420000    0.9935228  -0.21021356      1728000    2587.2211       157100       114469 
31430000    1.0085445   -0.2108197      1728000    2588.0211       157150       114508 
31440000   0.92375145  -0.20585758      1728000    2588.8343       157200       114546 
31450000    1.0144329  -0.20988403      1728000    2589.6411       157250       114587 
31460000   0.96249373  -0.21289358      1728000    2590.4433       157300       114618 
31470000    1.0279257  -0.21732407      1728000    2591.2681       157350       114652 
31480000   0.92928243   -0.2178568      1728000    2592.0643       157400       114687 
31490000   0.97874662  -0.21798623      1728000    2592.8702       157450       114724 
31500000   0.95728487   -0.2181132      1728000    2593.6813       157500       114758 
31510000    0.9619028  -0.20773358      1728000    2594.4862       157550       114791 
31520000    1.0326647  -0.20880076      1728000    2595.3078       157600       114827 
31530000    1.0083592  -0.21245411      1728000    2596.1653       157650       114859 
31540000    1.0153224   -0.2198356      1728000    2597.0046       157700       114889 
31550000   0.99594551  -0.21094146      1728000    2597.8082       157750       114929 
31560000    1.0136037  -0.21224872      1728000    2598.6141       157800       114963 
31570000   0.98614166  -0.20510931      1728000     2599.438       157850       114998 
31580000    1.0725659  -0.20818181      1728000    2600.2581       157900       115030 
31590000   0.95615046  -0.20465075      1728000    2601.1052       157950       115066 
31600000    1.0192912  -0.20081841      1728000    2601.9254       158000       115105 
31610000   0.98728265  -0.18183363      1728000    2602.7521       158050       115140 
31620000   0.95500693  -0.19124325      1728000    2603.5688       158100       115173 
31630000    1.0050136  -0.21654282      1728000     2604.385       158150       115205 
31640000   0.98718108  -0.19243667      1728000    2605.1913       158200       115246 
31650000    0.9315212  -0.19038389      1728000    2605.9891       158250       115285 
31660000   0.98506775  -0.18842765      1728000    2606.7902       158300       115319 
31670000    0.9864277  -0.20964829      1728000    2607.6553       158350       115355 
31680000    1.0036149  -0.21381002      1728000    2608.4712       158400       115391 
31690000    1.0352168  -0.20427585      1728000    2609.2852       158450       115425 
31700000    1.0366529  -0.22103045      1728000     2610.097       158500       115461 
31710000    1.0366992  -0.20824018      1728000    2610.9102       158550       115501 
31720000    1.0138627  -0.22402462      1728000    2611.7092       158600       115539 
31730000   0.99229529  -0.20231769      1728000     2612.509       158650       115571 
31740000    0.9207208  -0.21805237      1728000    2613.3161       158700       115603 
31750000   0.96820474  -0.19875788      1728000     2614.121       158750       115638 
31760000    1.0307293  -0.20495122      1728000    2614.9192       158800       115674 
31770000    1.0069266   -0.2056123      1728000    2615.7182       158850       115709 
31780000    1.0621428  -0.21815139      1728000     2616.519       158900       115741 
31790000   0.98153238  -0.21314188      1728000    2617.3181       158950       115778 
31800000   0.97109465   -0.2194196      1728000    2618.1321       159000       115814 
31810000    1.0600431  -0.20772591      1728000     2618.933       159050       115847 
31820000    1.0008029  -0.21569608      1728000    2619.7552       159100       115878 
31830000    1.0064759  -0.21903586      1728000    2620.5511       159150       115915 
31840000    1.0432281  -0.21105886      1728000     2621.354       159200       115954 
31850000    1.0666714   -0.1983366      1728000    2622.1561       159250       115988 
31860000   0.97300503  -0.21689985      1728000     2622.962       159300       116025 
31870000    1.0189968  -0.20487275      1728000    2623.7631       159350       116057 
31880000    1.0046407  -0.21670074      1728000     2624.572       159400       116093 
31890000    1.0128956   -0.2092978      1728000     2625.411       159450       116134 
31900000    1.0576663  -0.20958322      1728000     2626.231       159500       116174 
31910000    1.0101094  -0.21147708      1728000    2627.0528       159550       116211 
31920000    1.0195235  -0.19195801      1728000      2627.86       159600       116252 
31930000    1.0171603  -0.18697478      1728000    2628.6881       159650       116283 
31940000   0.97645488  -0.18685822      1728000    2629.5181       159700       116320 
31950000   0.99318827   -0.1982479      1728000    2630.3111       159750       116363 
31960000    1.0464815  -0.18157237      1728000    2631.1021       159800       116400 
31970000   0.99868761  -0.17932525      1728000    2631.8931       159850       116437 
31980000    1.0604127  -0.17136525      1728000    2632.6982       159900       116470 
31990000    1.0302133  -0.17118586      1728000     2633.508       159950       116505 
32000000    1.0529581  -0.17120267      1728000    2634.3439       160000       116540 
32010000    1.0100295  -0.17047612      1728000     2635.159       160050       116578 
32020000   0.98370284  -0.16415416      1728000    2635.9497       160100       116621 
32030000   0.98655208  -0.17070971      1728000    2636.7729       160150       116654 
32040000   0.99149323  -0.17687856      1728000    2637.5693       160200       116694 
32050000    1.0016804  -0.19044449      1728000    2638.3705       160250       116733 
32060000   0.95349627  -0.18621073      1728000    2639.1748       160300       116770 
32070000   0.93511233  -0.18130152      1728000    2639.9941       160350       116806 
32080000    1.0058057  -0.19538637      1728000    2640.8184       160400       116845 
32090000    1.0594281  -0.19155922      1728000     2641.629       160450       116881 
32100000    1.0577221  -0.21381062      1728000    2642.4419       160500       116921 
32110000   0.95101429  -0.19676899      1728000    2643.2669       160550       116956 
32120000   0.97368219   -0.2133068      1728000     2644.076       160600       116990 
32130000   0.93831726  -0.21886718      1728000     2644.881       160650       117025 
32140000    1.0007884    -0.205004      1728000     2645.679       160700       117063 
32150000    1.0331498  -0.20180494      1728000    2646.4782       160750       117098 
32160000   0.99359033  -0.20857314      1728000     2647.317       160800       117129 
32170000   0.97589275  -0.19447936      1728000    2648.1482       160850       117168 
32180000   0.97215769  -0.20942474      1728000    2648.9582       160900       117199 
32190000    1.0248184  -0.20333807      1728000    2649.7629       160950       117237 
32200000   0.99975528  -0.22872845      1728000    2650.5779       161000       117264 
32210000   0.94129908  -0.22466479      1728000    2651.3799       161050       117292 
32220000   0.93711246  -0.22830015      1728000    2652.1919       161100       117330 
32230000     1.044457  -0.22090372      1728000    2652.9988       161150       117359 
32240000   0.98742984  -0.21334473      1728000     2653.808       161200       117393 
32250000   0.98514971  -0.21036555      1728000    2654.6208       161250       117430 
32260000     1.035482  -0.20946418      1728000     2655.449       161300       117465 
32270000    1.0630295  -0.20169108      1728000    2656.2539       161350       117509 
32280000   0.98672405  -0.19741561      1728000    2657.0628       161400       117546 
32290000   0.95982832  -0.19374175      1728000    2657.8529       161450       117583 
32300000     1.061759  -0.19955879      1728000    2658.6839       161500       117618 
32310000    1.0269419   -0.1956379      1728000    2659.4849       161550       117659 
32320000   0.99390339    -0.203709      1728000     2660.293       161600       117693 
32330000    1.0045969  -0.19873261      1728000     2661.094       161650       117735 
32340000     0.989775  -0.19611396      1728000     2661.924       161700       117773 
32350000    1.0111119   -0.1914067      1728000    2662.7277       161750       117805 
32360000   0.97584228  -0.19795932      1728000     2663.524       161800       117842 
32370000    1.0332431  -0.19562652      1728000    2664.3256       161850       117879 
32380000    1.0032935  -0.19830375      1728000    2665.1482       161900       117912 
32390000   0.96215871  -0.19679713      1728000    2665.9693       161950       117947 
32400000   0.94725229  -0.19739313      1728000    2666.7984       162000       117978 
32410000     1.021877  -0.21228795      1728000    2667.6092       162050       118012 
32420000    1.0296596  -0.20931501      1728000      2668.41       162100       118049 
32430000   0.97587399  -0.21918611      1728000    2669.2089       162150       118088 
32440000   0.99645935  -0.24271932      1728000     2670.019       162200       118125 
32450000   0.95984223  -0.22831116      1728000     2670.819       162250       118160 
32460000   0.99367386   -0.2215241      1728000    2671.6197       162300       118197 
32470000   0.99033857  -0.22215228      1728000    2672.4389       162350       118232 
32480000   0.98598998   -0.2414515      1728000    2673.2389       162400       118266 
32490000   0.93959274  -0.23571742      1728000     2674.123       162450       118307 
32500000    1.0163463  -0.21400975      1728000    2674.9371       162500       118343 
32510000    1.0311457  -0.22426277      1728000    2675.7369       162550       118378 
32520000    1.0361235  -0.21074079      1728000    2676.5297       162600       118414 
32530000    1.0678439  -0.22436898      1728000    2677.3301       162650       118449 
32540000   0.98164204  -0.20653288      1728000    2678.1499       162700       118483 
32550000    1.0068092  -0.21185512      1728000    2678.9837       162750       118514 
32560000    1.0396137  -0.21940236      1728000    2679.8046       162800       118549 
32570000   0.98812549  -0.22516168      1728000    2680.6177       162850       118583 
32580000   0.98867346  -0.22277943      1728000    2681.5048       162900       118616 
32590000   0.94483019  -0.22677531      1728000    2682.4069       162950       118648 
32600000    1.0860047  -0.20866854      1728000    2683.2768       163000       118686 
32610000    0.9693968  -0.20715412      1728000     2684.119       163050       118724 
32620000   0.98718058  -0.20397726      1728000    2684.9338       163100       118759 
32630000   0.99974217  -0.20461331      1728000    2685.7409       163150       118800 
32640000   0.96999342  -0.21867411      1728000    2686.5397       163200       118836 
32650000   0.98098643  -0.20416548      1728000     2687.357       163250       118873 
32660000    1.0196625  -0.20303288      1728000    2688.1592       163300       118910 
32670000    0.9838718  -0.19160855      1728000    2689.0293       163350       118949 
32680000   0.95768064  -0.18568981      1728000     2689.857       163400       118982 
32690000    1.0033261  -0.18906028      1728000    2690.6582       163450       119021 
32700000   0.92561462  -0.19321098      1728000    2691.4806       163500       119059 
32710000    1.0313372  -0.17478293      1728000    2692.2938       163550       119097 
32720000    1.0056138   -0.1879612      1728000    2693.1062       163600       119140 
32730000    1.0705276   -0.2046933      1728000    2693.9265       163650       119173 
32740000   0.96356109  -0.22211284      1728000    2694.7707       163700       119216 
32750000   0.97398485   -0.2047284      1728000    2695.6238       163750       119256 
32760000   0.97689687  -0.20496482      1728000    2696.4319       163800       119297 
32770000    1.0118554  -0.21231902      1728000    2697.2868       163850       119335 
32780000   0.97838438  -0.20684718      1728000    2698.1469       163900       119368 
32790000    1.0182874  -0.20189812      1728000     2698.977       163950       119408 
32800000    1.0449494  -0.19008386      1728000    2699.7972       164000       119447 
32810000    1.0335239  -0.19458508      1728000    2700.6173       164050       119485 
32820000   0.97401767  -0.19483481      1728000    2701.4475       164100       119521 
32830000   0.98240598  -0.19690985      1728000    2702.2505       164150       119557 
32840000   0.97322394  -0.18597584      1728000    2703.0726       164200       119594 
32850000    1.0367411  -0.18160126      1728000    2703.9078       164250       119636 
32860000   0.93769381  -0.18452038      1728000    2704.7239       164300       119671 
32870000    1.0011548  -0.19438752      1728000    2705.5542       164350       119702 
32880000   0.95305209  -0.19391275      1728000     2706.358       164400       119736 
32890000   0.99392122  -0.18865392      1728000    2707.1566       164450       119775 
32900000    1.0300192  -0.19117625      1728000    2708.0197       164500       119806 
32910000   0.95694657  -0.17689269      1728000    2708.8737       164550       119845 
32920000    1.0557923  -0.17598513      1728000    2709.6688       164600       119881 
32930000   0.96437784  -0.17168221      1728000    2710.4747       164650       119921 
32940000    1.0105009  -0.18338587      1728000    2711.2679       164700       119962 
32950000    0.9440883  -0.18305232      1728000    2712.0658       164750       120000 
32960000   0.95108618  -0.17120702      1728000    2712.8608       164800       120038 
32970000    1.0038676  -0.18026093      1728000    2713.6868       164850       120077 
32980000   0.97470849  -0.18313927      1728000    2714.4977       164900       120115 
32990000   0.96423282  -0.20724766      1728000    2715.3038       164950       120154 
33000000   0.98957832  -0.19817772      1728000    2716.1439       165000       120189 
33010000    1.0277459  -0.19872567      1728000    2716.9708       165050       120224 
33020000    1.0335878  -0.19517373      1728000    2717.7809       165100       120261 
33030000    1.0226901  -0.20151761      1728000    2718.5889       165150       120298 
33040000    1.0236088  -0.19459361      1728000    2719.4175       165200       120328 
33050000     1.015256  -0.21339409      1728000    2720.2481       165250       120361 
33060000    1.0310232  -0.19345881      1728000    2721.0489       165300       120399 
33070000   0.95474158  -0.18342774      1728000    2721.8577       165350       120441 
33080000    0.9916915  -0.17566181      1728000    2722.6709       165400       120483 
33090000    1.0206474  -0.19591043      1728000    2723.4909       165450       120522 
33100000   0.92585921  -0.19329892      1728000    2724.3169       165500       120562 
33110000    1.0062837   -0.1880409      1728000    2725.1239       165550       120596 
33120000    0.9713815  -0.19885174      1728000    2725.9777       165600       120636 
33130000   0.96658399  -0.18605112      1728000    2726.8007       165650       120674 
33140000    1.0335187  -0.19754919      1728000    2727.6195       165700       120711 
33150000    0.9787529  -0.20428607      1728000    2728.4238       165750       120749 
33160000    1.0209035  -0.21073935      1728000    2729.2434       165800       120783 
33170000    1.0195165  -0.21437771      1728000    2730.0477       165850       120824 
33180000   0.99615419  -0.23565617      1728000     2730.965       165900       120861 
33190000   0.98898602  -0.19852289      1728000    2731.7678       165950       120897 
33200000    1.0157816  -0.22350776      1728000    2732.5761       166000       120936 
33210000   0.99899626  -0.20316004      1728000    2733.3776       166050       120968 
33220000   0.99689754  -0.19495982      1728000    2734.1841       166100       121003 
33230000    1.0257048  -0.20833049      1728000    2734.9916       166150       121034 
33240000   0.98207005  -0.20759319      1728000    2735.7958       166200       121062 
33250000     1.011456  -0.21021064      1728000    2736.5999       166250       121096 
33260000   0.98548989  -0.20727132      1728000    2737.4019       166300       121124 
33270000    1.0326794  -0.17864273      1728000    2738.2156       166350       121161 
33280000    1.0372773   -0.1692007      1728000    2739.0259       166400       121198 
33290000   0.92376884  -0.17993546      1728000    2739.8299       166450       121233 
33300000    1.0346921  -0.19713781      1728000    2740.6511       166500       121268 
33310000   0.91543945  -0.19523284      1728000    2741.4969       166550       121300 
33320000   0.92885577  -0.20960121      1728000    2742.3148       166600       121329 
33330000    0.9776465  -0.20108493      1728000    2743.1268       166650       121365 
33340000    1.0241784  -0.20036741      1728000    2743.9399       166700       121400 
33350000    1.0032963  -0.20230056      1728000    2744.7408       166750       121436 
33360000   0.98270511   -0.2149773      1728000    2745.5478       166800       121468 
33370000   0.97424807  -0.22036423      1728000    2746.3518       166850       121501 
33380000   0.99306618  -0.22333325      1728000    2747.1576       166900       121534 
33390000    1.0150691    -0.209298      1728000    2747.9508       166950       121569 
33400000   0.99218841  -0.19091751      1728000    2748.7648       167000       121610 
33410000    1.0051312  -0.19991643      1728000    2749.5665       167050       121646 
33420000   0.94567442  -0.20077161      1728000    2750.3706       167100       121678 
33430000    1.0649051  -0.20676355      1728000    2751.1778       167150       121716 
33440000    1.0996012  -0.22194591      1728000    2751.9869       167200       121752 
33450000   0.98620802   -0.2247061      1728000    2752.7929       167250       121792 
33460000   0.97590668   -0.2201307      1728000    2753.6028       167300       121831 
33470000   0.98044833  -0.23963088      1728000    2754.4067       167350       121867 
33480000    1.0451231  -0.20702808      1728000    2755.2374       167400       121898 
33490000    1.0207324  -0.21398084      1728000    2756.0568       167450       121930 
33500000    1.0083854  -0.22281572      1728000    2756.8768       167500       121971 
33510000    1.0787746  -0.22150636      1728000     2757.701       167550       122006 
33520000   0.97720554   -0.2209779      1728000    2758.5308       167600       122042 
33530000    1.0033759  -0.23543654      1728000    2759.3848       167650       122076 
33540000   0.99139567  -0.22622074      1728000    2760.1929       167700       122111 
33550000    1.0396965  -0.21327165      1728000    2761.0048       167750       122139 
33560000    1.0131203   -0.2134489      1728000    2761.8048       167800       122171 
33570000     1.027488  -0.23463396      1728000    2762.6119       167850       122204 
33580000   0.97920818  -0.24384861      1728000    2763.4238       167900       122240 
33590000    1.0568335  -0.24202222      1728000    2764.2428       167950       122271 
33600000    1.0124344  -0.25318572      1728000    2765.0568       168000       122305 
33610000   0.96470003  -0.25020583      1728000    2765.8696       168050       122338 
33620000    1.0123474  -0.23788765      1728000    2766.6738       168100       122368 
33630000    1.0031903  -0.22336131      1728000    2767.4727       168150       122400 
33640000    0.9446229  -0.22697017      1728000    2768.2728       168200       122437 
33650000   0.95031628  -0.22692942      1728000    2769.0797       168250       122467 
33660000    1.0001218  -0.22953211      1728000    2769.8867       168300       122504 
33670000    1.0016995  -0.22526003      1728000    2770.6957       168350       122535 
33680000    1.0284093  -0.20330122      1728000    2771.5079       168400       122574 
33690000   0.97858651  -0.21511722      1728000    2772.3349       168450       122618 
33700000    1.0118379  -0.21323428      1728000    2773.1538       168500       122655 
33710000    1.0229728  -0.20435752      1728000    2773.9597       168550       122690 
33720000    1.0675582  -0.19969539      1728000    2774.7599       168600       122727 
33730000   0.99227285  -0.20191401      1728000    2775.5658       168650       122766 
33740000   0.95254711  -0.19533738      1728000    2776.3859       168700       122800 
33750000    1.0047547  -0.20664859      1728000    2777.1891       168750       122832 
33760000    1.0139173  -0.21193045      1728000    2778.0018       168800       122871 
33770000    1.0189396  -0.21267797      1728000    2778.8208       168850       122907 
33780000    1.0708171  -0.22281266      1728000    2779.6419       168900       122943 
33790000    1.0134633  -0.22034357      1728000    2780.4548       168950       122974 
33800000    1.0898881  -0.24062496      1728000    2781.2738       169000       123012 
33810000    1.0353702  -0.21390204      1728000    2782.1077       169050       123048 
33820000    1.0393284  -0.22983251      1728000     2782.929       169100       123076 
33830000    1.0016866  -0.21873964      1728000    2783.7614       169150       123114 
33840000   0.97570143  -0.20664627      1728000    2784.5579       169200       123155 
33850000    1.0399068  -0.22247617      1728000    2785.3827       169250       123192 
33860000   0.98733698   -0.2420297      1728000    2786.1917       169300       123225 
33870000    1.0410372  -0.21194299      1728000    2786.9938       169350       123259 
33880000   0.95135831  -0.19491121      1728000      2787.82       169400       123298 
33890000    1.0386159  -0.20880693      1728000    2788.6288       169450       123338 
33900000   0.96099414  -0.21107422      1728000    2789.4667       169500       123378 
33910000    1.0238206  -0.21870575      1728000    2790.2872       169550       123417 
33920000    1.0182853  -0.21966447      1728000      2791.12       169600       123444 
33930000    1.0193769  -0.22757808      1728000    2791.9512       169650       123476 
33940000   0.99756731  -0.21880367      1728000    2792.8073       169700       123511 
33950000    1.0491257  -0.22042692      1728000    2793.6175       169750       123541 
33960000   0.95417299  -0.24187725      1728000     2794.429       169800       123575 
33970000    1.0036201  -0.22475822      1728000    2795.2448       169850       123606 
33980000    1.0156373  -0.24625933      1728000    2796.0407       169900       123644 
33990000    1.0249839   -0.2389154      1728000    2796.8608       169950       123681 
34000000    0.9960809  -0.25676337      1728000    2797.7807       170000       123713 
34010000    1.0397944   -0.2486594      1728000    2798.7155       170050       123749 
34020000    1.0050192  -0.24800315      1728000    2799.5367       170100       123780 
34030000     1.047468  -0.22912552      1728000    2800.3517       170150       123809 
34040000   0.98989181  -0.23770987      1728000    2801.1608       170200       123842 
34050000    1.0435299  -0.23560803      1728000    2801.9718       170250       123877 
34060000    1.0623584  -0.22538659      1728000    2802.7858       170300       123914 
34070000    1.0254412  -0.21421432      1728000    2803.5945       170350       123950 
34080000   0.95268354  -0.20393911      1728000     2804.434       170400       123990 
34090000     1.080872  -0.20166083      1728000    2805.2338       170450       124025 
34100000    0.9892162  -0.19583368      1728000    2806.0348       170500       124060 
34110000   0.95127297  -0.18950125      1728000    2806.8347       170550       124097 
34120000    1.0252743  -0.20390868      1728000    2807.6614       170600       124135 
34130000    1.0358497  -0.19840208      1728000    2808.4816       170650       124166 
34140000   0.94607743  -0.19828591      1728000    2809.3077       170700       124195 
34150000     1.040432  -0.21148675      1728000    2810.1529       170750       124230 
34160000    1.0161208  -0.19959497      1728000    2810.9655       170800       124264 
34170000   0.98773712  -0.20133603      1728000    2811.7787       170850       124299 
34180000   0.97557521  -0.20407159      1728000    2812.5939       170900       124335 
34190000    1.0902851  -0.20052097      1728000     2813.405       170950       124375 
34200000   0.97642236  -0.23169529      1728000     2814.226       171000       124412 
34210000    1.0262924  -0.21854481      1728000    2815.0521       171050       124441 
34220000   0.95038944  -0.21570851      1728000     2815.854       171100       124478 
34230000   0.99247192  -0.21468287      1728000    2816.6782       171150       124513 
34240000   0.98374139  -0.21241868      1728000    2817.4818       171200       124554 
34250000    1.0218745  -0.21959577      1728000     2818.342       171250       124588 
34260000    1.0184857  -0.22225801      1728000    2819.2221       171300       124621 
34270000   0.94480288  -0.21136443      1728000    2820.0643       171350       124650 
34280000    1.0722637  -0.21792715      1728000    2820.8686       171400       124687 
34290000   0.98918494  -0.22288291      1728000    2821.6788       171450       124721 
34300000    1.0577849  -0.22022064      1728000    2822.5085       171500       124761 
34310000    1.0221831  -0.21308451      1728000    2823.3198       171550       124796 
34320000   0.97391771  -0.21734544      1728000    2824.1317       171600       124836 
34330000   0.94221182  -0.21807749      1728000    2824.9435       171650       124873 
34340000    1.0617742  -0.20489704      1728000    2825.7851       171700       124911 
34350000     1.017787  -0.20133772      1728000    2826.6111       171750       124947 
34360000   0.98390963  -0.18050049      1728000     2827.495       171800       124984 
34370000   0.99255148   -0.2073945      1728000    2828.3609       171850       125020 
34380000   0.98307285  -0.19066325      1728000    2829.1911       171900       125059 
34390000    1.0233532  -0.20775776      1728000    2830.0142       171950       125102 
34400000   0.98801886  -0.19362137      1728000    2830.8414       172000       125137 
34410000   0.98941979  -0.19623469      1728000    2831.6755       172050       125173 
34420000    0.9570533  -0.18348155      1728000    2832.5097       172100       125209 
34430000    1.0436573  -0.18142545      1728000    2833.3438       172150       125245 
34440000    1.0363809  -0.19257691      1728000    2834.1739       172200       125282 
34450000    1.1009168  -0.19839923      1728000    2834.9766       172250       125325 
34460000   0.94485206  -0.21231074      1728000    2835.8567       172300       125362 
34470000    1.0162317  -0.19057456      1728000    2836.6647       172350       125397 
34480000   0.99620501  -0.19904559      1728000    2837.4727       172400       125434 
34490000   0.94415441  -0.18456214      1728000    2838.2878       172450       125473 
34500000   0.98130854  -0.19167554      1728000    2839.1075       172500       125507 
34510000    1.1324218  -0.20759748      1728000    2839.9218       172550       125540 
34520000   0.96698757  -0.20912317      1728000    2840.7263       172600       125582 
34530000    1.0302754  -0.20913325      1728000    2841.5425       172650       125619 
34540000   0.99154125  -0.20937374      1728000     2842.357       172700       125653 
34550000    1.0153566  -0.21597476      1728000    2843.1847       172750       125692 
34560000    1.0661033  -0.20598521      1728000    2843.9884       172800       125727 
34570000    1.0753382  -0.18523635      1728000    2844.7989       172850       125763 
34580000   0.98140854  -0.19605889      1728000    2845.6075       172900       125799 
34590000   0.97187792  -0.20544898      1728000    2846.4205       172950       125830 
34600000   0.96843747  -0.20843815      1728000    2847.2596       173000       125868 
34610000    1.0352587  -0.22651021      1728000    2848.0686       173050       125904 
34620000    1.0169901  -0.20779659      1728000    2848.8827       173100       125936 
34630000    1.0095937  -0.19330653      1728000    2849.7147       173150       125973 
34640000   0.98310449  -0.19519313      1728000    2850.5156       173200       126012 
34650000    1.0340042  -0.18655586      1728000    2851.3197       173250       126047 
34660000   0.96989719  -0.19453389      1728000    2852.1232       173300       126087 
34670000    1.0099058  -0.17449053      1728000    2852.9295       173350       126126 
34680000   0.98647871  -0.17316816      1728000    2853.7681       173400       126168 
34690000   0.99171254  -0.20288595      1728000    2854.5827       173450       126205 
34700000    1.0120471   -0.1996673      1728000    2855.4066       173500       126240 
34710000   0.94471992  -0.21445403      1728000    2856.2027       173550       126281 
34720000    0.9598497  -0.20527839      1728000    2856.9976       173600       126315 
34730000    1.0038192  -0.20511327      1728000    2857.8045       173650       126354 
34740000    0.9574608  -0.23684195      1728000    2858.6216       173700       126387 
34750000    1.0402867  -0.22562787      1728000    2859.4444       173750       126423 
34760000    1.0174237  -0.21379604      1728000    2860.2726       173800       126462 
34770000    1.0498148    -0.229224      1728000    2861.0877       173850       126492 
34780000    1.0735129  -0.21079489      1728000    2861.9307       173900       126530 
34790000   0.97647171  -0.20336315      1728000    2862.7555       173950       126564 
34800000   0.99685231  -0.21777183      1728000    2863.6246       174000       126601 
34810000   0.98431428  -0.21921124      1728000    2864.4487       174050       126635 
34820000   0.97469127  -0.21891819      1728000    2865.2957       174100       126667 
34830000   0.96877466  -0.20882871      1728000    2866.1494       174150       126699 
34840000    1.0370019  -0.22529036      1728000    2866.9877       174200       126733 
34850000    1.0326733  -0.22511983      1728000    2867.8185       174250       126766 
34860000   0.98244215  -0.20527602      1728000    2868.6578       174300       126798 
34870000    1.0249614  -0.20426022      1728000    2869.4596       174350       126833 
34880000    1.0087241  -0.18908196      1728000    2870.2846       174400       126873 
34890000    1.0416524   -0.2091254      1728000    2871.0804       174450       126913 
34900000    0.9929313  -0.19508353      1728000    2871.8836       174500       126945 
34910000   0.96166176   -0.2071459      1728000    2872.6838       174550       126981 
34920000    0.9921369  -0.21164252      1728000    2873.5003       174600       127016 
34930000   0.97591407  -0.20655016      1728000    2874.3506       174650       127055 
34940000   0.99416546  -0.20302643      1728000    2875.2101       174700       127097 
34950000   0.97351444  -0.20414734      1728000    2876.0158       174750       127133 
34960000     0.981529  -0.19810348      1728000     2876.816       174800       127173 
34970000    1.0484068  -0.19044734      1728000    2877.6145       174850       127209 
34980000   0.93918367  -0.18507583      1728000    2878.4362       174900       127245 
34990000    1.0406767  -0.20529561      1728000    2879.2704       174950       127283 
35000000     0.956753  -0.21452069      1728000    2880.0908       175000       127325 
35010000    1.0359056  -0.21802884      1728000     2880.917       175050       127363 
35020000    1.0314608  -0.21281128      1728000    2881.7197       175100       127401 
35030000    1.0524123  -0.20395486      1728000    2882.5209       175150       127433 
35040000    1.0377526  -0.20191371      1728000    2883.3155       175200       127471 
35050000   0.93058168  -0.19537408      1728000    2884.1237       175250       127509 
35060000     1.066013  -0.20925178      1728000    2884.9305       175300       127540 
35070000   0.98402998  -0.21749304      1728000    2885.7516       175350       127570 
35080000    0.9614443  -0.20960809      1728000    2886.5598       175400       127608 
35090000    1.0236455  -0.21099555      1728000    2887.3788       175450       127639 
35100000    1.0014131  -0.20304073      1728000    2888.2084       175500       127673 
35110000    1.0710263  -0.21153393      1728000    2889.0066       175550       127710 
35120000   0.98900313  -0.21045705      1728000    2889.8116       175600       127746 
35130000   0.96007832  -0.20112224      1728000    2890.6446       175650       127780 
35140000   0.98896999  -0.19339063      1728000    2891.4495       175700       127815 
35150000    1.0052062  -0.19678323      1728000    2892.2745       175750       127848 
35160000   0.96431421  -0.20130746      1728000    2893.0896       175800       127885 
35170000    1.0592813  -0.19750372      1728000    2893.8938       175850       127925 
35180000    1.0414508  -0.20423375      1728000    2894.7017       175900       127955 
35190000    1.0166402  -0.20032933      1728000    2895.5156       175950       127992 
35200000    1.0488682  -0.21758782      1728000    2896.3326       176000       128032 
35210000   0.94866894  -0.21837719      1728000    2897.1416       176050       128067 
35220000   0.97748858  -0.22732598      1728000    2897.9516       176100       128097 
35230000   0.98331565  -0.21732129      1728000    2898.7941       176150       128130 
35240000    1.0582793  -0.23739044      1728000    2899.6353       176200       128168 
35250000    1.0150922  -0.24257126      1728000    2900.4375       176250       128205 
35260000   0.99372955  -0.23183074      1728000    2901.2806       176300       128241 
35270000   0.97817811  -0.21897431      1728000     2902.084       176350       128279 
35280000    1.0058499  -0.21747753      1728000    2902.8853       176400       128308 
35290000    1.0261267  -0.20845365      1728000    2903.6956       176450       128341 
35300000   0.95959442  -0.22941103      1728000    2904.5067       176500       128373 
35310000   0.96708662  -0.22605908      1728000    2905.3182       176550       128403 
35320000   0.94470143  -0.22584233      1728000    2906.1187       176600       128441 
35330000   0.94040913  -0.22300525      1728000    2906.9588       176650       128476 
35340000   0.91526966  -0.22563218      1728000    2907.7644       176700       128515 
35350000    1.0180722  -0.23044377      1728000    2908.5839       176750       128551 
35360000    0.9715519  -0.25896543      1728000    2909.3926       176800       128582 
35370000   0.92440106  -0.24483036      1728000    2910.2096       176850       128619 
35380000    1.0753054  -0.23275362      1728000    2911.0279       176900       128652 
35390000    1.0266448  -0.24434369      1728000    2911.8507       176950       128685 
35400000   0.97273834  -0.22584791      1728000    2912.6596       177000       128724 
35410000   0.96972762  -0.20666684      1728000    2913.4787       177050       128763 
35420000   0.99066757   -0.2156602      1728000     2914.277       177100       128794 
35430000   0.99591729  -0.22085935      1728000    2915.0828       177150       128827 
35440000   0.98176703  -0.20932244      1728000    2915.8836       177200       128857 
35450000   0.99312067   -0.2191021      1728000    2916.7026       177250       128891 
35460000   0.94614271  -0.22059964      1728000    2917.5066       177300       128926 
35470000   0.96609803  -0.22525141      1728000    2918.3017       177350       128962 
35480000   0.98876232  -0.23246209      1728000    2919.1006       177400       128993 
35490000   0.98038203  -0.22121084      1728000    2919.9007       177450       129032 
35500000    1.0193815  -0.20414873      1728000    2920.7095       177500       129065 
35510000   0.99746468  -0.21817447      1728000    2921.5116       177550       129099 
35520000    1.0164817  -0.23141071      1728000    2922.3192       177600       129131 
35530000   0.95411326   -0.2220083      1728000    2923.1195       177650       129170 
35540000    1.0064809    -0.205535      1728000    2923.9583       177700       129202 
35550000   0.99094463  -0.19742646      1728000    2924.7603       177750       129240 
35560000    1.0342824  -0.20715003      1728000    2925.5646       177800       129277 
35570000    0.9518645  -0.20698383      1728000    2926.3626       177850       129315 
35580000   0.99534111   -0.2050648      1728000    2927.1944       177900       129355 
35590000   0.98782575    -0.219683      1728000    2928.0015       177950       129386 
35600000   0.91639376  -0.22138645      1728000    2928.8146       178000       129419 
35610000   0.93563434  -0.22156268      1728000    2929.6114       178050       129450 
35620000    1.0151024   -0.2113334      1728000    2930.4335       178100       129483 
35630000    0.9924736  -0.19934581      1728000    2931.2324       178150       129516 
35640000   0.94313922  -0.19967426      1728000    2932.0245       178200       129554 
35650000   0.94085773  -0.20314247      1728000    2932.8406       178250       129590 
35660000    1.0560117   -0.2197515      1728000    2933.6766       178300       129628 
35670000    1.0498568   -0.2102165      1728000    2934.4695       178350       129668 
35680000    1.0049102  -0.19792658      1728000    2935.2655       178400       129704 
35690000   0.98194326  -0.21971203      1728000    2936.0822       178450       129743 
35700000   0.97349717  -0.21082094      1728000    2936.9035       178500       129781 
35710000    1.0582302  -0.20786982      1728000    2937.7185       178550       129817 
35720000   0.98797961  -0.20011231      1728000    2938.5216       178600       129860 
35730000     1.005099  -0.21181919      1728000    2939.3476       178650       129903 
35740000   0.95173366  -0.23130628      1728000    2940.1515       178700       129941 
35750000   0.97384802  -0.21890581      1728000    2940.9604       178750       129978 
35760000   0.97653259  -0.20366025      1728000    2941.7724       178800       130018 
35770000    1.0227438  -0.20204856      1728000    2942.5847       178850       130059 
35780000    1.0222879  -0.20393706      1728000     2943.387       178900       130100 
35790000   0.98790793  -0.18312503      1728000    2944.2025       178950       130134 
35800000   0.97151316  -0.18058168      1728000    2945.0124       179000       130165 
35810000   0.94318556  -0.18606968      1728000    2945.8116       179050       130198 
35820000      1.05733   -0.1869324      1728000    2946.6105       179100       130241 
35830000   0.98447744  -0.19325927      1728000    2947.4118       179150       130277 
35840000   0.99119418  -0.19882241      1728000    2948.2184       179200       130311 
35850000    1.0523261  -0.20028277      1728000    2949.0253       179250       130345 
35860000   0.98470492  -0.21822078      1728000    2949.8425       179300       130378 
35870000   0.98638631  -0.21165725      1728000    2950.6476       179350       130415 
35880000   0.97116186  -0.21572619      1728000    2951.4516       179400       130456 
35890000   0.99730202  -0.20132678      1728000    2952.2461       179450       130490 
35900000    0.9915805  -0.20634599      1728000    2953.0633       179500       130526 
35910000    1.0302231  -0.21059206      1728000    2953.8953       179550       130563 
35920000   0.99768727  -0.22491178      1728000    2954.7187       179600       130594 
35930000   0.97591403  -0.21156521      1728000    2955.5296       179650       130629 
35940000    1.0243799  -0.20391448      1728000    2956.3283       179700       130664 
35950000   0.96816474  -0.19678269      1728000    2957.1346       179750       130700 
35960000   0.98791225  -0.18119599      1728000    2957.9615       179800       130737 
35970000   0.99857544  -0.19469126      1728000    2958.7726       179850       130779 
35980000     1.014424  -0.20540345      1728000    2959.5774       179900       130815 
35990000    1.0310446  -0.19182172      1728000    2960.3825       179950       130855 
36000000     1.057134  -0.18858206      1728000    2961.2175       180000       130890 
36010000    1.0312349  -0.19370438      1728000    2962.0304       180050       130929 
36020000     1.068782  -0.20570778      1728000    2962.8334       180100       130961 
36030000   0.93747895  -0.21276596      1728000    2963.6445       180150       130996 
36040000   0.97780926  -0.20390431      1728000    2964.4495       180200       131032 
36050000   0.94121831  -0.22341698      1728000    2965.2541       180250       131063 
36060000   0.98269602  -0.20023889      1728000    2966.0623       180300       131101 
36070000    0.9629802  -0.21455535      1728000    2966.8874       180350       131141 
36080000    1.0393691  -0.20394126      1728000    2967.7203       180400       131175 
36090000    1.0004968  -0.21278535      1728000    2968.5295       180450       131215 
36100000     1.009538  -0.21515291      1728000    2969.3414       180500       131253 
36110000    1.0238358   -0.2039837      1728000    2970.1405       180550       131290 
36120000    0.9741794  -0.20172034      1728000    2970.9625       180600       131330 
36130000    1.0241382  -0.18093839      1728000    2971.7845       180650       131370 
36140000    1.0141585  -0.19406258      1728000    2972.5867       180700       131405 
36150000   0.99583274  -0.20858741      1728000    2973.3934       180750       131444 
36160000   0.93677931  -0.21635988      1728000    2974.2093       180800       131485 
36170000    1.0432375   -0.2065527      1728000    2975.0094       180850       131518 
36180000    1.0489811  -0.17531232      1728000    2975.8126       180900       131555 
36190000   0.95060999  -0.18390731      1728000    2976.6404       180950       131593 
36200000    1.0499391  -0.18930528      1728000    2977.4743       181000       131633 
36210000    1.0195279  -0.17408284      1728000    2978.2793       181050       131669 
36220000   0.99676624  -0.18521097      1728000    2979.0747       181100       131708 
36230000   0.99826949  -0.19097312      1728000    2979.8755       181150       131743 
36240000   0.94223201  -0.20577751      1728000    2980.6814       181200       131779 
36250000    1.0139548  -0.19154554      1728000    2981.4814       181250       131816 
36260000    1.0205852  -0.19244545      1728000     2982.282       181300       131858 
36270000    1.0398153   -0.2229266      1728000    2983.0792       181350       131894 
36280000   0.95192702  -0.21512781      1728000    2983.9054       181400       131929 
36290000    1.0241446  -0.20690435      1728000    2984.7124       181450       131961 
36300000    1.0824153  -0.21693726      1728000    2985.5255       181500       131998 
36310000   0.99293243  -0.21579096      1728000    2986.3225       181550       132035 
36320000    1.0089457  -0.23365317      1728000    2987.1333       181600       132071 
36330000   0.98586101  -0.22796289      1728000    2987.9354       181650       132106 
36340000   0.95309859   -0.2182412      1728000    2988.7283       181700       132141 
36350000    1.0004772   -0.2155194      1728000    2989.5612       181750       132171 
36360000   0.99084766  -0.18724641      1728000    2990.3475       181800       132205 
36370000    1.0204345  -0.20645919      1728000    2991.1702       181850       132241 
36380000    0.9636699  -0.20653408      1728000    2991.9884       181900       132279 
36390000   0.96066368   -0.1931376      1728000     2992.835       181950       132315 
36400000    1.0225333  -0.19225028      1728000    2993.6594       182000       132346 
36410000   0.98005699   -0.1930712      1728000    2994.4586       182050       132383 
36420000   0.94585844  -0.19289422      1728000     2995.266       182100       132419 
36430000   0.95605262  -0.20703346      1728000    2996.0621       182150       132453 
36440000    1.0362164  -0.20137486      1728000    2996.8561       182200       132486 
36450000     1.034407  -0.20972564      1728000    2997.6545       182250       132523 
36460000   0.97264534   -0.2046457      1728000    2998.4495       182300       132566 
36470000   0.95420695   -0.2010328      1728000    2999.2655       182350       132605 
36480000     1.040339  -0.20747059      1728000    3000.0595       182400       132646 
36490000    1.0288703  -0.20928368      1728000    3000.8615       182450       132684 
36500000    1.0298373  -0.20019622      1728000    3001.6585       182500       132718 
36510000   0.97907826  -0.20183566      1728000    3002.4605       182550       132758 
36520000   0.98820338  -0.21296724      1728000    3003.2484       182600       132796 
36530000   0.98661371    -0.207335      1728000    3004.0691       182650       132829 
36540000   0.99995383  -0.21052417      1728000    3004.8674       182700       132867 
36550000   0.99242759  -0.22298922      1728000    3005.6724       182750       132905 
36560000    0.9513119  -0.22502131      1728000    3006.4815       182800       132941 
36570000   0.98915747   -0.2258325      1728000    3007.3104       182850       132981 
36580000   0.94824763  -0.22947855      1728000    3008.1662       182900       133019 
36590000     1.031916   -0.2293768      1728000    3008.9735       182950       133055 
36600000   0.99909999  -0.23673272      1728000    3009.7943       183000       133087 
36610000   0.96333145  -0.22825128      1728000    3010.5903       183050       133126 
36620000    0.9892866   -0.2101202      1728000    3011.4072       183100       133160 
36630000   0.97006259  -0.20514194      1728000    3012.2393       183150       133197 
36640000    1.0477104  -0.19683669      1728000    3013.0629       183200       133237 
36650000   0.95980862  -0.20120465      1728000    3013.8585       183250       133272 
36660000    1.0323141  -0.21078591      1728000    3014.6697       183300       133312 
36670000   0.97221033  -0.21124585      1728000    3015.4664       183350       133353 
36680000    1.0720321   -0.2183862      1728000    3016.2718       183400       133383 
36690000    1.0343095  -0.21110772      1728000    3017.0656       183450       133423 
36700000    1.0087704  -0.22406004      1728000    3017.9136       183500       133459 
36710000   0.98356164  -0.21763491      1728000    3018.7298       183550       133496 
36720000    1.0441789  -0.22433985      1728000     3019.531       183600       133531 
36730000   0.97610264   -0.2059476      1728000    3020.3294       183650       133564 
36740000    1.0217223  -0.21570082      1728000    3021.1224       183700       133600 
36750000    1.0014135  -0.20400972      1728000    3021.9234       183750       133641 
36760000   0.98542138   -0.2065766      1728000    3022.7424       183800       133681 
36770000    1.0196203  -0.18177798      1728000    3023.5463       183850       133717 
36780000   0.95704517  -0.20438369      1728000    3024.3492       183900       133754 
36790000    1.0418568  -0.19749078      1728000    3025.1782       183950       133791 
36800000    0.9969847  -0.23062228      1728000    3025.9906       184000       133826 
36810000    1.0074884  -0.21843492      1728000    3026.7922       184050       133859 
36820000   0.98509665  -0.21509836      1728000    3027.6044       184100       133900 
36830000   0.97937056  -0.23846995      1728000    3028.4024       184150       133938 
36840000   0.95953069  -0.22944355      1728000    3029.2094       184200       133969 
36850000   0.98521589  -0.23631319      1728000    3030.0246       184250       134003 
36860000    1.0349262   -0.2402483      1728000    3030.8363       184300       134039 
36870000    1.0296827  -0.23873778      1728000    3031.6296       184350       134068 
36880000    1.0263058  -0.23768703      1728000    3032.4263       184400       134099 
36890000    1.0204603  -0.24168279      1728000    3033.2244       184450       134133 
36900000    0.9514097  -0.24310703      1728000    3034.0424       184500       134168 
36910000   0.98391145  -0.23544509      1728000    3034.8354       184550       134206 
36920000   0.96064521  -0.23243788      1728000    3035.6385       184600       134243 
36930000   0.98241269  -0.24222704      1728000    3036.4574       184650       134276 
36940000    1.0643746  -0.23127079      1728000    3037.2952       184700       134313 
36950000    1.0586607  -0.22840881      1728000    3038.1226       184750       134349 
36960000     1.025473  -0.20912978      1728000    3038.9646       184800       134382 
36970000   0.98225648  -0.20435684      1728000    3039.7646       184850       134418 
36980000    1.0070394  -0.19736405      1728000    3040.5654       184900       134451 
36990000   0.98101943  -0.20071487      1728000    3041.3635       184950       134487 
37000000   0.98917956  -0.20543276      1728000    3042.2023       185000       134527 
37010000   0.91430859  -0.20591591      1728000    3043.0195       185050       134568 
37020000   0.99954794  -0.19485856      1728000    3043.8276       185100       134607 
37030000   0.98938122   -0.1857657      1728000    3044.6225       185150       134646 
37040000    1.0142702  -0.18251341      1728000    3045.4194       185200       134686 
37050000   0.94747631  -0.19523874      1728000    3046.2155       185250       134725 
37060000    1.0471235  -0.18374538      1728000    3047.0083       185300       134759 
37070000   0.93814104  -0.17728057      1728000    3047.8785       185350       134793 
37080000   0.99242891  -0.19320523      1728000    3048.6796       185400       134831 
37090000   0.96202021  -0.19975682      1728000    3049.5012       185450       134867 
37100000    1.0229083  -0.20334715      1728000    3050.3044       185500       134906 
37110000   0.98589186  -0.20006853      1728000    3051.1254       185550       134946 
37120000   0.92008118  -0.20818006      1728000    3051.9324       185600       134981 
37130000   0.94827299  -0.19089419      1728000    3052.7554       185650       135023 
37140000    1.0884206  -0.18836598      1728000    3053.5636       185700       135061 
37150000    1.0100677  -0.20146967      1728000    3054.3683       185750       135099 
37160000    1.0030031  -0.16836019      1728000    3055.1614       185800       135140 
37170000    1.0401499  -0.18368169      1728000    3055.9532       185850       135175 
37180000    1.0219554  -0.18300601      1728000    3056.7525       185900       135214 
37190000    1.0266591  -0.17902482      1728000    3057.5503       185950       135251 
37200000    0.9208889  -0.17982448      1728000    3058.3822       186000       135291 
37210000   0.98209358  -0.18847015      1728000    3059.1934       186050       135327 
37220000   0.98185417  -0.19094909      1728000    3059.9923       186100       135366 
37230000    1.0023641  -0.18613708      1728000    3060.8054       186150       135402 
37240000    1.0252919  -0.18259176      1728000    3061.6004       186200       135440 
37250000   0.97956897  -0.20716263      1728000    3062.3895       186250       135481 
37260000   0.99413017  -0.22008263      1728000    3063.1834       186300       135516 
37270000    1.0603824  -0.21058979      1728000    3064.0001       186350       135554 
37280000    1.0061221  -0.21672237      1728000    3064.7984       186400       135590 
37290000   0.97419442  -0.21409366      1728000    3065.6173       186450       135624 
37300000   0.95916802  -0.21401321      1728000    3066.4254       186500       135662 
37310000   0.98585941  -0.20448718      1728000    3067.2263       186550       135697 
37320000    1.0095333  -0.22658943      1728000     3068.024       186600       135737 
37330000     1.036989  -0.21084287      1728000    3068.8375       186650       135772 
37340000    1.0182242  -0.21040951      1728000    3069.6617       186700       135811 
37350000   0.92179211  -0.20441544      1728000    3070.4712       186750       135846 
37360000    1.0092262  -0.20792575      1728000    3071.3125       186800       135889 
37370000    1.0348768  -0.21728692      1728000    3072.1175       186850       135920 
37380000    1.0294163  -0.19621216      1728000    3072.9558       186900       135954 
37390000   0.95874557  -0.18674206      1728000     3073.789       186950       135993 
37400000    1.0208073  -0.18160441      1728000    3074.6553       187000       136028 
37410000    1.0837155  -0.19262336      1728000    3075.4468       187050       136068 
37420000   0.90394844  -0.19316077      1728000    3076.2644       187100       136107 
37430000   0.95500369  -0.19566871      1728000    3077.0772       187150       136147 
37440000    1.0197441  -0.19531295      1728000    3077.8819       187200       136187 
37450000   0.98646381  -0.20302015      1728000    3078.6864       187250       136224 
37460000    1.0266931  -0.20451802      1728000    3079.4865       187300       136262 
37470000    1.0084562  -0.18613308      1728000    3080.3101       187350       136302 
37480000    1.0185616  -0.20430215      1728000    3081.1285       187400       136336 
37490000    1.0155323  -0.19592449      1728000    3081.9237       187450       136374 
37500000     1.068615  -0.17581898      1728000    3082.7499       187500       136414 
37510000    1.0297933  -0.18361379      1728000    3083.5944       187550       136452 
37520000    1.0224222  -0.17667399      1728000    3084.3866       187600       136488 
37530000    1.0296103  -0.18892813      1728000    3085.1735       187650       136527 
37540000     1.076269  -0.19709423      1728000    3085.9855       187700       136563 
37550000    1.0447411  -0.18802475      1728000    3086.7768       187750       136596 
37560000    1.0205077   -0.1840483      1728000    3087.6054       187800       136633 
37570000   0.99921708  -0.19451774      1728000    3088.3995       187850       136663 
37580000    1.0188327  -0.21113122      1728000    3089.2244       187900       136700 
37590000   0.97110106  -0.19382924      1728000    3090.0674       187950       136736 
37600000    1.0233377  -0.19672848      1728000    3090.8753       188000       136774 
37610000    1.0349037   -0.2059165      1728000    3091.6743       188050       136808 
37620000   0.97675788  -0.18889226      1728000    3092.4684       188100       136845 
37630000   0.98525768  -0.19310087      1728000    3093.2834       188150       136885 
37640000   0.93885932   -0.1959761      1728000    3094.0832       188200       136922 
37650000   0.98986425  -0.19366032      1728000    3094.8872       188250       136955 
37660000   0.96501826  -0.19964101      1728000    3095.7253       188300       136990 
37670000    1.0216006  -0.18900863      1728000    3096.5484       188350       137030 
37680000   0.94838056  -0.17466699      1728000    3097.3475       188400       137065 
37690000    1.0020953  -0.17642939      1728000    3098.1632       188450       137100 
37700000    1.0142067  -0.18234684      1728000    3098.9912       188500       137139 
37710000    1.0490122  -0.21670409      1728000    3099.7904       188550       137175 
37720000    1.0055229  -0.22141074      1728000    3100.5942       188600       137210 
37730000    1.0387409   -0.2066256      1728000    3101.4121       188650       137245 
37740000   0.91098288  -0.20720118      1728000    3102.2275       188700       137273 
37750000   0.98904323  -0.21845105      1728000    3103.0455       188750       137310 
37760000    1.0301011    -0.215401      1728000    3103.8622       188800       137346 
37770000   0.94669508  -0.21328845      1728000    3104.6603       188850       137380 
37780000    1.0099883  -0.22234109      1728000    3105.4745       188900       137422 
37790000    1.0028234  -0.23210261      1728000    3106.2751       188950       137459 
37800000     1.010961  -0.21704947      1728000    3107.0931       189000       137489 
37810000   0.97060095  -0.22890418      1728000    3107.9233       189050       137521 
37820000    1.0540068  -0.22913971      1728000    3108.7377       189100       137560 
37830000   0.97093361  -0.21586951      1728000    3109.5459       189150       137598 
37840000    1.0263017  -0.20656111      1728000    3110.3365       189200       137635 
37850000   0.96232426  -0.21548302      1728000    3111.1354       189250       137671 
37860000   0.97854389  -0.21722069      1728000    3111.9272       189300       137705 
37870000    1.0662991  -0.20881035      1728000    3112.7364       189350       137741 
37880000   0.99612081  -0.20105486      1728000    3113.5394       189400       137782 
37890000    1.0127664  -0.21084895      1728000    3114.3653       189450       137816 
37900000    1.0184039   -0.2102538      1728000    3115.1991       189500       137855 
37910000   0.97357684  -0.22325901      1728000    3116.0075       189550       137899 
37920000   0.95298763  -0.20890932      1728000    3116.9083       189600       137929 
37930000    1.0376353  -0.21706264      1728000    3117.7352       189650       137957 
37940000   0.97599886  -0.23275812      1728000    3118.5543       189700       137999 
37950000     1.006332  -0.22189707      1728000    3119.3644       189750       138031 
37960000   0.97265851  -0.21132182      1728000    3120.2133       189800       138065 
37970000    1.0035819   -0.2094894      1728000    3121.2292       189850       138099 
37980000    1.0235084  -0.21012688      1728000    3122.0918       189900       138131 
37990000    1.0644985  -0.20094518      1728000     3122.924       189950       138168 
38000000   0.99803008  -0.23201241      1728000    3123.7502       190000       138207 
38010000   0.99531119  -0.20851097      1728000    3124.6101       190050       138237 
38020000    1.0259141  -0.21605117      1728000    3125.5662       190100       138278 
38030000    1.0377271  -0.21037817      1728000    3126.4013       190150       138318 
38040000   0.95964939  -0.22258045      1728000    3127.2704       190200       138352 
38050000   0.91503545  -0.22277586      1728000    3128.1195       190250       138385 
38060000    0.9709089  -0.22022698      1728000    3128.9517       190300       138426 
38070000   0.92694137  -0.21433549      1728000    3129.7902       190350       138463 
38080000      1.01073  -0.21222618      1728000    3130.6184       190400       138500 
38090000   0.99574932  -0.22850275      1728000    3131.4405       190450       138537 
38100000   0.97592427  -0.22681314      1728000    3132.3196       190500       138571 
38110000    1.0567696  -0.22227191      1728000    3133.1877       190550       138606 
38120000   0.94986538   -0.2145845      1728000    3134.0398       190600       138645 
38130000   0.94391115  -0.21918748      1728000    3134.9499       190650       138676 
38140000     1.042205  -0.21688294      1728000    3135.7723       190700       138717 
38150000    1.0469717  -0.21711808      1728000    3136.5884       190750       138752 
38160000    1.0289422   -0.2124868      1728000    3137.4273       190800       138787 
38170000   0.99159697  -0.18800677      1728000    3138.2803       190850       138825 
38180000    1.0081775  -0.19324889      1728000    3139.0974       190900       138863 
38190000    1.0238384  -0.20651739      1728000    3139.9282       190950       138901 
38200000    1.0021533  -0.22073752      1728000    3140.7593       191000       138936 
38210000   0.99016974  -0.20548377      1728000    3141.5725       191050       138976 
38220000     1.078562  -0.20063182      1728000    3142.4297       191100       139007 
38230000    1.0287476  -0.20460968      1728000    3143.2889       191150       139048 
38240000   0.94120624  -0.22207395      1728000     3144.116       191200       139083 
38250000    1.0953627  -0.20146631      1728000    3144.9522       191250       139116 
38260000    0.9672086  -0.20183663      1728000    3145.8093       191300       139154 
38270000   0.94229209  -0.20451997      1728000    3146.7164       191350       139189 
38280000   0.98316542  -0.19797083      1728000    3147.5315       191400       139226 
38290000   0.96606856  -0.18657118      1728000    3148.3737       191450       139264 
38300000    1.0213755  -0.18849562      1728000    3149.2292       191500       139302 
38310000    1.0282753  -0.20509842      1728000    3150.0484       191550       139335 
38320000    1.0221104  -0.19712851      1728000    3150.8706       191600       139369 
38330000    0.9594228  -0.21102814      1728000    3151.7349       191650       139405 
38340000   0.98243924  -0.20886398      1728000    3152.5592       191700       139440 
38350000   0.99543163   -0.2136705      1728000    3153.4173       191750       139478 
38360000   0.99321304  -0.21904318      1728000    3154.2536       191800       139512 
38370000    1.0545891  -0.22613934      1728000    3155.0777       191850       139542 
38380000     1.058612  -0.23508114      1728000    3155.9438       191900       139576 
38390000   0.96492606  -0.24004046      1728000     3156.785       191950       139609 
38400000   0.96272346  -0.25098076      1728000    3157.6451       192000       139648 
38410000    1.0314836  -0.24279666      1728000    3158.4902       192050       139680 
38420000    1.0344882  -0.24182175      1728000    3159.3294       192100       139718 
38430000    1.0225504  -0.24320459      1728000    3160.1765       192150       139746 
38440000    1.0116436  -0.24472123      1728000    3161.0126       192200       139772 
38450000    1.0747907  -0.23598737      1728000    3161.8547       192250       139807 
38460000   0.99108304  -0.23688474      1728000    3162.7229       192300       139847 
38470000   0.96432709  -0.22394596      1728000     3163.594       192350       139880 
38480000   0.98591257  -0.24374341      1728000    3164.4771       192400       139913 
38490000    1.0071187  -0.23773406      1728000    3165.3226       192450       139949 
38500000    1.0188118  -0.23138439      1728000    3166.1967       192500       139979 
38510000    1.0369986  -0.23299779      1728000    3167.0509       192550       140014 
38520000   0.98070734  -0.23686884      1728000    3167.9359       192600       140044 
38530000   0.98061527  -0.22824962      1728000    3168.7461       192650       140081 
38540000   0.99927539  -0.24033663      1728000    3169.6132       192700       140116 
38550000    1.0017984   -0.2312448      1728000    3170.4354       192750       140150 
38560000   0.99263323  -0.21970922      1728000    3171.3065       192800       140183 
38570000    1.0355527  -0.21038837      1728000    3172.1776       192850       140218 
38580000    1.0045878  -0.21495218      1728000    3173.0827       192900       140254 
38590000    1.0541944  -0.20362796      1728000    3173.9379       192950       140292 
38600000    1.0274135  -0.20375622      1728000    3174.7395       193000       140331 
38610000    1.0314936  -0.20489455      1728000    3175.5403       193050       140371 
38620000   0.96735928  -0.21516205      1728000    3176.3832       193100       140407 
38630000    1.0298786  -0.20644895      1728000    3177.2563       193150       140441 
38640000    1.0083657  -0.21341152      1728000    3178.0904       193200       140480 
38650000   0.98393429  -0.22802187      1728000    3178.9233       193250       140514 
38660000    1.0119158  -0.19909081      1728000    3179.8157       193300       140549 
38670000    1.0345606  -0.19721917      1728000    3180.6303       193350       140588 
38680000    1.0244156  -0.20902147      1728000    3181.4529       193400       140629 
38690000   0.97193302  -0.21389491      1728000     3182.253       193450       140666 
38700000   0.96618632  -0.21007789      1728000    3183.0684       193500       140699 
38710000    1.0078555  -0.20478665      1728000    3183.8696       193550       140739 
38720000    1.0373421  -0.21011249      1728000    3184.6952       193600       140775 
38730000    1.0193679  -0.21810455      1728000    3185.5074       193650       140812 
38740000    1.0424606  -0.23144517      1728000    3186.3194       193700       140847 
38750000   0.96735976  -0.21604215      1728000    3187.1551       193750       140883 
38760000   0.98639266  -0.21900694      1728000    3188.0184       193800       140920 
38770000   0.98809117   -0.2034134      1728000    3188.8364       193850       140947 
38780000   0.90698316   -0.2088845      1728000     3189.661       193900       140978 
38790000    1.0039576  -0.19330522      1728000    3190.4832       193950       141010 
38800000    1.0196754  -0.18602833      1728000    3191.3123       194000       141050 
38810000   0.99216704   -0.1890026      1728000    3192.1253       194050       141088 
38820000    1.0481178  -0.19500151      1728000    3192.9604       194100       141129 
38830000   0.97466176  -0.18989766      1728000    3193.7986       194150       141166 
38840000   0.91334419  -0.17211931      1728000    3194.6057       194200       141206 
38850000   0.94744965  -0.19451324      1728000    3195.4329       194250       141243 
38860000     1.039883  -0.19760897      1728000    3196.2601       194300       141278 
38870000    1.0095876  -0.20057832      1728000    3197.0773       194350       141313 
38880000   0.97879783   -0.2036403      1728000    3197.9186       194400       141355 
38890000    1.0706697   -0.1976011      1728000    3198.7368       194450       141385 
38900000    1.0088485  -0.18544547      1728000    3199.5517       194500       141424 
38910000    1.0286415  -0.18148984      1728000    3200.3502       194550       141461 
38920000    1.0095176  -0.17816596      1728000    3201.1694       194600       141499 
38930000   0.99472647  -0.17712569      1728000    3201.9602       194650       141540 
38940000   0.95361396  -0.16574532      1728000    3202.7659       194700       141582 
38950000    1.0043856  -0.18474239      1728000    3203.5954       194750       141620 
38960000   0.97288733  -0.18543036      1728000     3204.406       194800       141654 
38970000   0.98488883   -0.1885052      1728000    3205.2072       194850       141692 
38980000    1.0574843  -0.18725986      1728000    3206.0083       194900       141729 
38990000   0.98491646  -0.18627629      1728000    3206.8054       194950       141767 
39000000   0.97624066  -0.18912582      1728000    3207.6514       195000       141805 
39010000   0.95886445  -0.18639514      1728000    3208.4801       195050       141846 
39020000   0.98157934  -0.18532105      1728000    3209.3292       195100       141883 
39030000    1.0513189  -0.19912681      1728000    3210.1321       195150       141920 
39040000    1.0925564  -0.20051056      1728000    3210.9282       195200       141956 
39050000   0.97721837  -0.20148737      1728000    3211.7336       195250       141996 
39060000    0.9482664  -0.20370205      1728000    3212.5857       195300       142029 
39070000   0.96565838  -0.20732651      1728000    3213.4148       195350       142066 
39080000   0.95059434  -0.20789007      1728000    3214.2469       195400       142103 
39090000   0.98577823  -0.20089279      1728000     3215.082       195450       142141 
39100000    1.0114404  -0.20733787      1728000    3215.9222       195500       142172 
39110000   0.97831306  -0.19233212      1728000    3216.7633       195550       142206 
39120000    1.0143641  -0.18534598      1728000     3217.581       195600       142249 
39130000    1.0094305  -0.19530285      1728000    3218.4212       195650       142290 
39140000    1.0005885  -0.18722943      1728000    3219.2363       195700       142323 
39150000    1.0387098  -0.20301704      1728000    3220.0465       195750       142363 
39160000   0.94494979  -0.20904005      1728000    3220.8511       195800       142400 
39170000   0.99238771  -0.22102213      1728000     3221.655       195850       142438 
39180000    1.0014289  -0.21414405      1728000    3222.4823       195900       142468 
39190000     1.008574  -0.21473935      1728000    3223.2794       195950       142506 
39200000   0.94174482  -0.23095621      1728000    3224.1051       196000       142538 
39210000    1.0304847   -0.2339402      1728000    3224.9339       196050       142573 
39220000   0.97567485  -0.22359705      1728000    3225.7831       196100       142605 
39230000    1.0296898  -0.21857844      1728000    3226.5912       196150       142638 
39240000   0.95387041  -0.24288097      1728000     3227.429       196200       142678 
39250000   0.97203898  -0.22803251      1728000    3228.2351       196250       142713 
39260000   0.96944954   -0.2320754      1728000    3229.0744       196300       142752 
39270000   0.98453107  -0.24230529      1728000    3229.9016       196350       142785 
39280000    1.0101043  -0.22632328      1728000    3230.7687       196400       142825 
39290000    1.0332693  -0.21736846      1728000      3231.59       196450       142859 
39300000    1.0180677  -0.23155055      1728000    3232.4352       196500       142891 
39310000    1.0365679  -0.22872137      1728000    3233.2853       196550       142929 
39320000    1.0079445   -0.2362511      1728000    3234.1136       196600       142961 
39330000   0.97740794  -0.23423986      1728000    3234.9608       196650       142997 
39340000   0.99670692  -0.22211819      1728000    3235.8199       196700       143037 
39350000    0.9991482  -0.21331931      1728000     3236.688       196750       143072 
39360000   0.93731253  -0.21835062      1728000    3237.5391       196800       143107 
39370000    1.0190672  -0.21821547      1728000    3238.3764       196850       143139 
39380000    1.0813074  -0.22292411      1728000    3239.1847       196900       143173 
39390000    1.0509422   -0.2257019      1728000    3239.9831       196950       143215 
39400000   0.99447078  -0.22567029      1728000    3240.8703       197000       143254 
39410000   0.98507218  -0.22487977      1728000    3241.6782       197050       143287 
39420000     1.033629  -0.21602214      1728000    3242.5045       197100       143329 
39430000    0.9980749  -0.21700161      1728000    3243.3446       197150       143363 
39440000   0.95595896  -0.23055237      1728000    3244.1799       197200       143396 
39450000     1.009262  -0.20273807      1728000      3245.07       197250       143429 
39460000   0.97173839  -0.21043555      1728000     3245.935       197300       143467 
39470000    1.0336397  -0.20116327      1728000    3246.7912       197350       143504 
39480000   0.96119808  -0.19596125      1728000    3247.6523       197400       143541 
39490000   0.98642778  -0.21108182      1728000    3248.4825       197450       143580 
39500000    1.0270412  -0.21731373      1728000    3249.3646       197500       143617 
39510000    1.0459485  -0.21245332      1728000    3250.1829       197550       143660 
39520000    1.0271078  -0.21905162      1728000         3251       197600       143694 
39530000    1.0404113  -0.22037209      1728000    3251.9071       197650       143732 
39540000   0.99698736  -0.19849678      1728000     3252.729       197700       143771 
39550000    1.0119748  -0.20164104      1728000    3253.5272       197750       143804 
39560000   0.99965844  -0.20216053      1728000    3254.3511       197800       143840 
39570000   0.97299273  -0.20111077      1728000      3255.16       197850       143876 
39580000   0.96828285  -0.20704349      1728000    3255.9862       197900       143913 
39590000   0.99319711  -0.22231399      1728000    3256.8011       197950       143949 
39600000     1.063313  -0.21623286      1728000    3257.6241       198000       143983 
39610000   0.98643986  -0.20090084      1728000    3258.4722       198050       144022 
39620000   0.98411794  -0.19724427      1728000     3259.293       198100       144059 
39630000    1.0029028   -0.1898746      1728000     3260.099       198150       144095 
39640000   0.97647956  -0.19383806      1728000    3260.9042       198200       144128 
39650000   0.98730962  -0.19652349      1728000    3261.6972       198250       144167 
39660000   0.98725213  -0.19044986      1728000     3262.489       198300       144211 
39670000   0.96182337  -0.17600205      1728000     3263.296       198350       144250 
39680000   0.95698921  -0.17762153      1728000    3264.0908       198400       144289 
39690000   0.98393196  -0.18708034      1728000    3264.9061       198450       144326 
39700000    1.0004214  -0.18293598      1728000    3265.7062       198500       144363 
39710000   0.96337258  -0.19946412      1728000    3266.5161       198550       144402 
39720000    1.0282892  -0.20366809      1728000    3267.3373       198600       144431 
39730000   0.94357975  -0.20070422      1728000    3268.1959       198650       144472 
39740000    1.0007006  -0.21631836      1728000     3268.989       198700       144510 
39750000   0.98107946  -0.19902806      1728000    3269.8358       198750       144551 
39760000    1.0795093  -0.20819849      1728000    3270.6821       198800       144591 
39770000   0.98664899   -0.2001221      1728000    3271.4888       198850       144624 
39780000    1.0448621  -0.19898941      1728000    3272.3132       198900       144662 
39790000    1.0404135  -0.21789492      1728000     3273.119       198950       144696 
39800000    1.0045045  -0.19446719      1728000    3273.9472       199000       144737 
39810000    1.0125526  -0.22109872      1728000    3274.7692       199050       144774 
39820000   0.96125438  -0.20219745      1728000     3275.613       199100       144812 
39830000    1.0082397  -0.20300818      1728000    3276.4231       199150       144849 
39840000    1.0031096  -0.21504028      1728000     3277.222       199200       144889 
39850000   0.93482164  -0.21511281      1728000    3278.0302       199250       144929 
39860000   0.94371126  -0.19297938      1728000    3278.8351       199300       144962 
39870000    0.9736746  -0.19926771      1728000    3279.6652       199350       145000 
39880000   0.94956943  -0.20119415      1728000    3280.5012       199400       145033 
39890000     0.980628   -0.1968688      1728000    3281.3503       199450       145067 
39900000   0.99772001  -0.21198757      1728000    3282.2641       199500       145110 
39910000    1.0254015  -0.20029941      1728000    3283.0922       199550       145147 
39920000    1.0543749  -0.19370192      1728000    3283.9081       199600       145188 
39930000   0.93941057  -0.21126002      1728000    3284.7451       199650       145223 
39940000    0.9168204  -0.21626089      1728000    3285.5591       199700       145257 
39950000    1.0606213  -0.20281945      1728000    3286.3847       199750       145290 
39960000    1.0594298  -0.20297479      1728000     3287.265       199800       145325 
39970000     1.009144  -0.19125574      1728000    3288.0665       199850       145365 
39980000   0.99610584  -0.20997475      1728000    3288.8877       199900       145403 
39990000    1.0594372  -0.21121865      1728000    3289.7458       199950       145439 
40000000    1.0208949  -0.19865648      1728000    3290.5999       200000       145470 
40010000   0.97835613  -0.20362844      1728000     3291.426       200050       145507 
40020000    1.0042215  -0.20983271      1728000    3292.2792       200100       145540 
40030000    1.0321868  -0.20623678      1728000    3293.0951       200150       145573 
40040000   0.95269216   -0.1994074      1728000    3293.9073       200200       145610 
40050000    0.9909259  -0.21093257      1728000    3294.7274       200250       145646 
40060000    1.0124219  -0.21399007      1728000     3295.546       200300       145686 
40070000   0.94799148  -0.21747039      1728000    3296.3449       200350       145721 
40080000   0.99112062   -0.2129036      1728000     3297.136       200400       145761 
40090000    1.0260596  -0.22395938      1728000    3298.0413       200450       145797 
40100000    1.0497514  -0.22826264      1728000    3298.8738       200500       145828 
40110000    1.0503137  -0.22796458      1728000    3299.6989       200550       145862 
40120000    1.0237431  -0.20743517      1728000     3300.524       200600       145900 
40130000   0.94047558  -0.21722687      1728000    3301.3489       200650       145937 
40140000    1.0293328  -0.21966509      1728000    3302.1669       200700       145970 
40150000    1.0284263  -0.22831943      1728000     3302.985       200750       146012 
40160000   0.99021249   -0.2129317      1728000    3303.8141       200800       146046 
40170000    1.0603622  -0.21442026      1728000     3304.619       200850       146080 
40180000    1.0433103  -0.21429732      1728000     3305.418       200900       146116 
40190000   0.95813283  -0.21683373      1728000    3306.2351       200950       146152 
40200000   0.97708984  -0.21902626      1728000     3307.084       201000       146189 
40210000    1.0279712  -0.19794474      1728000    3307.8923       201050       146226 
40220000   0.99721624  -0.21817836      1728000     3308.705       201100       146259 
40230000    0.9697858  -0.21968663      1728000    3309.5285       201150       146293 
40240000    1.0075819  -0.22456923      1728000    3310.3489       201200       146322 
40250000   0.96591193  -0.21196293      1728000    3311.1453       201250       146353 
40260000   0.94267117  -0.21845415      1728000    3311.9451       201300       146389 
40270000   0.99990152  -0.19779157      1728000    3312.7409       201350       146423 
40280000    1.0346678  -0.19472655      1728000    3313.5519       201400       146459 
40290000    1.0045355  -0.18515397      1728000    3314.3647       201450       146493 
40300000   0.99910527  -0.22154341      1728000    3315.1849       201500       146527 
40310000   0.99733768  -0.20578943      1728000    3315.9839       201550       146566 
40320000    1.0181622  -0.20077018      1728000    3316.8027       201600       146603 
40330000    1.0011057  -0.19991074      1728000     3317.651       201650       146643 
40340000   0.99376925  -0.19480967      1728000     3318.474       201700       146679 
40350000   0.91663477   -0.2144874      1728000      3319.28       201750       146712 
40360000    1.0590192  -0.20479888      1728000    3320.0859       201800       146753 
40370000   0.97198432  -0.21447259      1728000    3320.9256       201850       146789 
40380000    1.0343122  -0.21020393      1728000     3321.719       201900       146826 
40390000   0.99577125  -0.22240054      1728000    3322.5252       201950       146861 
40400000    1.0275746  -0.21837489      1728000      3323.35       202000       146899 
40410000   0.97395203  -0.22219258      1728000    3324.2092       202050       146936 
40420000    1.0068247   -0.2361497      1728000    3325.0336       202100       146972 
40430000    1.0039287  -0.24936409      1728000    3325.8538       202150       147005 
40440000    1.0537558  -0.24312242      1728000      3326.66       202200       147039 
40450000     1.041686  -0.23276356      1728000    3327.4611       202250       147082 
40460000    1.0321137  -0.23137187      1728000    3328.2901       202300       147118 
40470000   0.97606075  -0.24125584      1728000    3329.1355       202350       147148 
40480000   0.95382017  -0.22088281      1728000    3329.9657       202400       147183 
40490000    1.0114206  -0.24010785      1728000    3330.7859       202450       147217 
40500000    1.0419533  -0.22676738      1728000     3331.638       202500       147252 
40510000    1.0341961  -0.22829109      1728000    3332.4851       202550       147285 
40520000   0.99167736  -0.22486701      1728000    3333.3092       202600       147317 
40530000   0.98555098  -0.20761416      1728000    3334.1324       202650       147354 
40540000    1.0287818   -0.2150035      1728000    3334.9436       202700       147390 
40550000   0.94071734  -0.21690651      1728000    3335.7778       202750       147424 
40560000   0.99616708  -0.22721039      1728000    3336.5897       202800       147462 
40570000   0.97332908  -0.22176631      1728000    3337.4159       202850       147490 
40580000    1.0127836  -0.21335264      1728000    3338.2101       202900       147528 
40590000   0.98034126  -0.20550149      1728000    3339.0242       202950       147564 
40600000    1.0570781  -0.20242731      1728000    3339.8384       203000       147599 
40610000    1.0051455  -0.20924743      1728000    3340.6775       203050       147636 
40620000    1.0234609   -0.2033235      1728000    3341.5057       203100       147674 
40630000    1.0552434  -0.18854854      1728000    3342.3388       203150       147708 
40640000    1.0238198  -0.20385153      1728000     3343.146       203200       147741 
40650000    1.0396116  -0.19744863      1728000    3343.9912       203250       147784 
40660000   0.97666155  -0.20573199      1728000    3344.8272       203300       147815 
40670000   0.99648129  -0.21257242      1728000    3345.6533       203350       147861 
40680000    1.0267981  -0.20173583      1728000    3346.4814       203400       147896 
40690000     1.018703  -0.21707453      1728000     3347.296       203450       147934 
40700000    1.0968853  -0.20254719      1728000    3348.1812       203500       147974 
40710000    1.0251536  -0.20563097      1728000    3349.0054       203550       148009 
40720000   0.97011977   -0.1968932      1728000    3349.8875       203600       148038 
40730000     1.010054  -0.19668018      1728000    3350.7018       203650       148074 
40740000    1.0273482  -0.20040001      1728000    3351.5629       203700       148108 
40750000    1.0094151  -0.18772196      1728000    3352.3769       203750       148148 
40760000    1.0035964  -0.20815894      1728000    3353.1888       203800       148184 
40770000     1.002536  -0.18518101      1728000    3354.1094       203850       148216 
40780000    1.0033545  -0.18458444      1728000    3354.9855       203900       148250 
40790000   0.99498487  -0.19800797      1728000    3355.8326       203950       148286 
40800000    1.0264093   -0.1993601      1728000    3356.6669       204000       148321 
40810000     1.018802  -0.19278214      1728000    3357.4718       204050       148359 
40820000    1.0119244  -0.19258723      1728000    3358.2738       204100       148399 
40830000     1.032736  -0.20015438      1728000    3359.0709       204150       148436 
40840000    1.0134338  -0.20714218      1728000    3359.9439       204200       148474 
40850000   0.98674744  -0.21102278      1728000    3360.8568       204250       148511 
40860000    1.0835897  -0.21440292      1728000    3361.7098       204300       148542 
40870000   0.99293098  -0.19517874      1728000    3362.6387       204350       148580 
40880000    1.0088714  -0.19772313      1728000    3363.5297       204400       148617 
40890000    1.0104255  -0.21445395      1728000    3364.3442       204450       148655 
40900000   0.99591879  -0.22210852      1728000    3365.1708       204500       148695 
40910000    1.0087602  -0.22232715      1728000    3365.9858       204550       148722 
40920000    1.0261198  -0.23972252      1728000    3366.7967       204600       148754 
40930000   0.97844133  -0.22706018      1728000    3367.6289       204650       148789 
40940000    1.0297833  -0.21961128      1728000    3368.4599       204700       148823 
40950000    1.0596138  -0.21395304      1728000     3369.284       204750       148862 
40960000   0.91740648  -0.21035991      1728000    3370.1008       204800       148903 
40970000   0.98264082  -0.21552148      1728000    3370.9441       204850       148938 
40980000   0.99215766  -0.20269708      1728000    3371.7449       204900       148977 
40990000   0.96883552  -0.21407497      1728000    3372.6467       204950       149012 
41000000   0.97947708  -0.21408021      1728000    3373.4677       205000       149045 
41010000   0.98646727  -0.19684095      1728000    3374.2899       205050       149076 
41020000     0.996342  -0.19880973      1728000      3375.14       205100       149112 
41030000   0.99267004  -0.19763157      1728000    3375.9939       205150       149149 
41040000   0.99318467  -0.20120371      1728000    3376.8239       205200       149186 
41050000   0.98254488  -0.22018333      1728000    3377.6499       205250       149227 
41060000   0.94687963  -0.22259784      1728000    3378.4999       205300       149264 
41070000     1.018229  -0.21901082      1728000    3379.3198       205350       149302 
41080000   0.90757571  -0.23277985      1728000    3380.1309       205400       149340 
41090000   0.98861873  -0.23686966      1728000    3380.9469       205450       149374 
41100000    1.0462488  -0.23580051      1728000    3381.7638       205500       149407 
41110000   0.97113296  -0.22437282      1728000    3382.5689       205550       149444 
41120000    1.0216003  -0.20778816      1728000    3383.3963       205600       149484 
41130000    1.0370785   -0.2141591      1728000    3384.2059       205650       149524 
41140000   0.98569106  -0.21766967      1728000    3385.0317       205700       149562 
41150000     1.026961  -0.20795924      1728000    3385.8419       205750       149598 
41160000   0.98325975   -0.2126896      1728000    3386.6528       205800       149642 
41170000    0.9581521  -0.18942554      1728000    3387.4698       205850       149679 
41180000    1.0063469  -0.18924857      1728000    3388.3219       205900       149717 
41190000    1.0413599  -0.18237788      1728000    3389.1528       205950       149748 
41200000   0.98685856  -0.19053509      1728000    3389.9769       206000       149783 
41210000   0.95426451  -0.18114954      1728000     3390.794       206050       149824 
41220000    0.9783254  -0.19919516      1728000    3391.5959       206100       149863 
41230000   0.97801202  -0.19609623      1728000    3392.4447       206150       149901 
41240000    1.0097468  -0.19485054      1728000    3393.2898       206200       149938 
41250000    1.0640721  -0.18578693      1728000    3394.0956       206250       149974 
41260000    1.0021541  -0.20146311      1728000    3394.9153       206300       150012 
41270000   0.97314281  -0.18801422      1728000    3395.7208       206350       150045 
41280000   0.97536384  -0.19738229      1728000     3396.537       206400       150087 
41290000   0.98175766  -0.19005072      1728000    3397.3621       206450       150120 
41300000   0.94659299  -0.21230488      1728000    3398.1785       206500       150153 
41310000    1.0451618  -0.22442518      1728000    3399.0177       206550       150189 
41320000    1.0516921  -0.20648908      1728000    3399.8248       206600       150230 
41330000   0.95082096  -0.18921301      1728000    3400.6308       206650       150266 
41340000    0.9218103   -0.2027845      1728000    3401.4417       206700       150294 
41350000    1.0939045  -0.19075269      1728000    3402.2558       206750       150325 
41360000    1.0454208  -0.19613541      1728000     3403.132       206800       150363 
41370000    1.0411882  -0.19641673      1728000    3403.9518       206850       150404 
41380000   0.94662566  -0.21409099      1728000    3404.7768       206900       150438 
41390000    1.0743414  -0.20749669      1728000    3405.5818       206950       150476 
41400000   0.94661955  -0.21075371      1728000    3406.4487       207000       150511 
41410000   0.92424861  -0.20282977      1728000    3407.2668       207050       150545 
41420000    1.0373237  -0.19831838      1728000    3408.0628       207100       150580 
41430000    1.0063733  -0.19511142      1728000    3408.8627       207150       150618 
41440000    1.0737186  -0.19641877      1728000    3409.8018       207200       150657 
41450000    1.0389801  -0.18697268      1728000    3410.6096       207250       150694 
41460000   0.98718588  -0.20292383      1728000    3411.5729       207300       150726 
41470000    1.0227022  -0.19718662      1728000    3412.3944       207350       150762 
41480000   0.94680501  -0.18976214      1728000    3413.2835       207400       150800 
41490000    1.0121369  -0.20049831      1728000    3414.1328       207450       150839 
41500000    1.0035232   -0.1922473      1728000     3414.983       207500       150876 
41510000     1.018687  -0.19075389      1728000     3415.903       207550       150920 
41520000    1.0113677  -0.19451904      1728000     3416.898       207600       150961 
41530000    1.0251705  -0.18146714      1728000    3417.7481       207650       150995 
41540000    1.0364344  -0.18927869      1728000    3418.5703       207700       151030 
41550000     1.010504  -0.17998956      1728000    3419.3815       207750       151065 
41560000   0.98525192  -0.16767657      1728000    3420.1926       207800       151095 
41570000    1.0400218  -0.18762343      1728000    3421.0468       207850       151134 
41580000    1.0601453  -0.19312417      1728000    3421.8568       207900       151169 
41590000   0.98500053  -0.19951479      1728000     3422.691       207950       151203 
41600000    1.0365991   -0.1975661      1728000    3423.5262       208000       151242 
41610000    1.0214738  -0.19429846      1728000    3424.3316       208050       151278 
41620000     1.047844  -0.20237224      1728000    3425.1398       208100       151310 
41630000   0.93191428  -0.21295917      1728000    3425.9769       208150       151345 
41640000   0.99390961  -0.22037022      1728000    3426.7991       208200       151376 
41650000   0.96880946  -0.19529702      1728000    3427.6323       208250       151407 
41660000    1.0277171  -0.21610864      1728000    3428.4405       208300       151446 
41670000   0.97154844  -0.21730018      1728000    3429.2483       208350       151482 
41680000   0.98924577  -0.23050255      1728000    3430.0579       208400       151517 
41690000   0.98813764  -0.20824253      1728000    3430.8589       208450       151553 
41700000    1.0117682  -0.21158493      1728000    3431.6664       208500       151588 
41710000    1.0434466  -0.20309969      1728000    3432.4856       208550       151625 
41720000   0.93551552  -0.21176259      1728000     3433.284       208600       151656 
41730000    1.0200289  -0.21335134      1728000    3434.0949       208650       151690 
41740000    1.0217946  -0.21491991      1728000    3434.9358       208700       151718 
41750000    1.0553808  -0.20810453      1728000    3435.7399       208750       151757 
41760000   0.99062096  -0.22826245      1728000    3436.5338       208800       151790 
41770000    1.0361277  -0.24542382      1728000    3437.3275       208850       151820 
41780000   0.92037079  -0.25373276      1728000    3438.1228       208900       151859 
41790000   0.99981278  -0.22521118      1728000    3438.9285       208950       151892 
41800000     1.060764  -0.22559209      1728000    3439.7548       209000       151927 
41810000    1.0176016  -0.23035114      1728000    3440.6136       209050       151961 
41820000   0.97984603  -0.21445823      1728000    3441.4258       209100       151998 
41830000   0.97121933  -0.20662733      1728000    3442.2149       209150       152031 
41840000    1.0175464  -0.20640091      1728000    3443.0337       209200       152064 
41850000    1.0396434  -0.20958977      1728000     3443.848       209250       152093 
41860000     1.049919  -0.19526776      1728000     3444.667       209300       152131 
41870000   0.99261118  -0.20155123      1728000    3445.4609       209350       152168 
41880000    1.0391342  -0.21060105      1728000    3446.2557       209400       152201 
41890000   0.98031318  -0.20196545      1728000    3447.0699       209450       152240 
41900000    0.9619848  -0.21217396      1728000    3447.8867       209500       152273 
41910000    1.0146141  -0.20183107      1728000    3448.6819       209550       152311 
41920000   0.95704147  -0.20457759      1728000    3449.5329       209600       152346 
41930000    1.0602522  -0.20431266      1728000     3450.325       209650       152386 
41940000   0.94029633  -0.20390815      1728000    3451.1149       209700       152426 
41950000    1.0479705  -0.19909015      1728000    3451.9108       209750       152461 
41960000    0.9632753  -0.19560109      1728000    3452.7378       209800       152494 
41970000   0.96329934  -0.21245501      1728000    3453.5448       209850       152532 
41980000   0.99180083  -0.21382815      1728000    3454.3588       209900       152566 
41990000    1.0553458  -0.21978641      1728000    3455.1588       209950       152601 
42000000    1.0509919  -0.21382045      1728000     3455.985       210000       152637 
42010000   0.99611012  -0.22372279      1728000    3456.7798       210050       152675 
42020000   0.93939737  -0.21497035      1728000    3457.5778       210100       152713 
42030000   0.99924774  -0.22539796      1728000    3458.3959       210150       152750 
42040000     1.004912  -0.21973922      1728000    3459.2008       210200       152788 
42050000   0.96024982  -0.20079673      1728000    3460.0028       210250       152821 
42060000    1.0232055   -0.1901265      1728000    3460.8169       210300       152860 
42070000   0.96385012  -0.19807179      1728000    3461.6129       210350       152898 
42080000   0.99004064  -0.18780994      1728000    3462.4688       210400       152936 
42090000     1.055995  -0.19657419      1728000    3463.3037       210450       152972 
42100000     1.010241  -0.20037011      1728000     3464.143       210500       153010 
42110000   0.96004586  -0.19472004      1728000    3464.9991       210550       153046 
42120000   0.97518427  -0.19449981      1728000    3465.7963       210600       153084 
42130000   0.96137308  -0.18977408      1728000    3466.5971       210650       153114 
42140000    1.0106235  -0.18286477      1728000    3467.3861       210700       153148 
42150000   0.96122485   -0.1942021      1728000      3468.18       210750       153183 
42160000   0.97996382  -0.21121063      1728000    3469.0071       210800       153223 
42170000    1.0308789  -0.19137528      1728000    3469.8107       210850       153262 
42180000    1.0359551  -0.18916991      1728000    3470.6159       210900       153296 
42190000   0.94990881  -0.17628832      1728000    3471.4041       210950       153330 
42200000    1.0139242  -0.16400121      1728000    3472.2046       211000       153371 
42210000   0.99190083  -0.17819669      1728000    3473.0161       211050       153410 
42220000    1.0042915  -0.18467053      1728000    3473.8158       211100       153445 
42230000   0.98967288  -0.17665012      1728000     3474.637       211150       153488 
42240000   0.97686247  -0.17368141      1728000    3475.4282       211200       153526 
42250000   0.99488633  -0.17925586      1728000    3476.2257       211250       153566 
42260000    0.9749107  -0.19713782      1728000    3477.0497       211300       153606 
42270000    1.0014468   -0.1984445      1728000    3477.8587       211350       153644 
42280000   0.96792969  -0.18653844      1728000    3478.6597       211400       153675 
42290000   0.98545574  -0.18692528      1728000    3479.4738       211450       153713 
42300000    0.9389598  -0.18022615      1728000    3480.3537       211500       153749 
42310000   0.95111677  -0.19246745      1728000    3481.1986       211550       153782 
42320000    1.0092943  -0.17374051      1728000    3481.9907       211600       153813 
42330000   0.95758939  -0.19605836      1728000    3482.8128       211650       153855 
42340000   0.98886152  -0.20419154      1728000    3483.6238       211700       153896 
42350000    1.0090328   -0.2107177      1728000     3484.435       211750       153933 
42360000     1.016168  -0.20962099      1728000    3485.2506       211800       153970 
42370000    1.0299098  -0.19278191      1728000    3486.0598       211850       154006 
42380000   0.99274554  -0.20603236      1728000    3486.8669       211900       154043 
42390000   0.98533254  -0.20900121      1728000    3487.6807       211950       154079 
42400000    1.0286682  -0.21645784      1728000    3488.5125       212000       154116 
42410000   0.97442923  -0.19798936      1728000    3489.3347       212050       154157 
42420000    1.0044421  -0.19438336      1728000    3490.1479       212100       154196 
42430000    1.0504151  -0.19589536      1728000     3490.979       212150       154234 
42440000   0.97732664  -0.20259527      1728000    3491.7902       212200       154276 
42450000   0.93239548  -0.20172023      1728000    3492.6133       212250       154309 
42460000     0.986116  -0.20714261      1728000    3493.4317       212300       154348 
42470000   0.93338558  -0.19928133      1728000    3494.2907       212350       154390 
42480000   0.95525919  -0.19052108      1728000    3495.0975       212400       154430 
42490000   0.98397182  -0.19981904      1728000     3495.901       212450       154460 
42500000   0.94202403  -0.18940706      1728000    3496.7411       212500       154497 
42510000   0.94388001  -0.19576422      1728000    3497.5353       212550       154538 
42520000   0.98770333  -0.19724471      1728000    3498.3316       212600       154571 
42530000   0.91778042   -0.1948517      1728000     3499.135       212650       154614 
42540000   0.98733522   -0.2074348      1728000    3499.9851       212700       154654 
42550000    1.0266111  -0.21250234      1728000    3500.8656       212750       154688 
42560000    1.0007409  -0.20938976      1728000    3501.7018       212800       154721 
42570000   0.98122367  -0.21415592      1728000    3502.5302       212850       154760 
42580000   0.98675287  -0.21567075      1728000    3503.3396       212900       154795 
42590000    1.0022971   -0.2108586      1728000    3504.1368       212950       154831 
42600000   0.97947319  -0.21986238      1728000    3504.9465       213000       154866 
42610000    1.0058991   -0.2244112      1728000    3505.7737       213050       154898 
42620000    1.0393022   -0.2123537      1728000    3506.5776       213100       154936 
42630000    1.0910374  -0.19470984      1728000    3507.3877       213150       154978 
42640000    1.0177794  -0.18435779      1728000    3508.1848       213200       155016 
42650000    1.0203994  -0.20611543      1728000    3508.9817       213250       155052 
42660000    0.9941661  -0.20345919      1728000    3509.7837       213300       155086 
42670000   0.98354753  -0.20802092      1728000    3510.6184       213350       155120 
42680000    1.0239371  -0.19869417      1728000    3511.4097       213400       155161 
42690000    1.0049951  -0.18920208      1728000    3512.2008       213450       155194 
42700000    1.0553736  -0.20182189      1728000    3513.0157       213500       155233 
42710000    1.0134555  -0.20202407      1728000    3513.8596       213550       155271 
42720000    0.9925006  -0.18414983      1728000    3514.6597       213600       155305 
42730000    1.0255456  -0.20126678      1728000    3515.4477       213650       155339 
42740000     1.019595  -0.20197412      1728000    3516.2466       213700       155371 
42750000   0.95524005  -0.18660043      1728000    3517.0606       213750       155409 
42760000    1.0141348  -0.18682111      1728000    3517.8736       213800       155450 
42770000    1.0016772  -0.19434645      1728000    3518.6718       213850       155488 
42780000    1.0239248  -0.17955569      1728000    3519.4627       213900       155524 
42790000   0.99090377  -0.18518993      1728000    3520.2676       213950       155560 
42800000   0.98433593  -0.18573679      1728000    3521.0826       214000       155600 
42810000    1.0371329  -0.17223858      1728000    3521.9246       214050       155636 
42820000    1.0307281  -0.19219847      1728000    3522.7478       214100       155671 
42830000   0.99848992   -0.1894984      1728000    3523.5647       214150       155712 
42840000   0.96399575  -0.19948156      1728000    3524.3955       214200       155748 
42850000   0.99928067   -0.2113373      1728000    3525.2398       214250       155783 
42860000   0.99852252  -0.21484646      1728000    3526.0542       214300       155817 
42870000    1.0272071  -0.21004726      1728000    3526.8647       214350       155854 
42880000   0.97229993  -0.18784528      1728000    3527.6747       214400       155885 
42890000   0.99430066  -0.18742726      1728000    3528.5219       214450       155921 
42900000   0.98818035  -0.18754132      1728000     3529.404       214500       155959 
42910000    1.0499072  -0.18983607      1728000    3530.2126       214550       155997 
42920000   0.98589049  -0.20150222      1728000    3531.0278       214600       156035 
42930000   0.99862979  -0.19012573      1728000     3531.844       214650       156068 
42940000     1.073403  -0.20576859      1728000    3532.6397       214700       156109 
42950000   0.95307037  -0.20122619      1728000     3533.447       214750       156145 
42960000    1.0264027  -0.19136509      1728000    3534.2407       214800       156182 
42970000   0.97999128  -0.19117418      1728000    3535.0378       214850       156213 
42980000    1.0239318  -0.20347698      1728000    3535.8446       214900       156250 
42990000    1.0204942  -0.18442927      1728000    3536.6445       214950       156285 
43000000   0.98902097  -0.18506702      1728000    3537.4848       215000       156318 
43010000    1.0206586  -0.18006385      1728000    3538.3057       215050       156358 
43020000    1.0117891  -0.17236769      1728000    3539.1069       215100       156391 
43030000    1.0450905  -0.17452976      1728000    3539.9116       215150       156427 
43040000   0.96522981  -0.17857899      1728000    3540.7568       215200       156462 
43050000   0.98199568  -0.18858103      1728000    3541.5837       215250       156500 
43060000   0.98404547  -0.19636758      1728000    3542.4407       215300       156536 
43070000    1.0881108  -0.18842502      1728000    3543.2608       215350       156574 
43080000    1.0714475  -0.18564188      1728000    3544.0856       215400       156609 
43090000   0.96662563  -0.18010359      1728000    3544.8997       215450       156643 
43100000    1.0126303  -0.16840768      1728000    3545.7348       215500       156681 
43110000   0.97463032  -0.17493275      1728000    3546.5427       215550       156723 
43120000    1.0552705   -0.1588318      1728000    3547.3398       215600       156761 
43130000   0.99753868  -0.16941024      1728000    3548.1706       215650       156806 
43140000    1.0350256  -0.16975652      1728000    3548.9896       215700       156846 
43150000    1.0634713  -0.17278665      1728000    3549.8346       215750       156887 
43160000   0.99049779  -0.17664998      1728000    3550.6497       215800       156924 
43170000   0.97980166  -0.19803348      1728000    3551.4716       215850       156961 
43180000    1.0320478  -0.19123222      1728000    3552.3035       215900       157001 
43190000    1.0071484  -0.19367873      1728000    3553.0955       215950       157038 
43200000    1.0798758  -0.18672094      1728000    3553.9445       216000       157077 
43210000    1.0351468  -0.18833227      1728000    3554.7816       216050       157115 
43220000    1.0627265  -0.18776233      1728000    3555.6527       216100       157150 
43230000   0.97878533  -0.19589027      1728000    3556.5106       216150       157185 
43240000    1.0326814  -0.19998965      1728000    3557.3215       216200       157226 
43250000    1.0483977  -0.22096933      1728000    3558.1595       216250       157265 
43260000    1.0722477  -0.22598278      1728000    3558.9872       216300       157302 
43270000    1.0299267  -0.22959124      1728000    3559.8219       216350       157340 
43280000   0.98844247  -0.23332527      1728000     3560.664       216400       157373 
43290000   0.95050582  -0.22193834      1728000    3561.4805       216450       157409 
43300000    1.0750248  -0.21868814      1728000    3562.3564       216500       157449 
43310000    1.0428055   -0.2334261      1728000    3563.2588       216550       157477 
43320000    1.0394332  -0.21806109      1728000     3564.064       216600       157509 
43330000     1.007792  -0.21872621      1728000     3564.871       216650       157544 
43340000    1.0230328  -0.21847275      1728000    3565.6738       216700       157577 
43350000    1.0975243  -0.21700078      1728000    3566.4639       216750       157615 
43360000    1.0368896  -0.20798442      1728000    3567.2775       216800       157649 
43370000    1.0411066  -0.21423827      1728000    3568.1017       216850       157686 
43380000    1.0466044  -0.20415716      1728000    3568.9448       216900       157724 
43390000   0.98648858   -0.2216272      1728000    3569.7865       216950       157763 
43400000    1.0331107  -0.21749669      1728000    3570.6317       217000       157798 
43410000   0.99698176  -0.20312343      1728000    3571.4647       217050       157830 
43420000   0.98748611   -0.2039705      1728000     3572.291       217100       157862 
43430000   0.96583278  -0.21108418      1728000    3573.1122       217150       157900 
43440000    1.0148697  -0.20745165      1728000    3573.9463       217200       157937 
43450000      0.94332   -0.2247728      1728000    3574.7825       217250       157979 
43460000   0.94495029  -0.22791371      1728000    3575.5717       217300       158014 
43470000     1.090985  -0.21037662      1728000    3576.3717       217350       158048 
43480000   0.98967248  -0.22268669      1728000    3577.1704       217400       158082 
43490000    0.9383332  -0.22886662      1728000    3577.9846       217450       158120 
43500000   0.91845036  -0.22268565      1728000    3578.7877       217500       158156 
43510000   0.96709336  -0.22482636      1728000    3579.5928       217550       158187 
43520000    1.0526346  -0.23975648      1728000    3580.3895       217600       158224 
43530000    1.0072968  -0.23482448      1728000    3581.1946       217650       158257 
43540000    1.0228527  -0.22999672      1728000    3582.0064       217700       158289 
43550000   0.93674071  -0.22885945      1728000    3582.8173       217750       158330 
43560000   0.99673928  -0.21532504      1728000    3583.6441       217800       158367 
43570000    1.0816021  -0.22903712      1728000    3584.4882       217850       158403 
43580000   0.96260751  -0.22536983      1728000    3585.3607       217900       158442 
43590000    1.0080744  -0.20890435      1728000    3586.2105       217950       158483 
43600000   0.93337238  -0.20791983      1728000    3587.0976       218000       158517 
43610000   0.97908224  -0.22991874      1728000    3587.9137       218050       158551 
43620000    1.0236242  -0.20121882      1728000    3588.7268       218100       158585 
43630000      1.02144  -0.20130298      1728000    3589.6009       218150       158615 
43640000    1.0356176  -0.23700448      1728000    3590.3995       218200       158647 
43650000    0.9842515  -0.21494231      1728000    3591.2073       218250       158680 
43660000   0.98322977   -0.2215941      1728000    3592.0326       218300       158718 
43670000   0.96787863  -0.21653067      1728000    3592.8547       218350       158754 
43680000    1.0405184  -0.19704149      1728000    3593.6752       218400       158788 
43690000   0.99990421  -0.20824272      1728000    3594.4844       218450       158821 
43700000    1.0910183  -0.20719699      1728000    3595.3747       218500       158854 
43710000    1.0291826   -0.2021098      1728000    3596.1778       218550       158891 
43720000    1.0139006  -0.20907409      1728000    3596.9836       218600       158926 
43730000   0.98834154  -0.21325227      1728000    3597.8224       218650       158959 
43740000   0.97083164    -0.209658      1728000    3598.6434       218700       158999 
43750000   0.97479118  -0.21801606      1728000    3599.4582       218750       159039 
43760000     1.005046  -0.22278118      1728000    3600.2606       218800       159074 
43770000   0.99825506  -0.20062303      1728000    3601.1607       218850       159109 
43780000    1.0102859  -0.21787734      1728000    3602.0124       218900       159148 
43790000   0.94714512  -0.21238055      1728000    3602.8447       218950       159184 
43800000    1.0127183  -0.22382652      1728000    3603.7645       219000       159220 
43810000    1.0602342  -0.23612722      1728000    3604.7001       219050       159253 
43820000    1.0390627  -0.23797692      1728000    3605.6032       219100       159283 
43830000    1.0462487  -0.20747362      1728000    3606.5962       219150       159315 
43840000     1.005893  -0.21495414      1728000    3607.5063       219200       159347 
43850000   0.99869231    -0.219811      1728000    3608.4793       219250       159382 
43860000   0.98151596  -0.20026457      1728000    3609.4373       219300       159420 
43870000    1.0966388  -0.21195724      1728000    3610.3853       219350       159459 
43880000    0.9970191  -0.21062478      1728000    3611.2844       219400       159496 
43890000   0.99812808   -0.2034995      1728000    3612.1575       219450       159533 
43900000   0.99144396  -0.19868922      1728000    3613.0066       219500       159571 
43910000    1.0235323  -0.18904485      1728000    3613.8897       219550       159612 
43920000   0.93496134  -0.19597108      1728000    3614.7439       219600       159650 
43930000   0.99348442    -0.175421      1728000    3615.6423       219650       159687 
43940000    1.0363406  -0.17650583      1728000    3616.4665       219700       159722 
43950000    1.0375224  -0.17072408      1728000    3617.2591       219750       159756 
43960000    1.0465439  -0.16998638      1728000    3618.0457       219800       159799 
43970000   0.99716027  -0.16337571      1728000    3618.8569       219850       159830 
43980000     1.031082  -0.17446823      1728000    3619.6911       219900       159866 
43990000   0.98335456   -0.1862069      1728000    3620.5049       219950       159904 
44000000    1.0473772   -0.1885766      1728000    3621.3985       220000       159937 
44010000    1.0330833  -0.18511005      1728000     3622.252       220050       159978 
44020000    1.0053275  -0.18288352      1728000    3623.0984       220100       160015 
44030000    1.0388461  -0.19677694      1728000    3623.8997       220150       160049 
44040000    1.0205573    -0.190465      1728000     3624.731       220200       160087 
44050000    1.0394054  -0.18715354      1728000    3625.5631       220250       160124 
44060000    1.0349302  -0.18576843      1728000    3626.3794       220300       160162 
44070000   0.95713862  -0.17779746      1728000    3627.2106       220350       160196 
44080000   0.96526039  -0.19868087      1728000    3628.0527       220400       160233 
44090000    1.0116983  -0.19104964      1728000    3628.9139       220450       160270 
44100000    1.1566081  -0.19707676      1728000    3629.7393       220500       160306 
44110000   0.96506021  -0.18152332      1728000    3630.5615       220550       160340 
44120000    1.0014744  -0.18002387      1728000    3631.3918       220600       160374 
44130000    0.9982657  -0.18464551      1728000     3632.214       220650       160412 
44140000    1.0307986  -0.18594327      1728000    3633.0155       220700       160455 
44150000    1.0058535  -0.19498928      1728000    3633.8685       220750       160487 
44160000    0.9870673  -0.20177184      1728000    3634.7329       220800       160521 
44170000   0.97637278  -0.20438009      1728000    3635.5374       220850       160558 
44180000   0.98085934  -0.18774696      1728000    3636.3559       220900       160596 
44190000    1.0117823  -0.19335541      1728000    3637.1635       220950       160629 
44200000    1.0169417  -0.19440645      1728000    3637.9986       221000       160667 
44210000    1.0346721   -0.1927424      1728000    3638.7994       221050       160704 
44220000   0.97415479  -0.20478723      1728000    3639.6047       221100       160738 
44230000    1.0226283  -0.20666325      1728000    3640.4227       221150       160776 
44240000   0.98414389  -0.20757711      1728000    3641.2645       221200       160815 
44250000   0.98903121   -0.2131514      1728000    3642.0864       221250       160852 
44260000    1.0617859  -0.20494722      1728000    3642.9064       221300       160888 
44270000   0.99938282  -0.20654917      1728000    3643.7304       221350       160923 
44280000    1.0171982  -0.20898056      1728000    3644.5436       221400       160954 
44290000    1.0013159  -0.21388057      1728000    3645.3624       221450       160992 
44300000    0.9789938  -0.19485479      1728000    3646.1811       221500       161029 
44310000   0.98735794  -0.20906891      1728000    3647.0053       221550       161067 
44320000   0.98187701  -0.21402114      1728000    3647.8157       221600       161104 
44330000    1.0315851  -0.19732888      1728000    3648.6322       221650       161142 
44340000     1.020714  -0.20013876      1728000    3649.4274       221700       161180 
44350000   0.96591993  -0.21833758      1728000    3650.2249       221750       161213 
44360000    1.0592265  -0.19236923      1728000    3651.0247       221800       161251 
44370000    1.0258139  -0.20014028      1728000    3651.8282       221850       161288 
44380000   0.99877889   -0.1830282      1728000    3652.6275       221900       161327 
44390000    1.0468278  -0.17345645      1728000    3653.4686       221950       161368 
44400000    1.0397025  -0.18254115      1728000    3654.2969       222000       161397 
44410000    1.0699258  -0.18416588      1728000    3655.1841       222050       161433 
44420000    1.0198217  -0.18206345      1728000    3656.0104       222100       161473 
44430000    1.0176387    -0.183166      1728000    3656.8315       222150       161511 
44440000   0.93933967  -0.17883592      1728000    3657.6636       222200       161550 
44450000   0.99186401  -0.17778948      1728000    3658.4671       222250       161588 
44460000   0.98485777  -0.17568036      1728000    3659.3272       222300       161628 
44470000   0.94803631  -0.18141434      1728000    3660.1924       222350       161660 
44480000    1.0137065  -0.18736162      1728000    3661.0545       222400       161698 
44490000    1.0046752   -0.1881608      1728000    3661.8627       222450       161733 
44500000     1.040799  -0.18511235      1728000    3662.7071       222500       161769 
44510000   0.96948755  -0.19456808      1728000    3663.5322       222550       161805 
44520000   0.95487454  -0.17835885      1728000    3664.3474       222600       161839 
44530000   0.96789722   -0.2024415      1728000    3665.1526       222650       161877 
44540000   0.99193762  -0.19719882      1728000    3665.9977       222700       161913 
44550000    1.0218734  -0.18742852      1728000    3666.8489       222750       161951 
44560000   0.95083601  -0.19183462      1728000    3667.6809       222800       161991 
44570000    1.0065712   -0.1941305      1728000    3668.5161       222850       162028 
44580000    1.0905877  -0.18722414      1728000    3669.3449       222900       162067 
44590000   0.97485523  -0.20492624      1728000     3670.169       222950       162107 
44600000   0.94795937  -0.20251176      1728000    3670.9884       223000       162140 
44610000     1.015329  -0.20420359      1728000    3671.7939       223050       162180 
44620000   0.98440924  -0.20911534      1728000     3672.617       223100       162220 
44630000     1.006691  -0.20744073      1728000    3673.4463       223150       162254 
44640000    1.0687308   -0.2171693      1728000    3674.3534       223200       162285 
44650000    0.9916214  -0.22101699      1728000    3675.1745       223250       162318 
44660000     1.029829  -0.21666162      1728000    3675.9992       223300       162354 
44670000   0.97628061  -0.21373308      1728000    3676.8297       223350       162392 
44680000    1.0187445  -0.19192733      1728000    3677.6304       223400       162434 
44690000    1.0110616  -0.19729114      1728000    3678.4417       223450       162472 
44700000     1.012336  -0.18724631      1728000    3679.2701       223500       162501 
44710000   0.99045632  -0.18759377      1728000    3680.0824       223550       162540 
44720000    1.0774462  -0.18630194      1728000    3680.8764       223600       162578 
44730000    1.0162412  -0.19018127      1728000    3681.7224       223650       162613 
44740000    1.0091191  -0.18465348      1728000    3682.5292       223700       162649 
44750000   0.94038179  -0.19306089      1728000    3683.3956       223750       162681 
44760000      1.01039  -0.20897817      1728000    3684.2184       223800       162720 
44770000    1.0072773  -0.21293495      1728000    3685.0583       223850       162758 
44780000    1.0170485  -0.20369249      1728000    3685.8825       223900       162795 
44790000   0.98298521  -0.20238218      1728000     3686.697       223950       162827 
44800000   0.98772897  -0.20763289      1728000    3687.5311       224000       162866 
44810000    1.0375597  -0.20670662      1728000    3688.3703       224050       162905 
44820000    0.9854714   -0.1915165      1728000    3689.1697       224100       162944 
44830000     1.054782  -0.18439776      1728000    3689.9655       224150       162984 
44840000   0.97335617  -0.18238034      1728000    3690.7835       224200       163018 
44850000    1.0276401  -0.18748042      1728000    3691.6073       224250       163055 
44860000   0.97755279  -0.19094827      1728000    3692.4334       224300       163090 
44870000   0.98324604  -0.18447304      1728000    3693.2345       224350       163127 
44880000   0.98963249  -0.16900762      1728000    3694.1196       224400       163170 
44890000    1.0117597  -0.16433066      1728000    3694.9426       224450       163208 
44900000     1.002338  -0.16349965      1728000    3695.7454       224500       163246 
44910000    1.0129623  -0.17742073      1728000    3696.5716       224550       163289 
44920000   0.98620103  -0.17489842      1728000    3697.3716       224600       163326 
44930000    1.0114831  -0.17785887      1728000    3698.1867       224650       163367 
44940000     1.005137  -0.16715707      1728000    3698.9924       224700       163410 
44950000   0.99181215  -0.15984947      1728000    3699.7954       224750       163446 
44960000   0.93438712  -0.16200303      1728000    3700.5899       224800       163486 
44970000    1.0170557  -0.17206273      1728000    3701.4093       224850       163525 
44980000    1.0584904  -0.17718116      1728000    3702.1997       224900       163566 
44990000     1.024488  -0.18319541      1728000    3703.0185       224950       163603 
45000000    1.0091076  -0.18802504      1728000    3703.8541       225000       163642 
45010000    1.0262441  -0.18803044      1728000    3704.6917       225050       163683 
45020000    1.0149028    -0.209245      1728000    3705.4938       225100       163722 
45030000   0.99894024  -0.19664946      1728000     3706.313       225150       163753 
45040000    1.0139973  -0.19921531      1728000    3707.1083       225200       163795 
45050000   0.96839081  -0.19209214      1728000    3707.9132       225250       163835 
45060000    1.0241009   -0.1964256      1728000    3708.7324       225300       163877 
45070000    1.0174472  -0.18075251      1728000    3709.5525       225350       163914 
45080000    1.0461764  -0.18635541      1728000    3710.3707       225400       163952 
45090000    1.0488883  -0.19662046      1728000     3711.222       225450       163989 
45100000    1.0258418  -0.20783354      1728000    3712.0762       225500       164027 
45110000    1.0384531  -0.20332896      1728000    3712.8994       225550       164062 
45120000   0.97368075  -0.22805969      1728000    3713.6975       225600       164094 
45130000    1.0145861  -0.22025852      1728000    3714.5906       225650       164127 
45140000   0.99913373  -0.20709266      1728000    3715.4218       225700       164162 
45150000    1.0515417  -0.19717541      1728000    3716.2404       225750       164199 
45160000    1.0465953  -0.19383768      1728000    3717.0433       225800       164237 
45170000   0.98814781   -0.1885465      1728000    3717.8694       225850       164280 
45180000   0.99768931  -0.19467675      1728000    3718.7615       225900       164323 
45190000    1.0439179  -0.17519231      1728000    3719.5966       225950       164357 
45200000    1.0451043   -0.1800223      1728000     3720.409       226000       164397 
45210000    1.0285176   -0.1675791      1728000    3721.2901       226050       164440 
45220000   0.91262804  -0.17699074      1728000    3722.1265       226100       164479 
45230000     1.008782  -0.20288479      1728000    3722.9727       226150       164514 
45240000    1.0421007  -0.19366045      1728000    3723.8228       226200       164555 
45250000    1.0126641  -0.19260902      1728000    3724.6282       226250       164588 
45260000   0.98617541  -0.19709961      1728000    3725.4715       226300       164627 
45270000   0.99693641  -0.20011049      1728000     3726.288       226350       164659 
45280000   0.98907479  -0.22532621      1728000    3727.0965       226400       164693 
45290000    1.0287923  -0.22991867      1728000    3727.9167       226450       164728 
45300000    1.0345821  -0.22856031      1728000     3728.758       226500       164764 
45310000   0.99204925  -0.22672312      1728000    3729.6001       226550       164802 
45320000     1.057242  -0.22901935      1728000    3730.4352       226600       164837 
45330000    0.9958176  -0.23507655      1728000    3731.3194       226650       164870 
45340000    1.0309151  -0.24125247      1728000    3732.1652       226700       164898 
45350000   0.97520762  -0.23360197      1728000    3732.9925       226750       164927 
45360000    1.0407102  -0.22504486      1728000    3733.7858       226800       164962 
45370000     1.028303  -0.24410896      1728000    3734.6005       226850       164986 
45380000    1.0839373  -0.22870865      1728000    3735.4089       226900       165024 
45390000    1.0087691  -0.22658347      1728000    3736.2331       226950       165057 
45400000   0.97489252  -0.21754505      1728000      3737.04       227000       165093 
45410000    1.0456512  -0.22825159      1728000    3737.8595       227050       165131 
45420000    1.0030531   -0.2198586      1728000    3738.6862       227100       165163 
45430000    1.0097839  -0.23092981      1728000    3739.5263       227150       165198 
45440000   0.99742238  -0.22979401      1728000    3740.3273       227200       165231 
45450000   0.98261881  -0.25149872      1728000    3741.1395       227250       165265 
45460000   0.91018731  -0.23248457      1728000    3741.9461       227300       165302 
45470000    1.0202901  -0.21281215      1728000    3742.7693       227350       165333 
45480000    1.0189761  -0.22265575      1728000    3743.6035       227400       165363 
45490000    1.0514808  -0.22293261      1728000    3744.4252       227450       165397 
45500000    1.0465014  -0.21531604      1728000     3745.235       227500       165435 
45510000    1.0643536  -0.20190106      1728000    3746.0433       227550       165473 
45520000    1.0056737  -0.21695573      1728000    3746.8428       227600       165507 
45530000    1.0023265  -0.20238926      1728000    3747.6465       227650       165542 
45540000    1.0807833  -0.21747343      1728000    3748.4563       227700       165580 
45550000    1.0452414   -0.2076393      1728000    3749.2683       227750       165617 
45560000   0.99025604   -0.2064662      1728000    3750.0645       227800       165658 
45570000    1.0030597  -0.20334787      1728000    3750.8552       227850       165698 
45580000    1.0002213  -0.19479814      1728000    3751.6533       227900       165733 
45590000   0.95833577  -0.19008034      1728000    3752.4431       227950       165771 
45600000    1.0351031  -0.17049498      1728000    3753.2953       228000       165809 
45610000    1.0105488  -0.17639063      1728000    3754.1465       228050       165849 
45620000   0.98764165  -0.15594495      1728000    3754.9604       228100       165885 
45630000   0.98947366   -0.1796956      1728000    3755.7984       228150       165919 
45640000    1.0914681  -0.18355051      1728000    3756.6041       228200       165956 
45650000    1.0208089  -0.19394129      1728000    3757.3925       228250       165990 
45660000    0.9827603   -0.2068472      1728000    3758.1963       228300       166028 
45670000   0.95820974  -0.20103412      1728000    3759.0434       228350       166060 
45680000    1.0192856  -0.22628416      1728000    3759.8423       228400       166094 
45690000   0.97551232  -0.20890766      1728000    3760.6412       228450       166127 
45700000    1.0625327   -0.2127408      1728000    3761.4464       228500       166168 
45710000    1.0015997  -0.21409792      1728000    3762.2765       228550       166205 
45720000   0.95448265  -0.20243574      1728000    3763.1326       228600       166241 
45730000    0.9708476  -0.19279583      1728000    3763.9877       228650       166282 
45740000    1.0139609  -0.18598764      1728000    3764.8159       228700       166319 
45750000    0.9811394  -0.19972992      1728000     3765.636       228750       166352 
45760000    1.0085599  -0.18310136      1728000    3766.4382       228800       166387 
45770000    1.0474005   -0.1987073      1728000    3767.2385       228850       166423 
45780000    1.0204727  -0.19091359      1728000    3768.0706       228900       166460 
45790000    1.0490886  -0.19789182      1728000    3768.8967       228950       166498 
45800000     1.030851  -0.19877717      1728000    3769.7329       229000       166533 
45810000       1.0183  -0.18028531      1728000    3770.5243       229050       166572 
45820000   0.99996207  -0.18503033      1728000     3771.356       229100       166607 
45830000    1.0481673  -0.17735575      1728000    3772.1582       229150       166641 
45840000    1.0382292  -0.18600835      1728000    3772.9783       229200       166679 
45850000    1.0237878  -0.17210085      1728000    3773.7775       229250       166715 
45860000    1.0101754  -0.17298083      1728000    3774.5604       229300       166752 
45870000    1.0058295   -0.1868805      1728000    3775.3607       229350       166786 
45880000   0.98260382  -0.19244891      1728000    3776.1456       229400       166825 
45890000   0.95363824  -0.19371958      1728000    3776.9342       229450       166862 
45900000   0.99908246  -0.18455958      1728000    3777.7511       229500       166898 
45910000    1.0001209  -0.18448517      1728000    3778.6723       229550       166937 
45920000   0.98597246  -0.18471326      1728000    3779.4772       229600       166973 
45930000   0.98322544  -0.20287634      1728000    3780.3106       229650       167011 
45940000    1.0487561   -0.2055598      1728000     3781.108       229700       167041 
45950000    0.8804381  -0.20978307      1728000    3781.8994       229750       167081 
45960000   0.96475744  -0.23100647      1728000    3782.7061       229800       167118 
45970000   0.96972217  -0.20804909      1728000    3783.5293       229850       167155 
45980000   0.97674881  -0.20341616      1728000    3784.3194       229900       167191 
45990000   0.97231708  -0.21748862      1728000    3785.1214       229950       167230 
46000000    1.0026819  -0.20620563      1728000    3785.9563       230000       167266 
46010000   0.97754495  -0.18809676      1728000    3786.8142       230050       167302 
46020000   0.96710077  -0.20399339      1728000    3787.6792       230100       167332 
46030000    1.0434811  -0.18871376      1728000     3788.516       230150       167371 
46040000     1.047276   -0.1951086      1728000    3789.3309       230200       167407 
46050000    1.0432687  -0.20121322      1728000    3790.1461       230250       167445 
46060000      1.04341  -0.21435109      1728000    3790.9872       230300       167485 
46070000    0.9899792  -0.19210103      1728000    3791.8306       230350       167525 
46080000    1.0361541  -0.18746252      1728000    3792.6186       230400       167561 
46090000    1.0365699  -0.18778138      1728000    3793.4306       230450       167593 
46100000   0.99651166  -0.18811118      1728000    3794.2478       230500       167631 
46110000   0.98753207  -0.19205012      1728000    3795.0679       230550       167675 
46120000   0.96682896  -0.18156465      1728000    3795.8661       230600       167720 
46130000   0.99640179  -0.18208768      1728000    3796.6773       230650       167759 
46140000    0.9689793  -0.17267806      1728000    3797.5115       230700       167799 
46150000    1.0144347  -0.19197012      1728000    3798.3389       230750       167831 
46160000     1.064845  -0.20496848      1728000    3799.1491       230800       167869 
46170000   0.98171383  -0.20681133      1728000    3799.9806       230850       167905 
46180000    1.0561589  -0.20259776      1728000    3800.7999       230900       167941 
46190000    1.0170167  -0.20546846      1728000    3801.6038       230950       167978 
46200000    1.0375554  -0.21794965      1728000    3802.4271       231000       168015 
46210000   0.99535603  -0.20145581      1728000    3803.3112       231050       168051 
46220000    1.0571501  -0.20360414      1728000    3804.1304       231100       168081 
46230000   0.98232831  -0.20907918      1728000    3804.9497       231150       168119 
46240000   0.98432911  -0.22315585      1728000    3805.7908       231200       168155 
46250000   0.96082979  -0.21360614      1728000     3806.598       231250       168193 
46260000    0.9734567   -0.1903358      1728000    3807.4503       231300       168228 
46270000      1.01757  -0.20816554      1728000    3808.2635       231350       168270 
46280000   0.95677191  -0.21176493      1728000    3809.0737       231400       168309 
46290000    1.0187799  -0.16632902      1728000    3809.8684       231450       168349 
46300000     1.061758  -0.17271035      1728000    3810.6696       231500       168387 
46310000   0.99898518  -0.18826633      1728000    3811.4978       231550       168421 
46320000   0.97490329  -0.18488055      1728000    3812.2877       231600       168458 
46330000    1.0082946  -0.18004296      1728000    3813.0863       231650       168499 
46340000   0.98036436  -0.18942551      1728000    3813.8841       231700       168538 
46350000    1.0130061    -0.188492      1728000    3814.6785       231750       168574 
46360000    1.0296619      -0.2026      1728000    3815.4854       231800       168613 
46370000   0.96580894  -0.19610755      1728000    3816.3054       231850       168647 
46380000    1.0944739  -0.20383439      1728000    3817.1042       231900       168680 
46390000   0.98028831  -0.21940718      1728000    3817.9053       231950       168712 
46400000   0.96314524  -0.21335427      1728000    3818.7543       232000       168743 
46410000    1.0564061  -0.19338505      1728000    3819.5802       232050       168778 
46420000    1.0882571  -0.19663628      1728000    3820.3743       232100       168817 
46430000   0.95036699  -0.21478835      1728000    3821.2102       232150       168854 
46440000    1.0653473  -0.24012125      1728000    3822.0141       232200       168889 
46450000    0.9809479  -0.23570442      1728000    3822.8364       232250       168925 
46460000   0.93533466  -0.23694629      1728000    3823.6845       232300       168959 
46470000    1.0015462  -0.23331414      1728000    3824.4933       232350       168991 
46480000    1.0109181  -0.25155347      1728000    3825.3305       232400       169023 
46490000    0.9767592  -0.24028184      1728000     3826.178       232450       169053 
46500000   0.97825351  -0.24867103      1728000    3827.0291       232500       169082 
46510000    1.0735012   -0.2500454      1728000    3827.8673       232550       169109 
46520000   0.91195466   -0.2215186      1728000    3828.7144       232600       169143 
46530000   0.91389696  -0.22268205      1728000    3829.5366       232650       169180 
46540000    1.0750538  -0.20925613      1728000    3830.3627       232700       169209 
46550000    1.0057942  -0.21766705      1728000    3831.2329       232750       169240 
46560000   0.99660755  -0.21428912      1728000    3832.0385       232800       169275 
46570000    1.0112832  -0.21277975      1728000    3832.8441       232850       169306 
46580000    1.0456843  -0.23002712      1728000    3833.6851       232900       169339 
46590000   0.98811085  -0.21997733      1728000    3834.4844       232950       169375 
46600000   0.93729765  -0.20271131      1728000     3835.296       233000       169414 
46610000     1.023047  -0.19367596      1728000    3836.0896       233050       169456 
46620000    1.0525893  -0.19006993      1728000    3836.9001       233100       169496 
46630000    1.0399326  -0.19979244      1728000    3837.7152       233150       169532 
46640000    0.9920224  -0.20621204      1728000    3838.5214       233200       169566 
46650000   0.99685662   -0.2037894      1728000    3839.3158       233250       169597 
46660000     1.028325  -0.20239133      1728000    3840.1272       233300       169633 
46670000   0.95955126  -0.20828947      1728000    3840.9426       233350       169667 
46680000   0.96014728  -0.22064226      1728000    3841.7462       233400       169703 
46690000    1.0112904  -0.21496622      1728000    3842.5941       233450       169739 
46700000    1.0074384  -0.22043042      1728000    3843.4032       233500       169778 
46710000   0.97091184  -0.22067396      1728000    3844.2124       233550       169811 
46720000    1.0727541  -0.20774165      1728000    3845.0113       233600       169847 
46730000    1.0014561  -0.21371267      1728000    3845.8051       233650       169882 
46740000    1.0537493  -0.21862528      1728000    3846.6643       233700       169926 
46750000    1.0300165  -0.22371826      1728000    3847.5064       233750       169954 
46760000    1.0327301  -0.21552965      1728000    3848.3051       233800       169995 
46770000    1.0394072  -0.21572298      1728000    3849.1129       233850       170026 
46780000    0.9552332  -0.20969398      1728000    3849.9325       233900       170058 
46790000   0.93992276  -0.21899373      1728000    3850.7697       233950       170092 
46800000   0.99776212  -0.22382277      1728000    3851.5939       234000       170128 
46810000    1.0592476  -0.21391932      1728000    3852.3901       234050       170168 
46820000    0.9961512   -0.2449839      1728000    3853.1971       234100       170205 
46830000    1.0273747  -0.24883647      1728000    3854.0253       234150       170240 
46840000    1.0636056  -0.23527215      1728000    3854.8426       234200       170269 
46850000    1.0376082   -0.2271219      1728000    3855.6712       234250       170297 
46860000   0.99529966  -0.22195762      1728000    3856.4615       234300       170336 
46870000    1.0165015  -0.20990286      1728000    3857.2735       234350       170365 
46880000   0.97620992  -0.20432536      1728000     3858.094       234400       170398 
46890000    0.9822123  -0.18813219      1728000    3858.9154       234450       170427 
46900000   0.97339136  -0.18866637      1728000    3859.7392       234500       170462 
46910000     1.000692  -0.19563617      1728000    3860.5273       234550       170497 
46920000    0.9832188  -0.17523438      1728000    3861.3163       234600       170534 
46930000   0.99595545  -0.18548367      1728000    3862.1082       234650       170572 
46940000   0.97865102  -0.18208498      1728000    3862.9072       234700       170609 
46950000   0.98764388  -0.19508208      1728000    3863.7112       234750       170651 
46960000    1.0158501  -0.19083541      1728000    3864.5371       234800       170686 
46970000   0.97907321  -0.19595267      1728000    3865.3819       234850       170723 
46980000    1.0035085  -0.21641381      1728000    3866.2123       234900       170761 
46990000    1.0218794  -0.20459323      1728000    3867.0458       234950       170799 
47000000   0.98648729  -0.20886465      1728000    3867.9089       235000       170835 
47010000    1.0477476  -0.21228098      1728000    3868.7433       235050       170869 
47020000   0.95972536  -0.23143164      1728000    3869.5489       235100       170902 
47030000   0.96671887  -0.21603388      1728000    3870.3564       235150       170931 
47040000   0.97514293  -0.19161662      1728000    3871.1786       235200       170970 
47050000   0.95927028  -0.20252778      1728000    3872.0098       235250       171010 
47060000   0.96237638  -0.18129425      1728000    3872.8033       235300       171048 
47070000    1.0168492  -0.19905156      1728000    3873.6245       235350       171081 
47080000    1.0115904  -0.19762605      1728000    3874.4316       235400       171112 
47090000   0.99378025  -0.19183292      1728000     3875.232       235450       171148 
47100000   0.96245068  -0.18227471      1728000      3876.03       235500       171183 
47110000    1.0557024  -0.18832384      1728000    3876.8423       235550       171221 
47120000   0.95687649   -0.1749252      1728000    3877.6441       235600       171262 
47130000      1.00344  -0.18504319      1728000     3878.442       235650       171298 
47140000    1.0490859  -0.18463111      1728000    3879.2421       235700       171332 
47150000    1.0043575  -0.22787038      1728000    3880.0354       235750       171369 
47160000    1.0479739  -0.20295576      1728000    3880.8541       235800       171406 
47170000   0.99785478  -0.20240374      1728000    3881.6518       235850       171441 
47180000    1.0129352  -0.22306048      1728000    3882.4582       235900       171472 
47190000   0.98141591  -0.20240468      1728000    3883.2663       235950       171512 
47200000    1.0045136  -0.20472226      1728000    3884.1008       236000       171544 
47210000   0.96937646  -0.21496728      1728000     3884.923       236050       171580 
47220000     0.961897  -0.20862567      1728000    3885.7271       236100       171609 
47230000   0.88849929  -0.20112411      1728000    3886.5101       236150       171639 
47240000    1.0015292  -0.20558525      1728000    3887.3102       236200       171676 
47250000    1.0131355  -0.20056634      1728000     3888.118       236250       171712 
47260000    1.0017971  -0.17603495      1728000    3888.9402       236300       171747 
47270000   0.98581467  -0.18909312      1728000    3889.7292       236350       171790 
47280000   0.99412241  -0.18598339      1728000    3890.5202       236400       171829 
47290000    0.9560165  -0.18041108      1728000    3891.3542       236450       171864 
47300000    1.0328583  -0.19022192      1728000    3892.2103       236500       171899 
47310000    1.0274411  -0.19721634      1728000    3893.0181       236550       171935 
47320000    1.0142755  -0.18989866      1728000    3893.8976       236600       171974 
47330000    1.0634475   -0.1639315      1728000    3894.6821       236650       172014 
47340000   0.94426925  -0.17952855      1728000    3895.4743       236700       172050 
47350000    1.0104909  -0.18465999      1728000    3896.2643       236750       172087 
47360000    1.0197008  -0.18873616      1728000    3897.0572       236800       172126 
47370000    1.0656233  -0.18108382      1728000    3897.8421       236850       172164 
47380000    1.0124621  -0.19567842      1728000    3898.6432       236900       172200 
47390000    1.0336005  -0.19440009      1728000    3899.4503       236950       172234 
47400000    1.0440702  -0.21290901      1728000    3900.2579       237000       172274 
47410000   0.96044478  -0.21791642      1728000     3901.062       237050       172305 
47420000   0.95074728  -0.21068773      1728000    3901.8944       237100       172338 
47430000   0.97952857  -0.20346463      1728000    3902.7736       237150       172374 
47440000   0.96884732  -0.21134603      1728000    3903.6557       237200       172413 
47450000    0.9821904  -0.21139696      1728000    3904.4798       237250       172452 
47460000   0.93589787  -0.20991357      1728000     3905.314       237300       172491 
47470000   0.98388819  -0.20384419      1728000    3906.1541       237350       172532 
47480000    1.0583706  -0.20600971      1728000    3906.9685       237400       172571 
47490000   0.96545979  -0.20985065      1728000    3907.7555       237450       172610 
47500000     1.061624  -0.20726321      1728000    3908.5909       237500       172647 
47510000   0.97602013  -0.20981317      1728000    3909.4201       237550       172682 
47520000    1.0176436  -0.22531627      1728000    3910.2213       237600       172726 
47530000   0.93949906  -0.22694562      1728000    3911.0203       237650       172765 
47540000    1.0071489  -0.21144227      1728000    3911.8129       237700       172802 
47550000    1.0553133  -0.19895922      1728000    3912.6012       237750       172836 
47560000    1.0382372  -0.17752417      1728000    3913.4004       237800       172877 
47570000   0.98831036  -0.18842104      1728000    3914.2158       237850       172915 
47580000     1.031113  -0.20694083      1728000    3915.0075       237900       172953 
47590000    1.0483684  -0.17744571      1728000     3915.798       237950       172988 
47600000    1.0575235  -0.18609148      1728000    3916.6151       238000       173026 
47610000   0.99344934  -0.19367523      1728000    3917.4097       238050       173063 
47620000    1.0658445  -0.19372807      1728000    3918.2081       238100       173100 
47630000    1.0213478  -0.19411848      1728000    3919.0398       238150       173137 
47640000   0.97814157  -0.20596396      1728000    3919.9053       238200       173174 
47650000   0.98647347  -0.19892664      1728000    3920.7874       238250       173210 
47660000   0.98232634  -0.20202177      1728000    3921.5798       238300       173244 
47670000   0.94970516  -0.20704618      1728000    3922.3761       238350       173279 
47680000    1.0887844  -0.20178361      1728000    3923.1693       238400       173312 
47690000    1.0036787  -0.22369323      1728000    3923.9715       238450       173349 
47700000   0.99656975  -0.21715022      1728000     3924.796       238500       173381 
47710000   0.98405931  -0.21928477      1728000    3925.6034       238550       173416 
47720000   0.98206669  -0.21581606      1728000    3926.4248       238600       173450 
47730000    0.9048151  -0.21765998      1728000    3927.2271       238650       173485 
47740000   0.94578999  -0.20015131      1728000     3928.044       238700       173525 
47750000    1.0397391  -0.22482557      1728000    3928.8461       238750       173560 
47760000   0.96427533  -0.21793668      1728000     3929.671       238800       173598 
47770000     1.023618  -0.21371319      1728000    3930.4711       238850       173638 
47780000   0.95898727  -0.22683157      1728000     3931.268       238900       173672 
47790000    1.0132157  -0.23221041      1728000    3932.0731       238950       173704 
47800000    1.0028461  -0.23092046      1728000     3932.949       239000       173739 
47810000   0.92949839   -0.2237983      1728000    3933.7598       239050       173777 
47820000    1.0746322  -0.22927161      1728000     3934.559       239100       173815 
47830000    1.0054424  -0.23176439      1728000    3935.3703       239150       173849 
47840000    1.0237058   -0.2229146      1728000    3936.1683       239200       173884 
47850000   0.96061692  -0.20451799      1728000    3936.9668       239250       173919 
47860000   0.99377727  -0.21984593      1728000     3937.815       239300       173956 
47870000    1.0646809  -0.21766466      1728000    3938.6102       239350       173984 
47880000   0.98953624  -0.20853019      1728000    3939.4231       239400       174024 
47890000    1.0377337  -0.19890351      1728000    3940.2341       239450       174063 
47900000   0.97386043  -0.21221359      1728000    3941.0552       239500       174100 
47910000    1.0136972  -0.21599021      1728000    3941.9029       239550       174130 
47920000   0.99433132  -0.21524196      1728000    3942.7332       239600       174167 
47930000   0.96290427  -0.20879755      1728000    3943.5758       239650       174203 
47940000    1.0061656  -0.19779967      1728000     3944.474       239700       174236 
47950000    1.0091639  -0.22557099      1728000     3945.295       239750       174273 
47960000   0.94036543   -0.2206228      1728000    3946.1389       239800       174307 
47970000    1.0257137  -0.23170224      1728000     3946.979       239850       174347 
47980000    1.0664735  -0.22264344      1728000    3947.7875       239900       174385 
47990000    0.9562794  -0.19718834      1728000    3948.6096       239950       174426 
48000000    1.0241623  -0.20274276      1728000    3949.4577       240000       174460 
48010000   0.99826989  -0.20063812      1728000    3950.2939       240050       174496 
48020000   0.99027123  -0.21834098      1728000     3951.109       240100       174529 
48030000    1.0173844  -0.22115824      1728000    3951.9304       240150       174565 
48040000   0.97252811  -0.21866666      1728000    3952.7537       240200       174600 
48050000   0.97273303  -0.21919738      1728000    3953.5591       240250       174634 
48060000    0.9784339   -0.2067631      1728000    3954.3565       240300       174672 
48070000    1.0350045  -0.18921131      1728000    3955.1449       240350       174713 
48080000   0.97994702  -0.20044469      1728000    3955.9431       240400       174751 
48090000   0.99179451  -0.22702138      1728000    3956.7809       240450       174789 
48100000   0.99466864    -0.217471      1728000    3957.6191       240500       174820 
48110000   0.99476666  -0.22352769      1728000    3958.4357       240550       174853 
48120000   0.95843354  -0.22008912      1728000     3959.238       240600       174886 
48130000    1.0156545  -0.21709018      1728000    3960.0369       240650       174917 
48140000   0.98522949   -0.2203005      1728000    3960.8778       240700       174949 
48150000    1.0449012  -0.23196816      1728000     3961.675       240750       174986 
48160000     1.008979  -0.23280209      1728000    3962.4911       240800       175019 
48170000   0.98251856  -0.23536167      1728000     3963.341       240850       175054 
48180000    1.0140597  -0.23280007      1728000      3964.17       240900       175090 
48190000    1.0137039  -0.21255118      1728000     3964.969       240950       175126 
48200000    1.0184511  -0.22105537      1728000    3965.8361       241000       175160 
48210000    1.0325287  -0.20200941      1728000    3966.6646       241050       175194 
48220000   0.94334146  -0.20984835      1728000    3967.5549       241100       175228 
48230000   0.92515151  -0.20999343      1728000    3968.4818       241150       175258 
48240000   0.98605396  -0.21616692      1728000    3969.3059       241200       175296 
48250000    1.0439906  -0.20281385      1728000    3970.1291       241250       175330 
48260000   0.96682871  -0.20081704      1728000    3970.9723       241300       175369 
48270000    1.0466535  -0.22114299      1728000    3971.7945       241350       175407 
48280000   0.93026371  -0.21075081      1728000    3972.6546       241400       175451 
48290000    1.0008385  -0.19686409      1728000    3973.4758       241450       175489 
48300000   0.97538977  -0.23484381      1728000     3974.287       241500       175527 
48310000    1.0371767  -0.20572054      1728000    3975.1332       241550       175561 
48320000   0.96733295  -0.18005721      1728000    3975.9803       241600       175596 
48330000    1.0070298  -0.17806645      1728000    3976.8584       241650       175632 
48340000   0.96525268  -0.17515508      1728000    3977.6826       241700       175675 
48350000    1.0274951  -0.17589395      1728000    3978.5127       241750       175715 
48360000    1.0735009  -0.17766058      1728000    3979.3563       241800       175748 
48370000    1.0032349  -0.19251109      1728000    3980.1699       241850       175785 
48380000    1.0165509  -0.17732615      1728000    3981.0565       241900       175823 
48390000   0.98627008   -0.1998915      1728000    3981.8529       241950       175863 
48400000   0.92697445   -0.2034937      1728000    3982.6672       242000       175899 
48410000    1.0257025  -0.20696043      1728000    3983.4963       242050       175934 
48420000    1.0312041  -0.19157249      1728000    3984.2985       242100       175977 
48430000    1.0023142  -0.20001253      1728000    3985.0957       242150       176013 
48440000    1.0148752  -0.21610818      1728000    3985.8979       242200       176053 
48450000    1.0116231  -0.21184048      1728000    3986.7179       242250       176093 
48460000      1.02405  -0.19212536      1728000    3987.5289       242300       176131 
48470000   0.98468874  -0.20626709      1728000    3988.3519       242350       176169 
48480000    1.0159678   -0.2122726      1728000    3989.1618       242400       176212 
48490000    0.9658021  -0.22147606      1728000    3989.9691       242450       176250 
48500000     1.006331  -0.19987367      1728000    3990.7981       242500       176286 
48510000   0.97268532  -0.20674185      1728000    3991.6112       242550       176323 
48520000    1.0422445  -0.23208142      1728000    3992.4299       242600       176364 
48530000    1.0386175  -0.20985845      1728000     3993.288       242650       176398 
48540000    1.0813707  -0.20957206      1728000    3994.1071       242700       176434 
48550000    1.0077602  -0.20251845      1728000    3994.9543       242750       176471 
48560000    1.0232618  -0.21493363      1728000    3995.8036       242800       176513 
48570000     1.036868  -0.20728796      1728000    3996.6287       242850       176549 
48580000    1.0291311  -0.22228466      1728000    3997.4369       242900       176586 
48590000    1.0119344  -0.21455734      1728000    3998.2721       242950       176623 
48600000   0.99302607  -0.20810024      1728000    3999.1621       243000       176656 
48610000    1.0435721  -0.21093288      1728000    4000.0762       243050       176688 
48620000   0.97977144  -0.19740397      1728000    4000.9703       243100       176722 
48630000    1.0122805   -0.2127045      1728000    4001.9383       243150       176756 
48640000   0.97290506  -0.20954398      1728000    4002.7794       243200       176796 
48650000    1.0909042   -0.2188448      1728000    4003.6036       243250       176829 
48660000   0.98564023  -0.21274352      1728000    4004.4497       243300       176857 
48670000    1.0840288  -0.23274442      1728000    4005.3058       243350       176886 
48680000    1.0182417  -0.21755583      1728000     4006.127       243400       176918 
48690000   0.99215603  -0.21504804      1728000    4007.0093       243450       176952 
48700000   0.94646547  -0.21230718      1728000    4007.8575       243500       176990 
48710000   0.96452497  -0.21265488      1728000    4008.6766       243550       177032 
48720000   0.98954641  -0.22304397      1728000    4009.4857       243600       177065 
48730000    1.0082312  -0.21764777      1728000    4010.3232       243650       177104 
48740000    1.0347067  -0.21755497      1728000    4011.1225       243700       177144 
48750000    1.0030699   -0.2023341      1728000    4011.9168       243750       177182 
48760000    1.0250641  -0.20540848      1728000    4012.7387       243800       177219 
48770000    1.0151765  -0.20915404      1728000    4013.5768       243850       177258 
48780000    1.0692124  -0.21422222      1728000    4014.3889       243900       177298 
48790000   0.98828146  -0.21830086      1728000    4015.2549       243950       177332 
48800000    1.0116996  -0.20823912      1728000    4016.1052       244000       177366 
48810000    1.0050751  -0.21698937      1728000    4016.9174       244050       177403 
48820000   0.98766348  -0.21414003      1728000    4017.7435       244100       177443 
48830000    1.0375076  -0.21495393      1728000    4018.6865       244150       177485 
48840000    1.0251979  -0.21217089      1728000    4019.5367       244200       177522 
48850000    1.0189073  -0.20179767      1728000    4020.4018       244250       177562 
48860000    1.0020435  -0.19106267      1728000    4021.2439       244300       177596 
48870000   0.98150805  -0.18223017      1728000    4022.0621       244350       177635 
48880000   0.97900966  -0.21461812      1728000    4022.8747       244400       177672 
48890000   0.92053404  -0.19492901      1728000    4023.6979       244450       177708 
48900000    1.0014959  -0.19871146      1728000    4024.5419       244500       177750 
48910000   0.97951976  -0.19644626      1728000    4025.3751       244550       177782 
48920000   0.94627703  -0.17727249      1728000    4026.1863       244600       177814 
48930000    1.0390496  -0.19560903      1728000    4027.0226       244650       177849 
48940000     1.015856  -0.17950463      1728000    4027.8638       244700       177884 
48950000    1.0148588  -0.20128879      1728000    4028.7129       244750       177922 
48960000    1.0353147   -0.2094018      1728000    4029.5291       244800       177956 
48970000   0.97356979  -0.20289057      1728000    4030.3343       244850       177995 
48980000    1.0116657  -0.20796308      1728000    4031.1458       244900       178030 
48990000   0.98761786  -0.22529593      1728000    4031.9758       244950       178066 
49000000   0.96048454  -0.24699411      1728000    4032.8075       245000       178105 
49010000    1.0398227  -0.24202692      1728000    4033.7208       245050       178140 
49020000    0.9967583  -0.25861126      1728000    4034.6138       245100       178173 
49030000     1.016501  -0.24175021      1728000    4035.5539       245150       178211 
49040000   0.95232682  -0.23027071      1728000     4036.387       245200       178245 
49050000    1.0131918  -0.23070044      1728000    4037.2471       245250       178274 
49060000    0.9065849  -0.24880111      1728000    4038.1362       245300       178307 
49070000     1.002501  -0.24602999      1728000    4039.0263       245350       178345 
49080000    0.9761746  -0.21850304      1728000    4039.9514       245400       178380 
49090000    1.0002077  -0.23422732      1728000    4040.9364       245450       178417 
49100000    1.0106274  -0.21542927      1728000    4041.8005       245500       178446 
49110000   0.99019798   -0.2231422      1728000    4042.6357       245550       178485 
49120000   0.94346542  -0.21495298      1728000    4043.5557       245600       178519 
49130000    1.0351242  -0.21824352      1728000    4044.3989       245650       178559 
49140000     0.966349  -0.22179034      1728000     4045.259       245700       178601 
49150000    0.9909232  -0.21847072      1728000    4046.0652       245750       178639 
49160000   0.95875299  -0.22986247      1728000    4046.9932       245800       178673 
49170000    1.0110098  -0.22550089      1728000    4047.8963       245850       178713 
49180000   0.98340985  -0.21516519      1728000    4048.7364       245900       178748 
49190000    1.0027443   -0.2023007      1728000    4049.6235       245950       178783 
49200000   0.96933588   -0.2093297      1728000    4050.4427       246000       178818 
49210000   0.97587792  -0.23105318      1728000    4051.2949       246050       178853 
49220000    1.0410063  -0.21956397      1728000    4052.1241       246100       178882 
49230000    1.0353064  -0.22892992      1728000    4052.9629       246150       178920 
49240000    1.0093793  -0.22681487      1728000    4053.8008       246200       178958 
49250000    0.9703651  -0.22884404      1728000    4054.6116       246250       178997 
49260000   0.95334329   -0.2460885      1728000    4055.4748       246300       179029 
49270000   0.98048612  -0.21891894      1728000     4056.304       246350       179064 
49280000    1.0148245  -0.22728863      1728000    4057.1349       246400       179098 
49290000    1.0187477  -0.24064698      1728000    4058.0202       246450       179136 
49300000   0.98649393   -0.2340892      1728000    4058.8993       246500       179167 
49310000   0.97377311   -0.2126122      1728000    4059.8044       246550       179207 
49320000   0.99453298  -0.22303391      1728000    4060.6375       246600       179243 
49330000   0.97203562  -0.21427008      1728000    4061.4826       246650       179283 
49340000   0.93706569  -0.20026024      1728000    4062.3289       246700       179324 
49350000   0.99932887  -0.20927107      1728000    4063.2059       246750       179364 
49360000   0.98711084  -0.20043158      1728000     4064.088       246800       179395 
49370000   0.98851328  -0.19649069      1728000    4064.9012       246850       179431 
49380000     1.098531  -0.19680724      1728000    4065.7054       246900       179462 
49390000   0.99511447  -0.19823134      1728000    4066.5396       246950       179500 
49400000     1.033507  -0.20366621      1728000    4067.3587       247000       179540 
49410000    1.0810912  -0.21864595      1728000    4068.1849       247050       179580 
49420000   0.99686658  -0.21691856      1728000     4069.045       247100       179616 
49430000    1.0215891  -0.23001185      1728000    4069.8812       247150       179648 
49440000    1.0285817  -0.21422367      1728000    4070.7136       247200       179681 
49450000    1.0075158  -0.21330626      1728000    4071.5543       247250       179714 
49460000   0.99471352  -0.20801882      1728000    4072.3978       247300       179745 
49470000    1.0163325  -0.20900503      1728000     4073.249       247350       179776 
49480000   0.96152719  -0.20321045      1728000    4074.0458       247400       179812 
49490000    1.0225212  -0.21858279      1728000    4074.8692       247450       179847 
49500000    1.0258859   -0.2043736      1728000    4075.7126       247500       179884 
49510000   0.98891556  -0.19393554      1728000    4076.5208       247550       179920 
49520000   0.98711312  -0.19864187      1728000     4077.363       247600       179955 
49530000    1.1038303  -0.20039461      1728000    4078.2192       247650       179985 
49540000   0.96784687  -0.19699974      1728000    4079.0743       247700       180018 
49550000   0.98210364  -0.21292182      1728000    4079.8994       247750       180057 
49560000    1.0483088  -0.20393788      1728000    4080.7375       247800       180095 
49570000   0.93678454  -0.19754664      1728000    4081.5538       247850       180133 
49580000    1.0387701  -0.20336916      1728000    4082.3657       247900       180174 
49590000   0.94369055  -0.21111603      1728000    4083.1996       247950       180207 
49600000    1.0026992  -0.23200777      1728000    4084.0289       248000       180244 
49610000     1.006082  -0.21497148      1728000    4084.8496       248050       180278 
49620000    1.0138841  -0.20703893      1728000    4085.7038       248100       180316 
49630000    1.0431588  -0.19409292      1728000    4086.5198       248150       180349 
49640000    1.0431128  -0.18745985      1728000    4087.3256       248200       180386 
49650000   0.97749203   -0.1748412      1728000    4088.1325       248250       180418 
49660000   0.99289033  -0.19490208      1728000    4088.9569       248300       180454 
49670000     0.925976  -0.19559906      1728000    4089.7627       248350       180492 
49680000   0.98093448  -0.19201498      1728000    4090.5618       248400       180524 
49690000    1.0005105  -0.19192876      1728000    4091.3538       248450       180560 
49700000   0.98930753  -0.19181596      1728000    4092.1696       248500       180600 
49710000    1.0007219  -0.20865522      1728000    4092.9697       248550       180640 
49720000    1.0453889  -0.23532331      1728000    4093.7817       248600       180680 
49730000    0.9804013  -0.20723821      1728000     4094.592       248650       180722 
49740000    1.0310476  -0.20602062      1728000    4095.4057       248700       180762 
49750000    1.0309478  -0.21432548      1728000    4096.2106       248750       180798 
49760000    1.0056774  -0.21411285      1728000    4097.0185       248800       180833 
49770000    1.0221028  -0.21518284      1728000    4097.8388       248850       180864 
49780000   0.95804461  -0.21630921      1728000    4098.6417       248900       180903 
49790000   0.98645269  -0.20281243      1728000    4099.4408       248950       180937 
49800000   0.89067609  -0.19910903      1728000    4100.2618       249000       180974 
49810000    1.0378131  -0.19132062      1728000    4101.0547       249050       181006 
49820000   0.93266066  -0.19735046      1728000    4101.8447       249100       181044 
49830000     1.043875  -0.19594042      1728000    4102.6708       249150       181080 
49840000   0.99040991  -0.19899431      1728000    4103.4739       249200       181115 
49850000   0.97162533  -0.18290276      1728000    4104.2777       249250       181150 
49860000    1.0117554  -0.20792014      1728000    4105.0879       249300       181187 
49870000    1.0112852  -0.19577223      1728000    4105.8877       249350       181223 
49880000     0.974486  -0.18648606      1728000    4106.7178       249400       181264 
49890000   0.99597342  -0.20139947      1728000     4107.538       249450       181304 
49900000   0.99314827  -0.18800947      1728000    4108.3487       249500       181342 
49910000   0.98775198  -0.20605977      1728000    4109.1752       249550       181384 
49920000   0.95305449  -0.21588382      1728000    4109.9786       249600       181419 
49930000    1.0393533   -0.2068349      1728000    4110.7811       249650       181448 
49940000    0.9939399  -0.21023457      1728000    4111.5815       249700       181486 
49950000   0.98529181  -0.22562793      1728000    4112.3838       249750       181523 
49960000   0.98276336  -0.22224928      1728000    4113.2008       249800       181554 
49970000   0.96765776  -0.23043488      1728000    4114.0018       249850       181591 
49980000    1.0010507  -0.21674309      1728000     4114.858       249900       181628 
49990000    1.0269336  -0.21844293      1728000    4115.6581       249950       181667 
50000000   0.99700774  -0.22231616      1728000    4116.4707       250000       181695 
Loop time of 4116.47 on 1 procs for 50000000 steps with 500 atoms

Performance: 10494421.613 tau/day, 12146.321 timesteps/s
99.1% CPU use with 1 MPI tasks x 1 OpenMP threads

MPI task timing breakdown:
Section |  min time  |  avg time  |  max time  |%varavg| %total
---------------------------------------------------------------
Pair    | 684.14     | 684.14     | 684.14     |   0.0 | 16.62
Bond    | 1078.1     | 1078.1     | 1078.1     |   0.0 | 26.19
Neigh   | 807.44     | 807.44     | 807.44     |   0.0 | 19.61
Comm    | 32.748     | 32.748     | 32.748     |   0.0 |  0.80
Output  | 15.059     | 15.059     | 15.059     |   0.0 |  0.37
Modify  | 1442.4     | 1442.4     | 1442.4     |   0.0 | 35.04
Other   |            | 56.58      |            |       |  1.37

Nlocal:    500 ave 500 max 500 min
Histogram: 1 0 0 0 0 0 0 0 0 0
Nghost:    0 ave 0 max 0 min
Histogram: 1 0 0 0 0 0 0 0 0 0
Neighs:    1371 ave 1371 max 1371 min
Histogram: 1 0 0 0 0 0 0 0 0 0

Total # of neighbors = 1371
Ave neighs/atom = 2.742
Ave special neighs/atom = 5.976
Neighbor list builds = 2623745
Dangerous builds = 0

################
## ULOOP    ####
################
clear
OMP_NUM_THREADS environment is not set. Defaulting to 1 thread. (../comm.cpp:87)
  using 1 OpenMP thread(s) per MPI task
variable rname delete
variable simname delete
variable folder delete
variable seed delete
variable E delete
variable RW delete
variable SimOutType delete
variable SimInType delete
variable jn delete
variable jf delete

next jbn
Increment via next: value 2 on partition 0
jump SELF #last line!!!

### If e.g. I run this on 10 partitions of 1 processor,
### and initialise the variable with 'uloop N'
### it will run 10 simulations with 'jobnumber' taking
### values 1-10. Then when a particular simulation finishes, the
### script will be run again with the next value of jobnumber,
### until N simulations have been run.
## SO ULOOP IS "SERIAL" BUT FOR SURE 10x1 PROCs ARE ALWAYS BUSY
Total wall time: 1:08:46
