LAMMPS (1 Feb 2019)
OMP_NUM_THREADS environment is not set. Defaulting to 1 thread. (../comm.cpp:87)
  using 1 OpenMP thread(s) per MPI task
####################################
####	ULOOP			####
####################################
variable jbn uloop 1  # run n simulations
variable startfrom equal 0
variable jn equal ${jbn}+${startfrom}
variable jn equal 1+${startfrom}
variable jn equal 1+0
print ${jn}
print 1
1
variable seed equal (${jn}+4)*51-2*${jbn}
variable seed equal (1+4)*51-2*${jbn}
variable seed equal (1+4)*51-2*1
variable seedr equal (${jn}+2)*22
variable seedr equal (1+2)*22

#
variable N equal 2000
timestep 0.01
variable Dt equal 100000
variable Temp equal 1.0
variable Norm equal 0.88585294441338
if "${jn} <= 2" then "variable E equal 0.7"
variable E equal 0.7
if "${jn} > 2 && ${jn} <= 4" then "variable E equal 1.5"
if "${jn} > 4 && ${jn} <= 6" then "variable E equal 2.0"
if "${jn} > 6 && ${jn} <= 8" then "variable E equal 2.5"
if "${jn} > 8 && ${jn} <= 10" then "variable E equal 3.0"
if "${jn} > 10 && ${jn} <= 12" then "variable E equal 3.5"
if "${jn} > 12 && ${jn} <= 14" then "variable E equal 4.0"
if "${jn} > 14 && ${jn} <= 16" then "variable E equal 4.5"
if "${jn} > 16 && ${jn} <= 18" then "variable E equal 5.0"

#
####################################
####	DEFINTIONS 	########
####################################
#
variable N equal 500
variable folder index RW_Dt${Dt}_E${E}
variable folder index RW_Dt100000_E${E}
variable folder index RW_Dt100000_E0.7
shell mkdir ${folder}
shell mkdir RW_Dt100000_E0.7
WARNING: Shell command 'mkdir' failed with error 'File exists' (../input.cpp:1287)
variable SimOutType index RW${jn}Dt${Dt}E${E}
variable SimOutType index RW1Dt${Dt}E${E}
variable SimOutType index RW1Dt100000E${E}
variable SimOutType index RW1Dt100000E0.7
variable rname index INIT/Poly.N${N}.dat
variable rname index INIT/Poly.N500.dat
variable simname index Poly.N${N}.${SimOutType}
variable simname index Poly.N500.${SimOutType}
variable simname index Poly.N500.RW1Dt100000E0.7
#
units lj
atom_style angle
boundary        p p p
neighbor 1.3 bin
neigh_modify every 5 delay 5 check yes
#
restart 1000000 ${folder}/Restart.neutr.${simname}.
restart 1000000 RW_Dt100000_E0.7/Restart.neutr.${simname}.
restart 1000000 RW_Dt100000_E0.7/Restart.neutr.Poly.N500.RW1Dt100000E0.7.
print ${rname}
print INIT/Poly.N500.dat
INIT/Poly.N500.dat
read_data ${rname}
read_data INIT/Poly.N500.dat
  orthogonal box = (-50 -50 -50) to (50 50 50)
  1 by 1 by 1 MPI processor grid
  reading atoms ...
  500 atoms
  scanning bonds ...
  1 = max bonds/atom
  scanning angles ...
  1 = max angles/atom
  reading bonds ...
  499 bonds
  reading angles ...
  498 angles
  2 = max # of 1-2 neighbors
  2 = max # of 1-3 neighbors
  4 = max # of 1-4 neighbors
  6 = max # of special neighbors

####################################
####	GROUPS	             #######
####################################
group blue type 1
500 atoms in group blue
group red type 2
0 atoms in group red
group grey type 3
0 atoms in group grey

change_box all x final -60 60 y final -60 60 z final -60 60 boundary f f f units box
  orthogonal box = (-60 -50 -50) to (60 50 50)
  orthogonal box = (-60 -60 -50) to (60 60 50)
  orthogonal box = (-60 -60 -60) to (60 60 60)

####################################
####	ANGLE	             #######
####################################
angle_style   cosine
angle_coeff  1 3.0  #20 sigma for realistic DNA (1 bead = 2.5 nm)

####################################
####	PAIRS	             #######
####################################
pair_style  soft 2.5
pair_modify     shift yes
pair_coeff      * * 20 1.12246152962189

variable prefactor equal ramp(0,50)
fix pushapart all adapt 1 pair soft a * * v_prefactor

####################################
####	FENE	             #######
####################################
bond_style   fene
special_bonds fene#<=== I M P O R T A N T (new command)
  2 = max # of 1-2 neighbors
  6 = max # of special neighbors
bond_coeff   1  30.0   1.6  1.0  1.0

####################################
####	FIXES	             #######
####################################
fix 1 all   nve
fix 2 all  langevin   1.0 1.0   1.0   ${seed}
fix 2 all  langevin   1.0 1.0   1.0   253

####################################
####	WALL	             #######
####################################
fix WALL all wall/lj126 xhi EDGE 1.0 1.0 1.122462048 xlo EDGE 1.0 1.0 1.122462048 yhi EDGE 1.0 1.0 1.122462048 ylo EDGE 1.0 1.0 1.122462048 zhi EDGE 1.0 1.0 1.122462048 zlo EDGE 1.0 1.0 1.122462048 units box

####################################
####	RESET TIME             #######
####################################
reset_timestep 0

####################################
####	SWAP - ATOMS         #######
####################################
##HERE I USE fix atom/swap to attempt an atom swap between types
## In theory, I don't need to do a loop as the fix does it every
## N timesteps
##FIRST Dt IS NOT SWAPPING ANYWAY!
group Polymer type 1 2 3
500 atoms in group Polymer
fix Aswap Polymer atom/swap ${Dt} ${N} ${seed} ${Temp} semi-grand yes types 1 2 3 mu 0.0 0.0 0.0
fix Aswap Polymer atom/swap 100000 ${N} ${seed} ${Temp} semi-grand yes types 1 2 3 mu 0.0 0.0 0.0
fix Aswap Polymer atom/swap 100000 500 ${seed} ${Temp} semi-grand yes types 1 2 3 mu 0.0 0.0 0.0
fix Aswap Polymer atom/swap 100000 500 253 ${Temp} semi-grand yes types 1 2 3 mu 0.0 0.0 0.0
fix Aswap Polymer atom/swap 100000 500 253 1 semi-grand yes types 1 2 3 mu 0.0 0.0 0.0
variable Swaps equal f_Aswap[2]/1.0
variable Attempts equal f_Aswap[1]/1.0

####################################
####    THERMO AND INTEGRATION
####################################
timestep 0.01
thermo 10000
thermo_style   custom   step  temp  epair vol cpu v_Attempts v_Swaps

####################################
####	EQUILIBRATION        #######
####################################
#THIS IS TO TEST
#PUT LARGER NUMBER WHEN DOING ACTUAL SIMULATIONS
run 100000
Neighbor list info ...
  update every 5 steps, delay 5 steps, check yes
  max neighbors/atom: 2000, page size: 100000
  master list distance cutoff = 2.42246
  ghost atom cutoff = 2.42246
  binsize = 1.21123, bins = 100 100 100
  1 neighbor lists, perpetual/occasional/extra = 1 0 0
  (1) pair soft, perpetual
      attributes: half, newton on
      pair build: half/bin/newton
      stencil: half/bin/3d/newton
      bin: standard
Per MPI rank memory allocation (min/avg/max) = 9.234 | 9.234 | 9.234 Mbytes
Step Temp E_pair Volume CPU v_Attempts v_Swaps 
       0            0            0      1728000            0            0            0 
   10000    1.0294079 0.0064934185      1728000    1.0336289          500          500 
   20000    0.9987672   0.01265543      1728000     1.914593          500          500 
   30000    1.0377049 0.0053002516      1728000    2.7998059          500          500 
   40000   0.96298537   0.00420477      1728000     3.648659          500          500 
   50000   0.95514074 4.5880284e-05      1728000    4.5025308          500          500 
   60000   0.97827728 4.9670865e-05      1728000     5.349771          500          500 
   70000   0.96772811 0.00068691548      1728000     6.176744          500          500 
   80000    1.0272917 0.0015087736      1728000    6.9918129          500          500 
   90000    1.0539828 0.0015163033      1728000    7.8267848          500          500 
  100000   0.98519253 0.0023363482      1728000    8.6415739          500          500 
Loop time of 8.64356 on 1 procs for 100000 steps with 500 atoms

Performance: 9995882.507 tau/day, 11569.308 timesteps/s
99.6% CPU use with 1 MPI tasks x 1 OpenMP threads

MPI task timing breakdown:
Section |  min time  |  avg time  |  max time  |%varavg| %total
---------------------------------------------------------------
Pair    | 0.5848     | 0.5848     | 0.5848     |   0.0 |  6.77
Bond    | 2.4826     | 2.4826     | 2.4826     |   0.0 | 28.72
Neigh   | 2.4657     | 2.4657     | 2.4657     |   0.0 | 28.53
Comm    | 0.11201    | 0.11201    | 0.11201    |   0.0 |  1.30
Output  | 0.02191    | 0.02191    | 0.02191    |   0.0 |  0.25
Modify  | 2.8596     | 2.8596     | 2.8596     |   0.0 | 33.08
Other   |            | 0.117      |            |       |  1.35

Nlocal:    500 ave 500 max 500 min
Histogram: 1 0 0 0 0 0 0 0 0 0
Nghost:    0 ave 0 max 0 min
Histogram: 1 0 0 0 0 0 0 0 0 0
Neighs:    847 ave 847 max 847 min
Histogram: 1 0 0 0 0 0 0 0 0 0

Total # of neighbors = 847
Ave neighs/atom = 1.694
Ave special neighs/atom = 1.996
Neighbor list builds = 4475
Dangerous builds = 0


unfix pushapart
unfix Aswap
reset_timestep 0

#######################################################
####	PAIRS -- REPULSIVE + REDS FERROMAGN 	#######
#######################################################
#ENERGYSCALE
variable Et equal ${E}/${Norm}
variable Et equal 0.7/${Norm}
variable Et equal 0.7/0.88585294441338

pair_style  lj/cut 1.8
pair_modify     shift yes
pair_coeff      * *  1.0 1.0 1.12246152962189

pair_coeff      1 1  ${Et} 1.0 1.8
pair_coeff      1 1  0.790198874897398 1.0 1.8
pair_coeff      1 2  1.0 1.0 1.12246152962189
pair_coeff      1 3  1.0 1.0 1.12246152962189

pair_coeff      2 2  ${Et} 1.0 1.8
pair_coeff      2 2  0.790198874897398 1.0 1.8
pair_coeff      2 3  1.0 1.0 1.12246152962189

pair_coeff      3 3  1.0 1.0 1.12246152962189
#######################################################


########################
## PER PRIMI VICINI   ##
########################
bond_style harmonic
special_bonds lj 1 1 1
  2 = max # of 1-2 neighbors
  2 = max # of 1-3 neighbors
  4 = max # of 1-4 neighbors
  6 = max # of special neighbors
bond_coeff 1 200 1.12246
#bond_style fene
#special_bonds fene
#bond_coeff 1 30 1.6 1.0 1.0

########################
## RECOLOR #############
########################
group Polymer type 1 2 3
500 atoms in group Polymer
variable smooth equal 10
variable dtsmooth equal ${Dt}/${smooth}
variable dtsmooth equal 100000/${smooth}
variable dtsmooth equal 100000/10
variable Nsmooth equal ${N}/${smooth}
variable Nsmooth equal 500/${smooth}
variable Nsmooth equal 500/10
fix Aswap Polymer atom/swap ${dtsmooth} ${Nsmooth} ${seedr} ${Temp} semi-grand yes types 1 2 3 mu 0.0 0.0 0.0
fix Aswap Polymer atom/swap 10000 ${Nsmooth} ${seedr} ${Temp} semi-grand yes types 1 2 3 mu 0.0 0.0 0.0
fix Aswap Polymer atom/swap 10000 50 ${seedr} ${Temp} semi-grand yes types 1 2 3 mu 0.0 0.0 0.0
fix Aswap Polymer atom/swap 10000 50 66 ${Temp} semi-grand yes types 1 2 3 mu 0.0 0.0 0.0
fix Aswap Polymer atom/swap 10000 50 66 1 semi-grand yes types 1 2 3 mu 0.0 0.0 0.0
variable Swaps equal f_Aswap[2]/1.0
variable Attempts equal f_Aswap[1]/1.0

####################################
####    DUMPS                 #######
####################################
##VMD
#dump 1 all custom 1000 ${folder}/${simname}.lammpstrj id mol type x y z
#dump_modify  1   format "%d %d %d %.5f %.5f %.5f"

##DAT
dump 2 all custom 100000 ${folder}/${simname}.* id type x y z ix iy iz
dump 2 all custom 100000 RW_Dt100000_E0.7/${simname}.* id type x y z ix iy iz
dump 2 all custom 100000 RW_Dt100000_E0.7/Poly.N500.RW1Dt100000E0.7.* id type x y z ix iy iz
#dump_modify   2   format "%d %d %.5f %.5f %.5f %d %d %d"

##CFG
#dump 3 all cfg 1000 ${folder}/CFG/${simname}.tot.*.cfg mass type xs ys zs id mol type
#dump_modify 3 element N C O Ca Xe

##XYZ
dump 4 all xyz 100000 XYZ_${simname}.xyz
dump 4 all xyz 100000 XYZ_Poly.N500.RW1Dt100000E0.7.xyz
dump_modify 4 element C O N Xe

###########################
thermo 10000
thermo_style   custom   step  temp  epair vol cpu v_Attempts v_Swaps
run 50000000
Neighbor list info ...
  update every 5 steps, delay 5 steps, check yes
  max neighbors/atom: 2000, page size: 100000
  master list distance cutoff = 3.1
  ghost atom cutoff = 3.1
  binsize = 1.55, bins = 78 78 78
  1 neighbor lists, perpetual/occasional/extra = 1 0 0
  (1) pair lj/cut, perpetual
      attributes: half, newton on
      pair build: half/bin/newton
      stencil: half/bin/3d/newton
      bin: standard
Per MPI rank memory allocation (min/avg/max) = 9.566 | 9.566 | 9.566 Mbytes
Step Temp E_pair Volume CPU v_Attempts v_Swaps 
       0   0.98519253    1.8914041      1728000            0            0            0 
   10000     1.021768   -0.2261579      1728000   0.84782195           50           39 
   20000   0.99569001  -0.22617304      1728000      1.65593          100           75 
   30000    1.0235342  -0.21205774      1728000    2.4531059          150          106 
   40000    1.0343247  -0.22345556      1728000     3.264221          200          143 
   50000   0.97696614  -0.22875404      1728000     4.054188          250          177 
   60000    1.0601243  -0.22934462      1728000    4.8482001          300          213 
   70000   0.97844523  -0.23655407      1728000    5.6323071          350          249 
   80000   0.93513094  -0.20846186      1728000    6.4162509          400          285 
   90000    1.0128942  -0.23030954      1728000    7.1992731          450          317 
  100000    1.0278561  -0.24658317      1728000    7.9953489          500          356 
  110000   0.99671343  -0.23588574      1728000     8.785269          550          393 
  120000    1.0042451  -0.23579833      1728000    9.5821891          600          434 
  130000   0.94051402  -0.24857325      1728000    10.384098          650          474 
  140000   0.98407112  -0.24952369      1728000    11.185236          700          508 
  150000    1.0305169  -0.26257662      1728000     12.00642          750          538 
  160000   0.94870652   -0.2523018      1728000    12.820602          800          572 
  170000    1.0730882  -0.25387802      1728000    13.627738          850          603 
  180000   0.96737352  -0.24679935      1728000    14.430289          900          630 
  190000    1.0080106  -0.25496644      1728000    15.234628          950          665 
  200000    1.0240115  -0.25621512      1728000     16.04512         1000          702 
  210000    1.0309082  -0.29807373      1728000    16.868414         1050          730 
  220000    1.0009219  -0.26844732      1728000    17.669856         1100          764 
  230000   0.97586639   -0.2729861      1728000    18.465214         1150          796 
  240000     1.009804  -0.27940093      1728000     19.26207         1200          832 
  250000    1.0624114   -0.2818355      1728000    20.062617         1250          860 
  260000    1.0091215  -0.28987195      1728000     20.88216         1300          891 
  270000    1.0171276  -0.29374335      1728000    21.687277         1350          923 
  280000     1.004796  -0.27759865      1728000    22.488255         1400          955 
  290000    1.0991688  -0.28559865      1728000    23.287301         1450          990 
  300000   0.96186441   -0.2875172      1728000    24.101257         1500         1023 
  310000   0.93846425  -0.29098208      1728000    24.906229         1550         1054 
  320000    1.0145204  -0.29890905      1728000    25.711279         1600         1087 
  330000    1.0165177  -0.28667329      1728000    26.511162         1650         1124 
  340000    1.0288765  -0.27011172      1728000    27.315239         1700         1159 
  350000    1.0090575  -0.27296454      1728000    28.116263         1750         1192 
  360000    1.0215461  -0.25335253      1728000     28.92831         1800         1225 
  370000   0.99016073  -0.27156208      1728000    29.728038         1850         1261 
  380000   0.95822782  -0.27217614      1728000    30.535003         1900         1295 
  390000   0.93605888  -0.24619062      1728000    31.335285         1950         1332 
  400000    1.0748196  -0.26691968      1728000    32.193245         2000         1372 
  410000   0.90717478  -0.26028798      1728000    32.991335         2050         1407 
  420000     1.037897  -0.26726803      1728000    33.787125         2100         1445 
  430000   0.99326975  -0.24074809      1728000    34.581186         2150         1479 
  440000    1.0287326  -0.24207931      1728000    35.374202         2200         1512 
  450000   0.97668376  -0.25299844      1728000    36.164237         2250         1550 
  460000   0.99091326  -0.26752375      1728000    37.065187         2300         1585 
  470000    1.0119857  -0.26449918      1728000    37.910313         2350         1621 
  480000   0.94978464  -0.24813891      1728000    38.777268         2400         1654 
  490000     1.086413  -0.27615427      1728000    39.628259         2450         1690 
  500000    1.0102998  -0.26756618      1728000    40.466106         2500         1714 
  510000     1.042377  -0.28037543      1728000    41.319918         2550         1747 
  520000   0.98742392  -0.28697899      1728000    42.170137         2600         1776 
  530000   0.99247276  -0.28615057      1728000    42.979398         2650         1810 
  540000   0.97151918  -0.30863937      1728000    43.799155         2700         1839 
  550000    1.0207657  -0.29175764      1728000    44.614339         2750         1864 
  560000   0.93697757   -0.2939136      1728000    45.431259         2800         1894 
  570000     1.095648   -0.2850679      1728000    46.284086         2850         1922 
  580000   0.99200481  -0.28715393      1728000     47.11436         2900         1954 
  590000    1.0579266  -0.29595431      1728000     47.92625         2950         1989 
  600000   0.99798458  -0.30194126      1728000    48.740151         3000         2017 
  610000   0.99077086  -0.30269094      1728000    49.756519         3050         2049 
  620000   0.96410891  -0.29849564      1728000    50.589668         3100         2079 
  630000   0.97217145  -0.29297896      1728000    51.397015         3150         2116 
  640000   0.99969673  -0.29805686      1728000     52.20917         3200         2145 
  650000   0.98545488   -0.2952114      1728000    53.014355         3250         2177 
  660000   0.99531519  -0.31824846      1728000    53.817245         3300         2208 
  670000    1.0378183  -0.32326187      1728000    54.641303         3350         2236 
  680000   0.97771124  -0.32712339      1728000    55.463273         3400         2269 
  690000   0.96487274  -0.32899785      1728000    56.269097         3450         2305 
  700000    0.9325957  -0.33148149      1728000    57.078133         3500         2336 
  710000    1.0558234  -0.31215311      1728000    57.877278         3550         2369 
  720000    1.1128889   -0.3158355      1728000    58.677335         3600         2397 
  730000   0.95962923  -0.30591196      1728000     59.48722         3650         2426 
  740000    1.0042718  -0.28291697      1728000    60.294223         3700         2456 
  750000      1.03791  -0.29538223      1728000    61.099577         3750         2491 
  760000    0.9731157  -0.27851027      1728000    61.924337         3800         2525 
  770000    1.0878743  -0.28192102      1728000    62.716393         3850         2552 
  780000   0.95368017  -0.29979419      1728000    63.510279         3900         2585 
  790000    1.0224903  -0.29616533      1728000    64.304365         3950         2622 
  800000   0.94963462  -0.26696107      1728000    65.105247         4000         2659 
  810000   0.96714851   -0.2844618      1728000    65.984863         4050         2691 
  820000   0.98571259  -0.29290316      1728000    66.849553         4100         2722 
  830000   0.94547815  -0.30001034      1728000    67.650374         4150         2751 
  840000    1.0546627  -0.26139732      1728000    68.459344         4200         2781 
  850000    1.0401189  -0.28435369      1728000    69.270322         4250         2814 
  860000   0.99764971  -0.28294006      1728000    70.091188         4300         2842 
  870000   0.98822648  -0.26450183      1728000    70.915981         4350         2881 
  880000    1.0184073  -0.29319104      1728000    71.723264         4400         2911 
  890000    1.0537028  -0.29073203      1728000      72.5283         4450         2946 
  900000      1.02777  -0.29399791      1728000    73.328342         4500         2986 
  910000     1.043277  -0.28606917      1728000    74.121272         4550         3023 
  920000   0.93458595  -0.28272451      1728000    74.932288         4600         3052 
  930000   0.95087732  -0.27751449      1728000    75.736205         4650         3086 
  940000    1.0306021  -0.28253538      1728000    76.552115         4700         3119 
  950000    1.0457108  -0.26867366      1728000     77.38226         4750         3150 
  960000   0.95507484  -0.25761292      1728000     78.17531         4800         3181 
  970000   0.95024948  -0.23964107      1728000    78.959366         4850         3220 
  980000    1.0557156  -0.26506406      1728000    79.754264         4900         3257 
  990000   0.95458292  -0.26107316      1728000    80.566223         4950         3293 
 1000000   0.97414838   -0.2903471      1728000    81.386211         5000         3326 
 1010000   0.96349908  -0.27459549      1728000    82.208222         5050         3355 
 1020000   0.96964541  -0.28473972      1728000    82.999409         5100         3389 
 1030000    1.0216882  -0.26925346      1728000     83.80619         5150         3423 
 1040000    1.0224666  -0.27698575      1728000    84.614316         5200         3454 
 1050000   0.93381577  -0.28639673      1728000    85.421368         5250         3488 
 1060000    1.0009084  -0.27696573      1728000    86.214283         5300         3519 
 1070000   0.98006148   -0.2952112      1728000    87.018219         5350         3547 
 1080000   0.99458191  -0.28754595      1728000    87.822391         5400         3584 
 1090000      1.00858  -0.29316323      1728000    88.622308         5450         3613 
 1100000    1.0192801  -0.28771271      1728000    89.440195         5500         3645 
 1110000   0.94117391  -0.28448398      1728000    90.256223         5550         3677 
 1120000   0.97635855  -0.28566024      1728000     91.06328         5600         3709 
 1130000   0.98563831  -0.29003929      1728000    91.858065         5650         3747 
 1140000   0.99350162   -0.2879533      1728000    92.653373         5700         3783 
 1150000    1.0260739  -0.27563569      1728000    93.440434         5750         3813 
 1160000   0.98184106  -0.27176019      1728000    94.233347         5800         3848 
 1170000    1.0096451  -0.27677541      1728000    95.030258         5850         3882 
 1180000   0.97355758  -0.27025132      1728000    95.817824         5900         3917 
 1190000   0.99927455   -0.2799756      1728000    96.646475         5950         3952 
 1200000   0.97962385  -0.26448321      1728000    97.454636         6000         3986 
 1210000    1.0154108  -0.26821923      1728000    98.271309         6050         4019 
 1220000   0.98306669  -0.26540719      1728000    99.062652         6100         4054 
 1230000    1.0146852  -0.28447633      1728000    99.855639         6150         4094 
 1240000   0.93237057  -0.27734015      1728000    100.65245         6200         4122 
 1250000    1.0080144   -0.2765495      1728000    101.46629         6250         4156 
 1260000   0.96611706   -0.2950012      1728000    102.25875         6300         4190 
 1270000     1.039402  -0.27514401      1728000    103.06521         6350         4225 
 1280000   0.97457145  -0.27099508      1728000    103.85963         6400         4259 
 1290000   0.93830074  -0.25858842      1728000    104.67191         6450         4290 
 1300000   0.98331167  -0.26015373      1728000    105.53339         6500         4320 
 1310000    1.0719419  -0.26051421      1728000    106.33283         6550         4349 
 1320000    1.0186402  -0.26434284      1728000     107.1324         6600         4377 
 1330000   0.95642803  -0.27044902      1728000    107.92435         6650         4405 
 1340000    0.9903027  -0.25923459      1728000    108.71837         6700         4435 
 1350000    1.0542912  -0.25627748      1728000     109.5093         6750         4466 
 1360000    1.0023918  -0.25149704      1728000    110.30445         6800         4498 
 1370000    1.0881542  -0.26652264      1728000     111.1071         6850         4532 
 1380000    1.0190951   -0.2834586      1728000    111.92013         6900         4566 
 1390000   0.98307242   -0.3255864      1728000     112.7442         6950         4596 
 1400000   0.96601617  -0.32580258      1728000    113.56342         7000         4624 
 1410000   0.96534214  -0.33078445      1728000    114.37723         7050         4654 
 1420000   0.99999761  -0.31789779      1728000    115.18638         7100         4685 
 1430000    1.0378486   -0.3162704      1728000    115.98641         7150         4714 
 1440000    1.0144125  -0.32812873      1728000    116.78335         7200         4746 
 1450000   0.99804017  -0.30748991      1728000    117.59139         7250         4777 
 1460000   0.94877854  -0.32134694      1728000    118.38584         7300         4805 
 1470000   0.96672291   -0.2957071      1728000    119.19205         7350         4835 
 1480000    1.0285794  -0.28127629      1728000    119.99648         7400         4872 
 1490000   0.99839109  -0.28638198      1728000    120.80751         7450         4902 
 1500000    0.9728136   -0.2954028      1728000    121.64848         7500         4936 
 1510000    1.0079084  -0.26551357      1728000    122.46842         7550         4968 
 1520000     1.003762  -0.26683517      1728000    123.28422         7600         5004 
 1530000    1.0114064  -0.27349998      1728000     124.0992         7650         5045 
 1540000   0.97392303  -0.25357672      1728000    124.90051         7700         5073 
 1550000   0.99856044  -0.26504107      1728000    125.70033         7750         5108 
 1560000    1.0094062   -0.2570853      1728000    126.50743         7800         5146 
 1570000    1.0119491  -0.27233364      1728000    127.31949         7850         5181 
 1580000      1.01622  -0.28374838      1728000    128.12043         7900         5212 
 1590000    1.0498489  -0.28869243      1728000    128.92119         7950         5244 
 1600000    1.0100533    -0.287859      1728000    129.72639         8000         5276 
 1610000   0.95468443  -0.27439264      1728000    130.53938         8050         5308 
 1620000   0.98402238  -0.26523404      1728000    131.33121         8100         5339 
 1630000    1.0124937  -0.26066976      1728000    132.12546         8150         5373 
 1640000   0.97459099  -0.25653354      1728000    132.91571         8200         5409 
 1650000     1.006328  -0.28319125      1728000     133.7169         8250         5440 
 1660000    1.0340962  -0.24624107      1728000    134.50648         8300         5475 
 1670000    0.9749124  -0.24176633      1728000    135.30818         8350         5508 
 1680000    1.0120676  -0.26336362      1728000    136.10549         8400         5547 
 1690000    1.0157707  -0.25023748      1728000    136.90655         8450         5579 
 1700000     1.018972  -0.25464171      1728000    137.72868         8500         5611 
 1710000   0.95982233   -0.2599631      1728000    138.53455         8550         5645 
 1720000   0.96997348  -0.25928309      1728000    139.33434         8600         5678 
 1730000    1.0162761   -0.2715723      1728000    140.13074         8650         5719 
 1740000   0.94115029  -0.27155696      1728000    140.93651         8700         5755 
 1750000    1.0084625   -0.2825101      1728000    141.74251         8750         5790 
 1760000   0.90013399  -0.25165462      1728000    142.55038         8800         5824 
 1770000    1.0242218  -0.26696504      1728000    143.35044         8850         5859 
 1780000    1.0129662   -0.2674786      1728000    144.19532         8900         5897 
 1790000    1.0560823   -0.2666882      1728000    145.00909         8950         5935 
 1800000   0.93765624  -0.24761068      1728000    145.81051         9000         5970 
 1810000     1.027479  -0.24243663      1728000    146.61184         9050         6007 
 1820000    0.9986885  -0.24035296      1728000    147.42232         9100         6037 
 1830000    0.9897919  -0.23413054      1728000    148.22252         9150         6070 
 1840000   0.99154689   -0.2375158      1728000    149.05865         9200         6103 
 1850000   0.97687426  -0.24846937      1728000    149.85345         9250         6141 
 1860000    1.0129418  -0.24523369      1728000    150.66037         9300         6176 
 1870000    1.0172428   -0.2497078      1728000    151.44739         9350         6212 
 1880000   0.99322149  -0.27033267      1728000    152.24054         9400         6242 
 1890000   0.98313294  -0.27061922      1728000    153.03331         9450         6272 
 1900000    1.0976387  -0.26564879      1728000     153.8385         9500         6303 
 1910000    1.0035576  -0.25690185      1728000    154.62639         9550         6337 
 1920000    1.0039324   -0.2720103      1728000    155.42643         9600         6374 
 1930000    1.0444222   -0.2617681      1728000    156.23153         9650         6410 
 1940000    1.0149414   -0.2548307      1728000    157.01236         9700         6448 
 1950000    1.0176955  -0.24519775      1728000    157.81638         9750         6477 
 1960000   0.99191623  -0.25075122      1728000    158.64344         9800         6510 
 1970000    1.0101734  -0.26147982      1728000    159.46055         9850         6548 
 1980000    1.0551829   -0.2490406      1728000    160.26024         9900         6582 
 1990000    1.0266367  -0.25887834      1728000    161.08122         9950         6614 
 2000000    1.0189633  -0.24143516      1728000    161.90141        10000         6646 
 2010000   0.92758302  -0.26854308      1728000    162.72252        10050         6688 
 2020000    1.0325164  -0.27825087      1728000    163.53234        10100         6727 
 2030000    1.0215564    -0.258699      1728000    164.34247        10150         6757 
 2040000   0.98118211  -0.27979331      1728000    165.13752        10200         6790 
 2050000   0.93992773  -0.26359244      1728000    165.95796        10250         6831 
 2060000    1.0003837  -0.25179431      1728000    166.78252        10300         6871 
 2070000    1.0287285  -0.26092948      1728000    167.58945        10350         6902 
 2080000     1.029049  -0.25566435      1728000    168.40063        10400         6939 
 2090000   0.92932298  -0.24385412      1728000    169.20374        10450         6972 
 2100000   0.99071805  -0.24163474      1728000    170.00939        10500         7008 
 2110000     1.006269  -0.24023354      1728000    170.79946        10550         7042 
 2120000   0.99953204  -0.25631906      1728000    171.59832        10600         7077 
 2130000    1.0365657  -0.24862245      1728000    172.39835        10650         7115 
 2140000   0.98853909  -0.23291335      1728000    173.19275        10700         7155 
 2150000    1.0567131  -0.22202524      1728000    173.98933        10750         7187 
 2160000   0.99911309  -0.22355179      1728000    174.81637        10800         7228 
 2170000    1.0609374  -0.24508987      1728000    175.65437        10850         7268 
 2180000   0.95415859  -0.25884901      1728000    176.48533        10900         7307 
 2190000   0.99656962  -0.25108621      1728000    177.29746        10950         7341 
 2200000    1.0095772  -0.25024264      1728000    178.11329        11000         7369 
 2210000   0.95408589  -0.25305284      1728000    178.91556        11050         7404 
 2220000    1.0319389  -0.25253682      1728000    179.71337        11100         7433 
 2230000    1.0231629  -0.23664279      1728000    180.53922        11150         7467 
 2240000    1.0169459  -0.24140606      1728000    181.35342        11200         7498 
 2250000   0.96465241  -0.26002165      1728000    182.16626        11250         7534 
 2260000    0.9757214  -0.26510599      1728000    182.97244        11300         7573 
 2270000   0.96872903  -0.26064073      1728000     183.7695        11350         7605 
 2280000    1.0196234  -0.28087356      1728000    184.57631        11400         7637 
 2290000   0.98675352  -0.26558144      1728000    185.38347        11450         7666 
 2300000    1.0502171  -0.23171211      1728000    186.18555        11500         7704 
 2310000   0.93785906  -0.24597734      1728000    186.98331        11550         7742 
 2320000   0.95127116  -0.23905525      1728000    187.77259        11600         7782 
 2330000   0.95568665  -0.27199031      1728000     188.5775        11650         7816 
 2340000   0.97005841  -0.25271026      1728000    189.37643        11700         7847 
 2350000    1.1007117  -0.25605926      1728000    190.16934        11750         7879 
 2360000    1.0548776  -0.24287614      1728000    191.00346        11800         7915 
 2370000   0.95970135  -0.24530046      1728000    191.81644        11850         7951 
 2380000   0.98034334  -0.23987566      1728000     192.6403        11900         7987 
 2390000   0.95923507  -0.23926802      1728000    193.47453        11950         8025 
 2400000   0.98691591  -0.25112249      1728000    194.28152        12000         8058 
 2410000    1.0074437   -0.2541308      1728000    195.11848        12050         8091 
 2420000    1.0028808  -0.26477123      1728000    195.91345        12100         8130 
 2430000   0.99315305  -0.24976471      1728000    196.71854        12150         8172 
 2440000    1.0150747   -0.2531999      1728000    197.52656        12200         8207 
 2450000    1.0369732  -0.25723401      1728000     198.3115        12250         8243 
 2460000    1.0257712  -0.24373437      1728000    199.10552        12300         8276 
 2470000   0.94790414  -0.25611074      1728000    199.90159        12350         8313 
 2480000    1.0352848  -0.24393171      1728000    200.69229        12400         8351 
 2490000    1.0287234  -0.23856976      1728000    201.48055        12450         8391 
 2500000   0.98646276  -0.25009113      1728000    202.28348        12500         8430 
 2510000   0.99827688   -0.2577409      1728000    203.07207        12550         8467 
 2520000   0.96360209  -0.24676477      1728000    203.86055        12600         8502 
 2530000   0.98047388  -0.24286819      1728000    204.65053        12650         8531 
 2540000    1.0039412   -0.2385896      1728000    205.44846        12700         8566 
 2550000   0.95244692  -0.25066329      1728000    206.24838        12750         8598 
 2560000    1.0648979  -0.25788683      1728000    207.05951        12800         8628 
 2570000    1.0248698  -0.25574556      1728000    207.87251        12850         8663 
 2580000    0.9671688  -0.25218919      1728000     208.6706        12900         8695 
 2590000   0.97991336  -0.26240055      1728000    209.47751        12950         8738 
 2600000    1.0312606  -0.25918396      1728000    210.28453        13000         8769 
 2610000   0.99700477  -0.27028985      1728000    211.08678        13050         8803 
 2620000   0.99853307  -0.25651843      1728000    211.88601        13100         8842 
 2630000    1.0161292  -0.26364653      1728000    212.68357        13150         8876 
 2640000    1.1200834  -0.25465564      1728000    213.47885        13200         8907 
 2650000    1.0146898    -0.243408      1728000    214.28351        13250         8940 
 2660000   0.99764767  -0.23487724      1728000    215.07241        13300         8974 
 2670000   0.97260245  -0.24420656      1728000    215.85961        13350         9014 
 2680000   0.99981756  -0.21807893      1728000    216.65149        13400         9051 
 2690000    1.0357332  -0.23220504      1728000    217.44748        13450         9088 
 2700000   0.99444934  -0.23703784      1728000    218.25348        13500         9125 
 2710000     1.018736  -0.23365461      1728000    219.04633        13550         9156 
 2720000   0.97924077  -0.24289732      1728000    219.84257        13600         9191 
 2730000    0.9945382  -0.22730529      1728000    220.63847        13650         9226 
 2740000   0.97089076  -0.22045963      1728000    221.42651        13700         9265 
 2750000   0.91454929  -0.22899424      1728000    222.21762        13750         9297 
 2760000    1.0324218  -0.25067669      1728000    223.01744        13800         9332 
 2770000    1.0048358  -0.24695882      1728000    223.81358        13850         9367 
 2780000   0.96032661  -0.27113917      1728000    224.61557        13900         9400 
 2790000     1.032987  -0.26254848      1728000    225.41831        13950         9428 
 2800000    1.0216211  -0.26807949      1728000    226.22635        14000         9458 
 2810000   0.97391085  -0.24297528      1728000    227.02163        14050         9495 
 2820000   0.98323941  -0.27563301      1728000    227.81843        14100         9530 
 2830000     1.048451   -0.2603906      1728000    228.62653        14150         9567 
 2840000   0.99202329  -0.25264835      1728000    229.42961        14200         9603 
 2850000   0.95964986  -0.25213843      1728000    230.22853        14250         9641 
 2860000    1.0138774  -0.25413174      1728000    231.03741        14300         9676 
 2870000    1.0222841  -0.26089163      1728000    231.86029        14350         9711 
 2880000    0.9373617  -0.25452632      1728000    232.67156        14400         9745 
 2890000   0.98874597  -0.25248171      1728000    233.45554        14450         9785 
 2900000    1.0002678  -0.27348952      1728000     234.2526        14500         9820 
 2910000   0.99432941  -0.25197456      1728000    235.04563        14550         9855 
 2920000   0.95619851  -0.25881213      1728000    235.83356        14600         9890 
 2930000    1.0306425  -0.25565368      1728000    236.63158        14650         9924 
 2940000   0.98583529  -0.24494183      1728000    237.43643        14700         9953 
 2950000    1.0101831  -0.24103247      1728000    238.24047        14750         9986 
 2960000    0.9384942  -0.26278418      1728000    239.04561        14800        10019 
 2970000    1.0167221  -0.26410128      1728000     239.8409        14850        10051 
 2980000    1.0246781   -0.2435606      1728000    240.65121        14900        10085 
 2990000   0.90734669  -0.24826651      1728000    241.45576        14950        10126 
 3000000    1.0000028  -0.23992246      1728000    242.26803        15000        10154 
 3010000   0.99658814  -0.24836727      1728000    243.06036        15050        10185 
 3020000    1.0247745  -0.25243991      1728000    243.84839        15100        10217 
 3030000    1.0226502  -0.24263516      1728000     244.6415        15150        10247 
 3040000    1.0132064  -0.24207092      1728000    245.42993        15200        10281 
 3050000   0.97573341  -0.25041933      1728000    246.22374        15250        10309 
 3060000   0.98076635  -0.25302444      1728000     247.0215        15300        10345 
 3070000    1.0537189  -0.23428832      1728000    247.82176        15350        10375 
 3080000    1.0024075  -0.25391154      1728000    248.61387        15400        10410 
 3090000   0.91678542  -0.25781586      1728000    249.41122        15450        10439 
 3100000   0.99890982  -0.25902147      1728000    250.21503        15500        10469 
 3110000   0.91674602  -0.28379512      1728000    251.01334        15550        10506 
 3120000    1.0275095  -0.28327667      1728000    251.81257        15600        10546 
 3130000    1.0078182  -0.27942268      1728000    252.61259        15650        10574 
 3140000    1.0334792  -0.27462279      1728000    253.41156        15700        10603 
 3150000    1.0226145  -0.26512504      1728000    254.20351        15750        10635 
 3160000   0.98314334  -0.28961329      1728000    255.00052        15800        10668 
 3170000   0.94176668  -0.29481643      1728000    255.79323        15850        10697 
 3180000   0.97314589  -0.29406362      1728000    256.59449        15900        10724 
 3190000   0.99212153  -0.28645931      1728000    257.39155        15950        10754 
 3200000   0.99357639   -0.2807527      1728000    258.18846        16000        10792 
 3210000    0.9594787  -0.30481698      1728000    258.99851        16050        10818 
 3220000   0.96199345  -0.28047759      1728000    259.80756        16100        10850 
 3230000    1.0427455  -0.30069102      1728000    260.60546        16150        10882 
 3240000    1.0039741  -0.29122249      1728000    261.40253        16200        10914 
 3250000    1.0774091  -0.28831043      1728000    262.20953        16250        10945 
 3260000    1.0263751  -0.30315422      1728000    263.01546        16300        10975 
 3270000    1.0401571  -0.28613497      1728000    263.82435        16350        11013 
 3280000    1.0426115   -0.2818954      1728000    264.63728        16400        11049 
 3290000    1.0206284  -0.28359008      1728000    265.43258        16450        11078 
 3300000    1.0287522  -0.28274515      1728000    266.24148        16500        11110 
 3310000    1.0307169   -0.2920114      1728000    267.04253        16550        11140 
 3320000    1.0185523   -0.2809182      1728000     267.8417        16600        11173 
 3330000   0.99306674  -0.27526521      1728000    268.64435        16650        11206 
 3340000     0.968945  -0.26498119      1728000     269.4455        16700        11239 
 3350000     1.011703  -0.26161806      1728000    270.27109        16750        11269 
 3360000   0.98727751  -0.26968239      1728000    271.09543        16800        11299 
 3370000   0.99125164  -0.28282455      1728000    271.97754        16850        11333 
 3380000   0.98815712  -0.27070351      1728000    272.83465        16900        11368 
 3390000    1.0138716  -0.27554038      1728000    273.70476        16950        11393 
 3400000     1.012426  -0.27162685      1728000    274.52549        17000        11426 
 3410000    1.0061477  -0.27741295      1728000    275.34065        17050        11455 
 3420000   0.94799397  -0.27227359      1728000    276.13185        17100        11493 
 3430000     1.075048  -0.26996219      1728000    276.92613        17150        11529 
 3440000    1.0242309  -0.26646005      1728000    277.73077        17200        11558 
 3450000   0.98193938  -0.23310724      1728000    278.54395        17250        11593 
 3460000    1.0247615  -0.26935911      1728000    279.34277        17300        11626 
 3470000    1.0183168  -0.27538767      1728000    280.14794        17350        11663 
 3480000   0.99136623  -0.29120467      1728000    280.95455        17400        11697 
 3490000   0.94920585  -0.27731729      1728000    281.75458        17450        11729 
 3500000   0.99403329  -0.29487688      1728000     282.5655        17500        11766 
 3510000   0.99364599   -0.3057847      1728000    283.37729        17550        11802 
 3520000   0.95830447  -0.29487515      1728000    284.18157        17600        11829 
 3530000    1.0132666   -0.3037572      1728000    284.97636        17650        11867 
 3540000    0.9652037   -0.2891604      1728000    285.78439        17700        11905 
 3550000    1.0040361  -0.27607628      1728000     286.5925        17750        11930 
 3560000   0.99829692  -0.29637659      1728000    287.39259        17800        11962 
 3570000    1.0779769  -0.28943983      1728000    288.19827        17850        11996 
 3580000    1.0276979   -0.2916164      1728000    288.99742        17900        12028 
 3590000     1.062244   -0.2791642      1728000    289.81757        17950        12058 
 3600000   0.95412787  -0.28460146      1728000    290.64829        18000        12093 
 3610000   0.99814222  -0.28070115      1728000    291.51373        18050        12128 
 3620000    1.0221243  -0.27535788      1728000    292.32014        18100        12163 
 3630000    1.0364276  -0.26158997      1728000    293.11678        18150        12196 
 3640000     1.027478  -0.28023677      1728000     293.9081        18200        12232 
 3650000   0.99851896  -0.25435842      1728000    294.82015        18250        12267 
 3660000    1.0129371   -0.2737643      1728000    295.64362        18300        12305 
 3670000   0.99099256  -0.26238578      1728000    296.42355        18350        12342 
 3680000    1.0662727  -0.25223796      1728000    297.20465        18400        12380 
 3690000    1.0183484  -0.25237683      1728000    297.98198        18450        12417 
 3700000    1.0313069  -0.27294419      1728000    298.78469        18500        12451 
 3710000   0.99528587  -0.27752241      1728000     299.5679        18550        12489 
 3720000   0.97935071  -0.28378454      1728000    300.37724        18600        12525 
 3730000     1.012032  -0.28730974      1728000    301.19541        18650        12559 
 3740000    1.0089761  -0.27660181      1728000    302.00358        18700        12599 
 3750000    1.0276837  -0.25749419      1728000     302.7926        18750        12637 
 3760000    1.0046023  -0.25692991      1728000    303.58972        18800        12670 
 3770000    1.0141179  -0.25194455      1728000    304.38951        18850        12700 
 3780000   0.96118397  -0.25184739      1728000    305.17479        18900        12737 
 3790000   0.97340718  -0.25133221      1728000     305.9623        18950        12773 
 3800000    1.0244698   -0.2603362      1728000    306.76654        19000        12813 
 3810000    1.0371435  -0.25448902      1728000    307.56148        19050        12848 
 3820000    1.0364596  -0.24657222      1728000    308.34855        19100        12882 
 3830000    1.0725183  -0.24490832      1728000    309.13258        19150        12921 
 3840000   0.98327962  -0.25286208      1728000    310.02007        19200        12954 
 3850000    1.0083294  -0.28107994      1728000    310.83256        19250        12988 
 3860000    0.9834455  -0.28207454      1728000    311.67753        19300        13025 
 3870000   0.92527715  -0.28062591      1728000    312.48853        19350        13066 
 3880000    1.0005349   -0.2818552      1728000    313.34245        19400        13101 
 3890000    1.0240255  -0.26551684      1728000    314.13166        19450        13131 
 3900000   0.96593996   -0.2796428      1728000    314.93615        19500        13163 
 3910000     1.025145  -0.26747766      1728000    315.72848        19550        13200 
 3920000    1.0361909  -0.26702483      1728000    316.51654        19600        13240 
 3930000    1.0594093  -0.26960324      1728000     317.3066        19650        13271 
 3940000   0.94921595  -0.27654582      1728000    318.08662        19700        13314 
 3950000    1.0201215    -0.274059      1728000    318.89258        19750        13347 
 3960000   0.91944498  -0.27216599      1728000     319.6845        19800        13381 
 3970000   0.98449723  -0.29128733      1728000    320.47053        19850        13412 
 3980000   0.98224601  -0.25890398      1728000    321.25763        19900        13446 
 3990000    1.0027582  -0.25957972      1728000    322.04563        19950        13478 
 4000000    1.0134107  -0.26904268      1728000    322.85554        20000        13508 
 4010000   0.97288084  -0.27841392      1728000    323.64176        20050        13548 
 4020000   0.97401448   -0.2608177      1728000    324.42953        20100        13580 
 4030000   0.94471042  -0.26932079      1728000     325.2256        20150        13613 
 4040000    1.0045973  -0.26358199      1728000     326.0135        20200        13646 
 4050000   0.98358128  -0.27691291      1728000    326.80345        20250        13678 
 4060000    1.0519238  -0.27866965      1728000    327.59865        20300        13717 
 4070000    0.9878319  -0.26547884      1728000     328.3887        20350        13750 
 4080000   0.97365785   -0.2740724      1728000    329.18463        20400        13781 
 4090000    0.9469801  -0.27905005      1728000    329.98669        20450        13815 
 4100000    1.0251863  -0.25733498      1728000    330.79262        20500        13851 
 4110000    1.0034605  -0.27142906      1728000    331.58158        20550        13888 
 4120000   0.94083202  -0.27628004      1728000    332.38339        20600        13920 
 4130000    1.0306469  -0.26071147      1728000    333.19342        20650        13957 
 4140000   0.98129281  -0.25601468      1728000    333.99748        20700        13989 
 4150000   0.99542579  -0.26870331      1728000    334.87231        20750        14026 
 4160000   0.95326334  -0.26009694      1728000    335.70546        20800        14067 
 4170000    1.0116922  -0.24515199      1728000    336.51661        20850        14103 
 4180000    1.0062314  -0.26679625      1728000    337.30762        20900        14142 
 4190000   0.98057853  -0.28430444      1728000    338.10479        20950        14172 
 4200000     1.004847  -0.26991762      1728000    338.91197        21000        14206 
 4210000   0.92226434  -0.25405946      1728000    339.71765        21050        14241 
 4220000   0.97944036  -0.26324178      1728000    340.50343        21100        14273 
 4230000    1.0258177  -0.25831289      1728000    341.31663        21150        14310 
 4240000   0.90757336  -0.25655431      1728000    342.12764        21200        14342 
 4250000    1.0363476  -0.26079706      1728000    342.93465        21250        14376 
 4260000   0.92097126  -0.25334921      1728000    343.74155        21300        14408 
 4270000    1.0272092  -0.25336959      1728000    344.53686        21350        14446 
 4280000    1.0292868  -0.24311814      1728000    345.32974        21400        14489 
 4290000    1.0038551  -0.23030555      1728000    346.12493        21450        14524 
 4300000    1.0099938  -0.24137391      1728000    346.92963        21500        14553 
 4310000    1.0181149   -0.2478081      1728000    347.72568        21550        14592 
 4320000    1.0561973  -0.26893794      1728000    348.51962        21600        14627 
 4330000   0.98690863  -0.26366701      1728000    349.33649        21650        14654 
 4340000    1.0703628  -0.25892851      1728000    350.14253        21700        14686 
 4350000    0.9595745   -0.2744603      1728000    350.94244        21750        14721 
 4360000   0.99699015  -0.25718793      1728000    351.73939        21800        14756 
 4370000   0.95406103  -0.27380967      1728000    352.52358        21850        14790 
 4380000   0.95727393  -0.27352596      1728000    353.31351        21900        14828 
 4390000   0.97265688  -0.27654648      1728000    354.10556        21950        14868 
 4400000    1.0199321  -0.25820495      1728000    354.90934        22000        14897 
 4410000   0.99963392  -0.26948793      1728000    355.70752        22050        14928 
 4420000   0.99687485  -0.27072712      1728000     356.4947        22100        14958 
 4430000   0.91791168  -0.26258321      1728000    357.28542        22150        14991 
 4440000    1.0596076   -0.2545305      1728000    358.06665        22200        15028 
 4450000    1.0159208  -0.26203625      1728000    358.85261        22250        15057 
 4460000    1.0194451  -0.25593859      1728000    359.64551        22300        15097 
 4470000    1.0004465  -0.24413939      1728000    360.44671        22350        15134 
 4480000   0.94728861  -0.26554274      1728000    361.23364        22400        15173 
 4490000   0.93736177  -0.26730546      1728000    362.02266        22450        15211 
 4500000    1.0119182  -0.27721558      1728000     362.8476        22500        15242 
 4510000   0.97071259  -0.27533696      1728000    363.66461        22550        15274 
 4520000    1.0074068  -0.27824197      1728000    364.47265        22600        15305 
 4530000   0.96328083  -0.28756975      1728000    365.27342        22650        15341 
 4540000   0.99843231  -0.30675725      1728000    366.07462        22700        15374 
 4550000   0.98329439  -0.30001736      1728000    366.87982        22750        15411 
 4560000   0.94354539  -0.28325008      1728000    367.68988        22800        15439 
 4570000   0.90549638  -0.29101561      1728000    368.50572        22850        15470 
 4580000   0.99381635  -0.25674525      1728000     369.3096        22900        15506 
 4590000   0.99675149  -0.25394337      1728000     370.1164        22950        15545 
 4600000    1.0229577  -0.23175879      1728000    371.01867        23000        15575 
 4610000   0.97144761  -0.24374094      1728000    371.84461        23050        15609 
 4620000    1.0176834   -0.2397554      1728000    372.63063        23100        15651 
 4630000   0.99988713  -0.25008623      1728000    373.40947        23150        15690 
 4640000   0.93961906  -0.24751888      1728000    374.20468        23200        15733 
 4650000    1.0132761  -0.23808677      1728000    375.11775        23250        15761 
 4660000   0.99308264  -0.23106312      1728000    375.91607        23300        15798 
 4670000   0.96474206  -0.24790683      1728000    376.70267        23350        15835 
 4680000    1.0182024  -0.24010197      1728000    377.49061        23400        15878 
 4690000   0.95324302  -0.24304339      1728000    378.27267        23450        15908 
 4700000   0.96858796  -0.25152168      1728000     379.0707        23500        15946 
 4710000    1.0017821  -0.25069487      1728000    379.85464        23550        15982 
 4720000   0.98456003  -0.25188944      1728000    380.64567        23600        16011 
 4730000    0.9562421  -0.25057219      1728000     381.4285        23650        16050 
 4740000   0.99906078  -0.22430707      1728000     382.2047        23700        16091 
 4750000    1.0185769  -0.25128874      1728000    382.99059        23750        16127 
 4760000   0.99513049  -0.22555165      1728000    383.79633        23800        16160 
 4770000    1.0296454  -0.21700122      1728000    384.57572        23850        16199 
 4780000   0.96125284  -0.24634923      1728000     385.3544        23900        16231 
 4790000    1.0260647  -0.23208463      1728000    386.14073        23950        16269 
 4800000   0.98578418  -0.26430539      1728000     386.9335        24000        16305 
 4810000   0.99710334  -0.26758243      1728000    387.72469        24050        16337 
 4820000     1.085269  -0.25992134      1728000    388.51859        24100        16371 
 4830000   0.97828643  -0.25491047      1728000    389.30768        24150        16400 
 4840000     1.003287  -0.25016632      1728000    390.09259        24200        16433 
 4850000    1.0086378  -0.25755265      1728000    390.87498        24250        16468 
 4860000   0.99380343  -0.25035888      1728000    391.66916        24300        16504 
 4870000   0.99741817  -0.27997699      1728000    392.47061        24350        16536 
 4880000    1.0360032  -0.28185466      1728000    393.27668        24400        16571 
 4890000    1.0275084  -0.27330521      1728000    394.09756        24450        16600 
 4900000   0.95112967  -0.27472873      1728000    394.91468        24500        16638 
 4910000    1.0391614  -0.25175912      1728000    395.72166        24550        16669 
 4920000    1.0263668  -0.24310095      1728000    396.51568        24600        16701 
 4930000    1.0661622   -0.2611876      1728000    397.32056        24650        16733 
 4940000    1.0566371  -0.24688065      1728000    398.12461        24700        16767 
 4950000    1.0144881  -0.27125942      1728000    398.91756        24750        16800 
 4960000    1.0190885    -0.271885      1728000     399.7096        24800        16835 
 4970000   0.98876683   -0.2738033      1728000    400.52062        24850        16867 
 4980000    1.0831214  -0.27056809      1728000    401.32367        24900        16898 
 4990000    1.0084076  -0.25845792      1728000    402.11971        24950        16928 
 5000000    1.0377402  -0.26493921      1728000    402.93261        25000        16964 
 5010000   0.98477939   -0.2556538      1728000    403.72071        25050        16996 
 5020000   0.97397546   -0.2620035      1728000    404.50749        25100        17030 
 5030000   0.98193457  -0.26094717      1728000    405.30074        25150        17066 
 5040000     1.022394  -0.24634523      1728000     406.0878        25200        17101 
 5050000    0.9803613   -0.2649174      1728000    406.87573        25250        17135 
 5060000    1.0442715  -0.23158219      1728000    407.67167        25300        17171 
 5070000    1.0440491  -0.22836912      1728000     408.4689        25350        17206 
 5080000    1.0036364  -0.23431669      1728000    409.27847        25400        17242 
 5090000   0.95778858  -0.24680382      1728000    410.07929        25450        17272 
 5100000    1.0084215  -0.24436081      1728000    410.88047        25500        17302 
 5110000   0.95464911  -0.25977173      1728000    411.68092        25550        17334 
 5120000    1.0381555  -0.25913951      1728000     412.4901        25600        17370 
 5130000    1.0258208  -0.26672832      1728000    413.30703        25650        17403 
 5140000   0.99716552  -0.27450248      1728000    414.11155        25700        17436 
 5150000   0.97924091  -0.26469936      1728000    414.90363        25750        17472 
 5160000    1.0255487  -0.26458798      1728000    415.69644        25800        17508 
 5170000    1.0077583  -0.26539491      1728000    416.48587        25850        17545 
 5180000   0.98354843  -0.27556129      1728000      417.285        25900        17580 
 5190000    1.0323073  -0.28167491      1728000    418.07806        25950        17615 
 5200000    1.0368704  -0.28055795      1728000    418.89167        26000        17647 
 5210000   0.94738218  -0.25769291      1728000    419.69787        26050        17676 
 5220000   0.97125335  -0.26854332      1728000    420.50659        26100        17715 
 5230000   0.97928263  -0.26498759      1728000    421.30786        26150        17746 
 5240000   0.92361183   -0.2977285      1728000    422.13104        26200        17784 
 5250000    0.9920542   -0.2967479      1728000     422.9329        26250        17817 
 5260000   0.97168456  -0.30266178      1728000    423.73392        26300        17846 
 5270000    1.0533172  -0.30277271      1728000    424.52581        26350        17883 
 5280000    1.0045851  -0.29169941      1728000    425.34516        26400        17915 
 5290000   0.94536891  -0.30099563      1728000    426.14037        26450        17945 
 5300000   0.99947421  -0.29865371      1728000    426.95557        26500        17971 
 5310000    1.0309342  -0.29687197      1728000    427.76274        26550        18005 
 5320000   0.97867645  -0.26878814      1728000    428.56783        26600        18039 
 5330000   0.98433188  -0.28392465      1728000    429.37396        26650        18073 
 5340000    1.0398875   -0.2913493      1728000    430.19277        26700        18105 
 5350000    1.0493421  -0.28123221      1728000    431.00091        26750        18138 
 5360000   0.99603624  -0.30815484      1728000    431.81155        26800        18170 
 5370000    0.9693865  -0.29325562      1728000    432.61476        26850        18199 
 5380000    1.0410909  -0.31775874      1728000    433.40911        26900        18232 
 5390000   0.98401057  -0.31899836      1728000    434.21636        26950        18260 
 5400000   0.96110769  -0.28896523      1728000    435.05681        27000        18286 
 5410000    1.0062458  -0.27622642      1728000    435.85821        27050        18321 
 5420000    1.0008213  -0.29576938      1728000    436.65829        27100        18354 
 5430000   0.97255656  -0.27809949      1728000    437.46946        27150        18387 
 5440000    1.0375916  -0.27680453      1728000    438.26265        27200        18421 
 5450000   0.93357387  -0.27210053      1728000    439.06737        27250        18454 
 5460000    1.0115634  -0.28040259      1728000     439.8795        27300        18495 
 5470000   0.99937229  -0.26203447      1728000    440.68466        27350        18531 
 5480000   0.94212331  -0.27065988      1728000    441.47986        27400        18569 
 5490000    1.0367606  -0.25953679      1728000    442.27939        27450        18604 
 5500000   0.97070931  -0.26859448      1728000    443.09581        27500        18630 
 5510000   0.99733661  -0.27439068      1728000    443.90564        27550        18657 
 5520000     1.034691  -0.27517742      1728000    444.70738        27600        18694 
 5530000    1.0235654  -0.25713863      1728000    445.52045        27650        18725 
 5540000    1.0603468  -0.26487987      1728000    446.31544        27700        18762 
 5550000    1.0774375  -0.27175877      1728000    447.10768        27750        18793 
 5560000    1.0419336  -0.28073328      1728000    447.89994        27800        18830 
 5570000    1.0107194  -0.29156719      1728000    448.69558        27850        18867 
 5580000    1.0272644  -0.28828673      1728000    449.49087        27900        18900 
 5590000    0.9926016  -0.27985719      1728000    450.28047        27950        18934 
 5600000    1.0354066  -0.27743162      1728000     451.0818        28000        18963 
 5610000   0.94921194  -0.29601178      1728000     451.8714        28050        19000 
 5620000    1.0505619  -0.29845983      1728000     452.6735        28100        19030 
 5630000    1.0134203   -0.2881364      1728000    453.47754        28150        19064 
 5640000   0.98928544  -0.28834204      1728000    454.27624        28200        19097 
 5650000    1.0456244  -0.28215678      1728000      455.064        28250        19137 
 5660000    1.0962524  -0.25758837      1728000    455.85725        28300        19175 
 5670000    1.0054355  -0.25693587      1728000    456.64953        28350        19211 
 5680000      1.02647  -0.26156233      1728000    457.43394        28400        19250 
 5690000    1.0248594  -0.27741409      1728000    458.22803        28450        19287 
 5700000    1.0047781  -0.25836956      1728000    459.02278        28500        19324 
 5710000    1.0591081  -0.27728689      1728000    459.81337        28550        19354 
 5720000    1.0117585  -0.27680662      1728000    460.60661        28600        19387 
 5730000    1.0971629  -0.28367391      1728000    461.40156        28650        19426 
 5740000    1.0437717  -0.26724468      1728000    462.18693        28700        19463 
 5750000   0.92758907  -0.26563262      1728000    462.97742        28750        19505 
 5760000   0.99213078  -0.26298865      1728000    463.76864        28800        19539 
 5770000     1.007171  -0.25436073      1728000    464.55603        28850        19571 
 5780000   0.99915833  -0.25593158      1728000    465.34323        28900        19603 
 5790000   0.98510382  -0.26244602      1728000    466.13472        28950        19643 
 5800000   0.95318941  -0.25426108      1728000    466.93246        29000        19674 
 5810000    0.9871266  -0.26597263      1728000     467.7209        29050        19709 
 5820000    1.0485736  -0.26469147      1728000    468.51668        29100        19746 
 5830000    1.0397141  -0.25836435      1728000    469.31842        29150        19780 
 5840000   0.99773898  -0.24896274      1728000    470.11502        29200        19811 
 5850000    0.9770943  -0.27463546      1728000    470.90427        29250        19846 
 5860000    0.9928714  -0.26141327      1728000    471.70345        29300        19880 
 5870000    1.0175608  -0.26504095      1728000    472.51334        29350        19915 
 5880000   0.94144979  -0.26026882      1728000    473.37576        29400        19949 
 5890000    1.0006564  -0.26540879      1728000    474.24472        29450        19984 
 5900000     1.019666  -0.29565458      1728000     475.1412        29500        20018 
 5910000    1.0351352  -0.27353079      1728000    476.19712        29550        20054 
 5920000    1.0044399  -0.28222321      1728000    477.05529        29600        20091 
 5930000    1.0139307  -0.25274007      1728000    477.87167        29650        20121 
 5940000    1.0147768  -0.24357784      1728000    478.68904        29700        20159 
 5950000   0.98295217  -0.26433624      1728000    479.50007        29750        20189 
 5960000    1.0247374  -0.24771627      1728000    480.32049        29800        20222 
 5970000      1.01349  -0.27894551      1728000    481.11989        29850        20255 
 5980000   0.97129767  -0.26148796      1728000    481.91686        29900        20292 
 5990000    1.0969601  -0.25577627      1728000    482.70597        29950        20324 
 6000000    1.0663211  -0.24837828      1728000    483.51038        30000        20360 
 6010000   0.99029876  -0.26438295      1728000     484.3017        30050        20394 
 6020000   0.94266079  -0.24918515      1728000    485.09502        30100        20430 
 6030000   0.93376051  -0.27476889      1728000    485.89868        30150        20463 
 6040000    1.0026939  -0.27532628      1728000    486.71711        30200        20497 
 6050000   0.99956406  -0.24323385      1728000    487.51267        30250        20525 
 6060000    1.0077519  -0.23706286      1728000    488.31385        30300        20560 
 6070000    1.0549946  -0.24079617      1728000    489.12652        30350        20590 
 6080000   0.93442992  -0.27057771      1728000    489.92898        30400        20625 
 6090000    1.0206121  -0.23869482      1728000    490.73071        30450        20655 
 6100000    0.9375362  -0.25172262      1728000    491.54208        30500        20687 
 6110000    1.0345047  -0.26331665      1728000    492.35321        30550        20723 
 6120000    1.0177087  -0.26090643      1728000     493.1595        30600        20752 
 6130000    1.0193103  -0.26555452      1728000    493.96778        30650        20780 
 6140000   0.97197617  -0.25889325      1728000    494.78172        30700        20813 
 6150000   0.95644752  -0.26278459      1728000     495.5779        30750        20847 
 6160000   0.96413931   -0.2737558      1728000    496.37633        30800        20882 
 6170000    1.0262401  -0.27475249      1728000    497.17896        30850        20914 
 6180000    1.0357815  -0.28370912      1728000    497.97886        30900        20941 
 6190000    1.0536495  -0.26785491      1728000     498.7776        30950        20972 
 6200000   0.97830839  -0.26299439      1728000    499.58279        31000        21003 
 6210000   0.97170238   -0.2647558      1728000    500.37301        31050        21040 
 6220000    1.0119261  -0.27186043      1728000    501.18418        31100        21075 
 6230000   0.97393857  -0.26921329      1728000    501.99552        31150        21108 
 6240000    1.0684722  -0.26267004      1728000    502.79492        31200        21141 
 6250000   0.98436546  -0.23992218      1728000    503.59952        31250        21175 
 6260000   0.96644564   -0.2482635      1728000    504.40191        31300        21207 
 6270000     1.015882  -0.25018456      1728000    505.21921        31350        21243 
 6280000    1.0350303  -0.25840186      1728000    506.03352        31400        21278 
 6290000    1.0348364  -0.25321185      1728000    506.85986        31450        21306 
 6300000    1.0598875   -0.2399766      1728000    507.67307        31500        21335 
 6310000    1.0068443  -0.23927272      1728000    508.49262        31550        21369 
 6320000    1.0385838  -0.25570541      1728000    509.27682        31600        21405 
 6330000    1.0247832  -0.23813873      1728000     510.0719        31650        21442 
 6340000   0.97644451  -0.24367594      1728000    510.86177        31700        21475 
 6350000   0.97892178  -0.25940267      1728000     511.6758        31750        21502 
 6360000     1.088929  -0.23504757      1728000    512.47364        31800        21534 
 6370000   0.98167869  -0.24491507      1728000    513.27875        31850        21574 
 6380000     1.013443  -0.26669948      1728000    514.10794        31900        21611 
 6390000   0.99678717  -0.28772332      1728000    514.92317        31950        21647 
 6400000      1.02389  -0.28040612      1728000    515.76931        32000        21681 
 6410000    1.0112409  -0.26779138      1728000    516.57749        32050        21709 
 6420000    0.9729335  -0.26670915      1728000    517.36698        32100        21739 
 6430000    1.0461007  -0.27249199      1728000    518.15799        32150        21773 
 6440000   0.99635301  -0.26689923      1728000    518.94193        32200        21811 
 6450000      1.01694  -0.28075662      1728000    519.74099        32250        21847 
 6460000    0.9425377  -0.27441767      1728000    520.53998        32300        21880 
 6470000    0.9974655  -0.27634618      1728000    521.34643        32350        21914 
 6480000    1.0744055  -0.28463662      1728000      522.156        32400        21946 
 6490000    1.0274995  -0.27498236      1728000    522.95775        32450        21982 
 6500000    1.0287738  -0.27685397      1728000    523.76706        32500        22016 
 6510000    1.0515905  -0.27444784      1728000    524.58025        32550        22051 
 6520000    1.0287926  -0.27396197      1728000    525.39053        32600        22087 
 6530000   0.96682039  -0.26533715      1728000    526.20381        32650        22116 
 6540000   0.98795493  -0.27978059      1728000    527.00464        32700        22151 
 6550000    1.0238594   -0.2796827      1728000    527.80351        32750        22187 
 6560000   0.96955822   -0.2889401      1728000    528.58824        32800        22223 
 6570000    1.0028145  -0.27658893      1728000    529.37379        32850        22255 
 6580000    1.0627566  -0.27494516      1728000    530.16202        32900        22293 
 6590000   0.99476851  -0.27554287      1728000    530.95753        32950        22329 
 6600000    1.0319818  -0.29454744      1728000    531.75283        33000        22359 
 6610000    1.0071539  -0.29822578      1728000    532.56211        33050        22395 
 6620000   0.95701405  -0.30854346      1728000     533.4196        33100        22430 
 6630000   0.99247515  -0.30540052      1728000    534.22991        33150        22463 
 6640000    1.0565211  -0.31592958      1728000    535.02284        33200        22494 
 6650000    1.0032498  -0.28494656      1728000    535.83497        33250        22526 
 6660000    1.0438296  -0.29571963      1728000      536.636        33300        22565 
 6670000   0.99141957  -0.27693811      1728000    537.43696        33350        22599 
 6680000   0.98713577  -0.28555999      1728000    538.22999        33400        22638 
 6690000    1.0036234  -0.30429755      1728000    539.04298        33450        22675 
 6700000    1.0811203  -0.30072286      1728000    539.85689        33500        22706 
 6710000    1.1132508   -0.2792602      1728000    540.64794        33550        22743 
 6720000   0.97520939  -0.28777237      1728000    541.44006        33600        22778 
 6730000    1.0441458  -0.30404781      1728000    542.23583        33650        22811 
 6740000   0.98831658  -0.31329831      1728000    543.03685        33700        22843 
 6750000    1.0012501  -0.29870816      1728000    543.85869        33750        22881 
 6760000    1.0307532  -0.30812432      1728000    544.66878        33800        22915 
 6770000   0.95613466  -0.28462451      1728000    545.48067        33850        22945 
 6780000   0.99738159  -0.28075187      1728000    546.27603        33900        22978 
 6790000    1.0162509  -0.28004939      1728000    547.07296        33950        23013 
 6800000    1.0390341  -0.28902143      1728000    547.87791        34000        23044 
 6810000    1.0104202   -0.2705504      1728000    548.67272        34050        23075 
 6820000   0.97953719  -0.28674887      1728000    549.47602        34100        23107 
 6830000   0.98504978  -0.27001308      1728000    550.26995        34150        23137 
 6840000    1.0033801  -0.27523249      1728000    551.05699        34200        23173 
 6850000     0.945269  -0.30189342      1728000    551.85608        34250        23208 
 6860000    0.9973999  -0.26962829      1728000    552.66095        34300        23240 
 6870000   0.94862451  -0.25615956      1728000    553.45202        34350        23275 
 6880000    1.0279147  -0.26141101      1728000    554.24095        34400        23307 
 6890000   0.95408125   -0.2489437      1728000      555.035        34450        23345 
 6900000   0.98157687  -0.22388316      1728000    555.83704        34500        23380 
 6910000    1.0442499  -0.23277333      1728000    556.62996        34550        23416 
 6920000   0.98142241  -0.23950003      1728000    557.42497        34600        23453 
 6930000    1.0643898  -0.24312146      1728000    558.22406        34650        23491 
 6940000    1.0096603  -0.24915061      1728000    559.02286        34700        23531 
 6950000    1.0358618  -0.27096591      1728000    559.81307        34750        23570 
 6960000   0.98993805    -0.274278      1728000    560.60495        34800        23607 
 6970000     1.016087  -0.26308572      1728000    561.39256        34850        23634 
 6980000   0.98329149   -0.2623017      1728000    562.17115        34900        23672 
 6990000    1.0589703  -0.27661458      1728000    562.96217        34950        23705 
 7000000    1.0271044  -0.27726261      1728000    563.76542        35000        23732 
 7010000    1.0188248  -0.29632128      1728000    564.55538        35050        23769 
 7020000    1.0072524    -0.287616      1728000      565.347        35100        23803 
 7030000    1.0338534  -0.29449546      1728000    566.14113        35150        23838 
 7040000   0.96901087  -0.27415214      1728000      566.934        35200        23875 
 7050000    1.0056392  -0.28808085      1728000    567.72908        35250        23909 
 7060000    1.0528778  -0.30156271      1728000       568.52        35300        23946 
 7070000   0.99405169  -0.26466563      1728000    569.30394        35350        23984 
 7080000     1.048492  -0.29400145      1728000     570.0917        35400        24022 
 7090000   0.98811922  -0.28173601      1728000    570.88604        35450        24062 
 7100000   0.96996891   -0.2934249      1728000    571.68011        35500        24097 
 7110000    1.0436685  -0.28945043      1728000    572.47096        35550        24133 
 7120000    1.0028416  -0.26845841      1728000    573.25807        35600        24168 
 7130000    1.0064071  -0.26933283      1728000    574.05689        35650        24202 
 7140000    1.0357948  -0.26869724      1728000    574.85799        35700        24235 
 7150000    1.0286593  -0.26737088      1728000      575.656        35750        24269 
 7160000    1.0021702  -0.27707217      1728000    576.45066        35800        24298 
 7170000   0.99018692  -0.28115751      1728000    577.24101        35850        24331 
 7180000    1.0723019  -0.25303601      1728000    578.04708        35900        24364 
 7190000   0.88675308  -0.27142349      1728000    578.83879        35950        24392 
 7200000   0.94627232  -0.26578311      1728000    579.64503        36000        24426 
 7210000   0.94216056  -0.25701251      1728000    580.43704        36050        24461 
 7220000   0.98150089  -0.24707067      1728000    581.22273        36100        24495 
 7230000   0.98617037  -0.25661343      1728000    582.02402        36150        24531 
 7240000   0.97363578  -0.26202765      1728000    582.81709        36200        24566 
 7250000    1.0641035  -0.22893505      1728000    583.60693        36250        24600 
 7260000   0.97173295  -0.22078267      1728000    584.38812        36300        24629 
 7270000   0.99294316  -0.23189656      1728000    585.17299        36350        24662 
 7280000   0.91177873  -0.24019716      1728000    585.96595        36400        24700 
 7290000   0.95381451  -0.24191419      1728000    586.76902        36450        24734 
 7300000   0.95908403  -0.25000003      1728000     587.5619        36500        24767 
 7310000   0.98381952  -0.24790539      1728000    588.36709        36550        24805 
 7320000   0.97243161  -0.23632702      1728000    589.16973        36600        24840 
 7330000    1.0163458    -0.229859      1728000    589.96503        36650        24873 
 7340000    1.0401594   -0.2611234      1728000    590.75106        36700        24908 
 7350000   0.93783205  -0.25059218      1728000    591.54093        36750        24945 
 7360000     1.006372  -0.25987782      1728000    592.33305        36800        24978 
 7370000    1.0284588  -0.27001306      1728000      593.117        36850        25017 
 7380000   0.98571643  -0.27908833      1728000    593.90811        36900        25053 
 7390000    1.0519818  -0.28689675      1728000    594.70609        36950        25085 
 7400000   0.94309652  -0.27495369      1728000    595.50796        37000        25125 
 7410000    1.0297507  -0.27066416      1728000    596.30237        37050        25158 
 7420000   0.95920734  -0.28773675      1728000    597.10166        37100        25190 
 7430000    1.0480023  -0.25229614      1728000    597.89974        37150        25227 
 7440000    1.0184754  -0.27577513      1728000    598.69189        37200        25260 
 7450000    0.9908707  -0.26969526      1728000    599.48788        37250        25297 
 7460000   0.96516242  -0.25927798      1728000    600.28096        37300        25329 
 7470000    0.9986728  -0.28300914      1728000    601.07104        37350        25364 
 7480000    1.0345358  -0.26662916      1728000    601.86997        37400        25395 
 7490000   0.94765965  -0.28989526      1728000    602.66397        37450        25435 
 7500000    1.0086064  -0.25945856      1728000    603.46794        37500        25472 
 7510000   0.98164469  -0.25125754      1728000      604.262        37550        25507 
 7520000   0.92177581  -0.28950674      1728000     605.0563        37600        25537 
 7530000   0.94398209  -0.28833197      1728000     605.8435        37650        25570 
 7540000    1.0081935  -0.25860503      1728000    606.63805        37700        25600 
 7550000    1.0314959  -0.27745878      1728000    607.43915        37750        25634 
 7560000   0.93648784  -0.27843922      1728000    608.23691        37800        25668 
 7570000   0.99053675   -0.2719657      1728000    609.03904        37850        25698 
 7580000    1.0373556  -0.28711115      1728000    609.84109        37900        25732 
 7590000   0.97964605  -0.27955892      1728000      610.636        37950        25769 
 7600000    1.0113013  -0.28856232      1728000    611.45094        38000        25805 
 7610000   0.98416166  -0.28409678      1728000    612.25713        38050        25836 
 7620000   0.93434535  -0.28349385      1728000    613.05187        38100        25872 
 7630000   0.98438063   -0.2722727      1728000     613.8491        38150        25906 
 7640000    1.0423404  -0.24841045      1728000     614.6411        38200        25941 
 7650000    0.9899869  -0.23921674      1728000    615.43303        38250        25975 
 7660000    1.0036072  -0.23889712      1728000    616.22012        38300        26007 
 7670000     1.001663  -0.25194973      1728000    617.00504        38350        26045 
 7680000   0.98406866  -0.25366563      1728000    617.79188        38400        26078 
 7690000    1.0067913  -0.25190583      1728000    618.57519        38450        26115 
 7700000    1.0563889  -0.24872256      1728000    619.36985        38500        26147 
 7710000   0.97689756  -0.24572636      1728000    620.15809        38550        26188 
 7720000    1.0551493  -0.25837163      1728000    620.95092        38600        26224 
 7730000     1.002769  -0.26905588      1728000    621.74506        38650        26265 
 7740000    1.0026535  -0.26414505      1728000    622.53795        38700        26302 
 7750000    1.0366904  -0.27562879      1728000    623.35205        38750        26339 
 7760000   0.95973063  -0.28638677      1728000    624.14609        38800        26373 
 7770000    1.0555762  -0.28559242      1728000    624.93301        38850        26409 
 7780000   0.99294982  -0.28841556      1728000    625.73071        38900        26436 
 7790000   0.94155824  -0.28642814      1728000    626.51797        38950        26468 
 7800000    1.0006407  -0.30084358      1728000    627.32389        39000        26499 
 7810000    1.0173121  -0.28637552      1728000     628.1221        39050        26527 
 7820000    1.0266555  -0.28827764      1728000    628.91102        39100        26570 
 7830000   0.97218975  -0.28817044      1728000    629.70404        39150        26606 
 7840000   0.99620597  -0.28562593      1728000    630.49098        39200        26645 
 7850000    1.0401038  -0.29260218      1728000    631.28289        39250        26674 
 7860000   0.96279421  -0.26794593      1728000    632.07708        39300        26709 
 7870000   0.96187584  -0.26740984      1728000    632.87014        39350        26743 
 7880000    1.0293874  -0.29325654      1728000    633.65809        39400        26779 
 7890000   0.96484784  -0.29942194      1728000    634.44893        39450        26809 
 7900000    1.0420014  -0.28740624      1728000    635.24706        39500        26843 
 7910000    1.0049495  -0.30088635      1728000    636.03798        39550        26873 
 7920000   0.96528348  -0.28305361      1728000    636.82617        39600        26901 
 7930000   0.98736807   -0.3060012      1728000    637.61804        39650        26933 
 7940000   0.95547671  -0.28824655      1728000    638.41973        39700        26966 
 7950000    1.0197712  -0.31176255      1728000    639.23002        39750        27002 
 7960000    1.0332443  -0.28636441      1728000    640.04783        39800        27028 
 7970000    1.0247037  -0.30737165      1728000    640.88287        39850        27063 
 7980000   0.97030419  -0.28307662      1728000     641.6947        39900        27095 
 7990000     1.042744  -0.27945208      1728000    642.52757        39950        27134 
 8000000    0.9500423  -0.30053266      1728000    643.39313        40000        27164 
 8010000   0.93214683  -0.30311837      1728000    644.24148        40050        27193 
 8020000    1.0037089   -0.3268157      1728000    645.07573        40100        27226 
 8030000   0.98200235   -0.2993823      1728000    645.89712        40150        27259 
 8040000   0.93970005  -0.29573754      1728000    646.70312        40200        27292 
 8050000   0.93122601  -0.30937119      1728000      647.551        40250        27323 
 8060000   0.96569542  -0.29930259      1728000    648.38993        40300        27356 
 8070000    1.0024842  -0.32186984      1728000     649.2444        40350        27386 
 8080000    0.9611052  -0.29864604      1728000    650.08695        40400        27415 
 8090000   0.99655163  -0.31155888      1728000    650.88518        40450        27448 
 8100000   0.98393665  -0.29427257      1728000    651.70185        40500        27482 
 8110000   0.98756406  -0.30719164      1728000    652.49415        40550        27519 
 8120000   0.97569608  -0.30173277      1728000    653.35127        40600        27546 
 8130000   0.96856041   -0.3105923      1728000    654.16733        40650        27577 
 8140000   0.98162364  -0.29178112      1728000    654.98881        40700        27615 
 8150000    0.9725772  -0.30701768      1728000    655.80918        40750        27651 
 8160000    1.0890775  -0.27961558      1728000    656.63437        40800        27692 
 8170000   0.96823482  -0.27926075      1728000    657.45693        40850        27727 
 8180000   0.99822207  -0.27538875      1728000    658.27422        40900        27758 
 8190000    1.0325139  -0.28908111      1728000    659.10014        40950        27789 
 8200000    1.0440283  -0.27629849      1728000    659.92291        41000        27822 
 8210000   0.98945699  -0.28193853      1728000    660.77203        41050        27854 
 8220000    0.9892349  -0.30132955      1728000    661.59615        41100        27883 
 8230000   0.99259715  -0.31359406      1728000    662.47612        41150        27920 
 8240000    0.9706778  -0.30755455      1728000    663.36694        41200        27951 
 8250000   0.99794287  -0.30696655      1728000    664.24115        41250        27983 
 8260000   0.96385135  -0.29377622      1728000    665.09012        41300        28013 
 8270000   0.99617124    -0.289896      1728000    665.91781        41350        28048 
 8280000   0.99862856  -0.29593886      1728000    666.74903        41400        28078 
 8290000   0.97389382  -0.28405375      1728000    667.54517        41450        28114 
 8300000   0.98297801  -0.27062094      1728000    668.34812        41500        28144 
 8310000   0.98075764  -0.29238129      1728000    669.14503        41550        28175 
 8320000   0.99221912  -0.26655008      1728000    669.93818        41600        28209 
 8330000    1.0155822   -0.2822063      1728000    670.73216        41650        28242 
 8340000   0.95706651  -0.27972963      1728000    671.54288        41700        28269 
 8350000     1.009831   -0.2760046      1728000    672.33406        41750        28300 
 8360000    1.0370206  -0.25816229      1728000    673.13093        41800        28334 
 8370000    1.0650038  -0.26465285      1728000    673.92397        41850        28365 
 8380000    1.0361645   -0.2644477      1728000    674.72401        41900        28398 
 8390000    1.0215202  -0.28751912      1728000    675.53109        41950        28438 
 8400000    1.0265073  -0.29327879      1728000    676.33814        42000        28469 
 8410000    1.0576598  -0.29573634      1728000    677.13819        42050        28501 
 8420000    1.0462422  -0.27668594      1728000    677.93911        42100        28533 
 8430000   0.96588603  -0.27227724      1728000    678.74088        42150        28564 
 8440000   0.99703949  -0.26397548      1728000    679.54699        42200        28602 
 8450000    1.0149386  -0.29913395      1728000    680.35407        42250        28638 
 8460000    1.0019366  -0.25267124      1728000    681.16615        42300        28671 
 8470000   0.98934206  -0.27788467      1728000     681.9779        42350        28701 
 8480000   0.99101043   -0.2811923      1728000    682.77621        42400        28737 
 8490000    1.0193998  -0.32005921      1728000    683.58268        42450        28772 
 8500000     1.023047  -0.30029497      1728000     684.4032        42500        28802 
 8510000    1.0865776  -0.29699696      1728000    685.20387        42550        28833 
 8520000   0.87282183  -0.31215476      1728000    686.00327        42600        28862 
 8530000   0.97721103  -0.30297929      1728000    686.81398        42650        28894 
 8540000   0.95494567  -0.29085237      1728000    687.61967        42700        28925 
 8550000   0.99017875  -0.30174124      1728000    688.42108        42750        28958 
 8560000   0.97860459  -0.29624388      1728000     689.2272        42800        28987 
 8570000   0.97599032  -0.28802214      1728000    690.03616        42850        29023 
 8580000   0.98205188  -0.30927535      1728000    690.85414        42900        29055 
 8590000   0.97208978  -0.32323306      1728000    691.68287        42950        29084 
 8600000    1.0476431  -0.29063134      1728000    692.52619        43000        29124 
 8610000    1.0416141  -0.30779008      1728000    693.33624        43050        29153 
 8620000    1.0093438  -0.30403594      1728000    694.15685        43100        29182 
 8630000   0.98392216  -0.30756553      1728000      694.993        43150        29213 
 8640000   0.97863253   -0.3015035      1728000     695.8081        43200        29245 
 8650000    1.0192686  -0.30755153      1728000     696.6519        43250        29279 
 8660000   0.98839114  -0.30083793      1728000    697.50809        43300        29313 
 8670000   0.99167094   -0.2982063      1728000    698.36121        43350        29350 
 8680000    1.0191387  -0.29077476      1728000    699.20135        43400        29383 
 8690000    1.0097669  -0.29403243      1728000    700.04003        43450        29409 
 8700000    1.0176941  -0.30690149      1728000    700.88321        43500        29443 
 8710000     1.018773  -0.32457351      1728000    701.82633        43550        29475 
 8720000   0.97004551  -0.31644542      1728000    702.73241        43600        29505 
 8730000   0.96485069  -0.30662881      1728000    703.63448        43650        29530 
 8740000   0.96031759    -0.305276      1728000    704.47662        43700        29561 
 8750000    1.0274499  -0.27823843      1728000    705.30497        43750        29591 
 8760000   0.91751046  -0.28183496      1728000    706.11899        43800        29626 
 8770000   0.96766938  -0.29438932      1728000      706.932        43850        29658 
 8780000    1.0356133   -0.3081207      1728000    707.73298        43900        29698 
 8790000    1.0062314  -0.28314319      1728000    708.55413        43950        29731 
 8800000   0.93999869   -0.2871657      1728000    709.36906        44000        29764 
 8810000   0.98742126  -0.28959551      1728000    710.20225        44050        29793 
 8820000    1.0183967  -0.28275948      1728000    711.04438        44100        29827 
 8830000    1.0082442  -0.27424062      1728000    711.88353        44150        29857 
 8840000   0.97379058  -0.27149746      1728000    712.68333        44200        29890 
 8850000    1.0512786  -0.26098592      1728000    713.48715        44250        29921 
 8860000   0.96834833  -0.26636012      1728000    714.29099        44300        29958 
 8870000   0.99435278  -0.25377928      1728000    715.08223        44350        29993 
 8880000   0.98661985  -0.26491461      1728000    715.87416        44400        30026 
 8890000    0.9719173  -0.27349073      1728000     716.6771        44450        30059 
 8900000    0.9775005   -0.2498109      1728000     717.4841        44500        30094 
 8910000    1.0041876  -0.26346815      1728000    718.27397        44550        30130 
 8920000    1.0478174  -0.26085447      1728000    719.06608        44600        30164 
 8930000   0.95441684   -0.2626102      1728000    719.86994        44650        30200 
 8940000    1.0792589  -0.23717351      1728000    720.67017        44700        30240 
 8950000   0.99788413  -0.27094188      1728000    721.47217        44750        30275 
 8960000    1.0178137  -0.27456552      1728000    722.29322        44800        30310 
 8970000    1.0104344  -0.28155745      1728000    723.11604        44850        30346 
 8980000   0.99063959  -0.26815978      1728000      723.917        44900        30377 
 8990000     1.029368  -0.26957445      1728000    724.73929        44950        30411 
 9000000   0.96707518  -0.28021167      1728000    725.58457        45000        30441 
 9010000   0.98984036  -0.26380345      1728000    726.40616        45050        30473 
 9020000   0.97823635  -0.28086228      1728000    727.23051        45100        30501 
 9030000    0.9550618  -0.31147471      1728000    728.14085        45150        30539 
 9040000    1.0041055  -0.28391189      1728000    729.07589        45200        30575 
 9050000   0.97538565  -0.29538582      1728000    729.90233        45250        30604 
 9060000   0.99444852  -0.29595192      1728000    730.78343        45300        30638 
 9070000   0.96297962  -0.27422279      1728000    731.72945        45350        30666 
 9080000   0.91787281  -0.26255383      1728000    732.67248        45400        30701 
 9090000    1.0001492  -0.27516947      1728000    733.52262        45450        30730 
 9100000    1.0256287  -0.27749456      1728000    734.37002        45500        30761 
 9110000    1.0419146  -0.27229479      1728000    735.19421        45550        30792 
 9120000   0.96894246   -0.2929691      1728000    736.01613        45600        30825 
 9130000   0.97655184  -0.28104213      1728000    736.82937        45650        30856 
 9140000     1.026335   -0.2807324      1728000    737.64438        45700        30886 
 9150000   0.98051526  -0.25777986      1728000    738.45157        45750        30926 
 9160000   0.99473349   -0.2632409      1728000    739.26573        45800        30956 
 9170000    1.0392996  -0.24277512      1728000    740.09133        45850        30984 
 9180000    1.0054309  -0.25593551      1728000    740.89561        45900        31023 
 9190000    1.0669941  -0.27411793      1728000    741.73592        45950        31057 
 9200000   0.96857969  -0.25360063      1728000    742.55014        46000        31091 
 9210000    1.0112904  -0.25656666      1728000     743.3773        46050        31127 
 9220000    0.9367845  -0.27467741      1728000    744.17948        46100        31159 
 9230000   0.93932661  -0.27952285      1728000    745.02064        46150        31187 
 9240000   0.93921381  -0.28170247      1728000    745.83307        46200        31222 
 9250000   0.98667469  -0.29880175      1728000    746.66295        46250        31260 
 9260000   0.99724681  -0.29035602      1728000    747.47638        46300        31286 
 9270000    1.0205182  -0.27767227      1728000    748.32552        46350        31317 
 9280000    1.0184366  -0.26309501      1728000    749.15072        46400        31351 
 9290000   0.91636375   -0.2612204      1728000    749.97509        46450        31382 
 9300000    0.9864606  -0.26759248      1728000    750.81997        46500        31414 
 9310000   0.98539425  -0.26207092      1728000    751.64198        46550        31450 
 9320000    1.0427663  -0.25700836      1728000    752.45001        46600        31485 
 9330000    1.0851213   -0.2595513      1728000    753.27793        46650        31524 
 9340000    1.0225652  -0.27054735      1728000    754.09502        46700        31556 
 9350000   0.98023664  -0.26108585      1728000     754.9121        46750        31592 
 9360000    1.0299647  -0.25448153      1728000    755.73202        46800        31626 
 9370000   0.99398149  -0.25903634      1728000       756.57        46850        31663 
 9380000    1.0114579  -0.25869873      1728000    757.38898        46900        31699 
 9390000   0.97978915  -0.28850893      1728000    758.19904        46950        31738 
 9400000   0.95591436  -0.27304688      1728000     759.0111        47000        31776 
 9410000   0.97576241  -0.27386738      1728000    759.82612        47050        31808 
 9420000    1.0033878  -0.26656413      1728000    760.66904        47100        31844 
 9430000   0.96400836  -0.28092791      1728000    761.49297        47150        31880 
 9440000    1.0407849  -0.28993352      1728000    762.29204        47200        31912 
 9450000   0.97292028  -0.28180814      1728000    763.09993        47250        31946 
 9460000    1.0359307  -0.26457368      1728000    763.94454        47300        31982 
 9470000    1.0035126  -0.27733134      1728000     764.7737        47350        32014 
 9480000   0.97385379  -0.26273168      1728000    765.58426        47400        32054 
 9490000    1.0115174  -0.26845884      1728000    766.50631        47450        32089 
 9500000    1.0293479  -0.29122733      1728000    767.36843        47500        32123 
 9510000     1.073957  -0.27072086      1728000    768.19993        47550        32157 
 9520000    1.0248203   -0.2917883      1728000    769.04705        47600        32194 
 9530000   0.98276076  -0.27765401      1728000    769.87922        47650        32228 
 9540000   0.99688541  -0.28083416      1728000    770.70339        47700        32266 
 9550000    1.0082031  -0.28870429      1728000    771.51655        47750        32300 
 9560000    1.0001786  -0.27636753      1728000    772.33228        47800        32338 
 9570000   0.96904912  -0.29636546      1728000    773.15245        47850        32372 
 9580000    1.0130596    -0.266741      1728000    773.95963        47900        32409 
 9590000    1.0418561  -0.27767985      1728000    774.77132        47950        32440 
 9600000   0.97043488  -0.27032723      1728000    775.58448        48000        32475 
 9610000   0.96408747  -0.27185204      1728000    776.39183        48050        32511 
 9620000    0.9703674  -0.28518032      1728000    777.19334        48100        32544 
 9630000    1.0082867  -0.28805161      1728000    778.03448        48150        32575 
 9640000   0.99035243  -0.27479281      1728000    778.85068        48200        32606 
 9650000    1.0225151  -0.26423094      1728000    779.67694        48250        32642 
 9660000    1.0187078  -0.26438851      1728000    780.49404        48300        32677 
 9670000    1.0346724  -0.26843524      1728000    781.30302        48350        32716 
 9680000   0.95829789  -0.25796561      1728000    782.12779        48400        32749 
 9690000    1.0182942  -0.26551599      1728000    782.94211        48450        32783 
 9700000   0.97998779  -0.29529705      1728000    783.78502        48500        32820 
 9710000    1.0274461  -0.28229826      1728000    784.61196        48550        32856 
 9720000   0.97502021  -0.28133327      1728000     785.4241        48600        32888 
 9730000    1.0386875  -0.28506967      1728000    786.23112        48650        32926 
 9740000   0.94310856  -0.28427684      1728000    787.04464        48700        32958 
 9750000    0.9857758  -0.28642924      1728000    787.84325        48750        32993 
 9760000     1.015917  -0.30076578      1728000     788.6661        48800        33020 
 9770000   0.95767532  -0.31419917      1728000    789.46412        48850        33054 
 9780000   0.96389623   -0.3093429      1728000    790.26692        48900        33081 
 9790000   0.95670822  -0.30129843      1728000    791.06211        48950        33114 
 9800000   0.95771291  -0.29315191      1728000    791.88633        49000        33144 
 9810000    1.0503638   -0.3024855      1728000    792.68913        49050        33178 
 9820000   0.98661236  -0.28203837      1728000    793.49431        49100        33213 
 9830000    1.0740561   -0.2835475      1728000    794.30248        49150        33245 
 9840000    1.0318643  -0.28205556      1728000    795.11758        49200        33278 
 9850000   0.96462577  -0.28209075      1728000    795.92898        49250        33312 
 9860000   0.98788523  -0.28932277      1728000    796.74806        49300        33345 
 9870000   0.99574919  -0.28882499      1728000    797.54777        49350        33378 
 9880000   0.99238421  -0.29266771      1728000    798.33205        49400        33411 
 9890000   0.97108647  -0.28548218      1728000    799.11809        49450        33449 
 9900000   0.98042908  -0.28713063      1728000      799.922        49500        33485 
 9910000   0.93919974  -0.29522907      1728000    800.71505        49550        33516 
 9920000    0.9729534  -0.28727003      1728000    801.51906        49600        33550 
 9930000    0.9850542  -0.28515951      1728000    802.37108        49650        33583 
 9940000   0.93966228  -0.29197788      1728000     803.1821        49700        33618 
 9950000    1.0115849  -0.30662908      1728000    803.99815        49750        33647 
 9960000   0.97625931  -0.29791373      1728000    804.80903        49800        33679 
 9970000     0.981089  -0.30302293      1728000    805.60487        49850        33707 
 9980000   0.96948545  -0.30213168      1728000    806.41492        49900        33741 
 9990000    1.0146966  -0.31877904      1728000    807.22313        49950        33776 
10000000   0.98161833  -0.29217299      1728000    808.07398        50000        33814 
10010000   0.94062502  -0.29518621      1728000    808.89614        50050        33843 
10020000   0.95421063  -0.27760635      1728000    809.71308        50100        33871 
10030000   0.95582815  -0.29493247      1728000    810.51599        50150        33898 
10040000     1.070495  -0.29758326      1728000    811.34014        50200        33929 
10050000    1.0659926  -0.30408566      1728000    812.13902        50250        33962 
10060000    1.0070971  -0.27871926      1728000    812.95198        50300        33994 
10070000    1.0029773  -0.29560615      1728000    813.75799        50350        34026 
10080000    1.0700505  -0.29907517      1728000    814.56815        50400        34059 
10090000    1.0295872  -0.30066841      1728000     815.3679        50450        34095 
10100000   0.99886333  -0.29719984      1728000    816.18106        50500        34128 
10110000   0.99336245  -0.30420519      1728000    816.98809        50550        34155 
10120000   0.96845353  -0.27869534      1728000    817.77889        50600        34190 
10130000     1.017165  -0.29494475      1728000    818.57785        50650        34222 
10140000    1.0408666  -0.28266506      1728000    819.42006        50700        34254 
10150000    1.0010273   -0.3131296      1728000    820.26016        50750        34290 
10160000   0.97484004  -0.30322415      1728000    821.09099        50800        34321 
10170000    1.0328996   -0.2921668      1728000    821.90814        50850        34354 
10180000   0.99321659  -0.29333371      1728000    822.70805        50900        34387 
10190000    1.0041623  -0.28612697      1728000    823.52607        50950        34414 
10200000    1.0790055   -0.2965815      1728000    824.36805        51000        34446 
10210000   0.95063299  -0.27914608      1728000    825.20513        51050        34482 
10220000    1.0625516  -0.28249797      1728000    826.02794        51100        34516 
10230000   0.95911826  -0.26165182      1728000    826.84288        51150        34556 
10240000   0.99092264  -0.27468744      1728000    827.65014        51200        34589 
10250000    1.0469804  -0.26553816      1728000    828.45403        51250        34617 
10260000    1.0213714  -0.27677586      1728000    829.25296        51300        34646 
10270000   0.99921678  -0.28356388      1728000    830.06598        51350        34674 
10280000    1.0283219  -0.29668644      1728000    830.88766        51400        34709 
10290000    1.0573855  -0.29421218      1728000    831.75579        51450        34741 
10300000    1.0121485   -0.2706325      1728000    832.62691        51500        34775 
10310000   0.98199334  -0.27911124      1728000    833.44305        51550        34809 
10320000   0.94349079  -0.28725872      1728000    834.26661        51600        34841 
10330000   0.96911184  -0.28260573      1728000    835.08972        51650        34876 
10340000    1.0468852  -0.29615983      1728000     835.8979        51700        34913 
10350000   0.97915883  -0.28843526      1728000    836.71813        51750        34941 
10360000   0.97746014  -0.27723776      1728000    837.53007        51800        34972 
10370000    1.0547575  -0.29450654      1728000    838.34326        51850        35008 
10380000     1.004744  -0.32535755      1728000    839.16049        51900        35041 
10390000   0.99935701  -0.28561752      1728000    839.98191        51950        35072 
10400000    1.0205862  -0.29891625      1728000    840.80226        52000        35108 
10410000    1.0339854  -0.29266693      1728000    841.65039        52050        35145 
10420000    1.0044446  -0.28733634      1728000    842.50253        52100        35175 
10430000   0.97987704   -0.2895547      1728000    843.33767        52150        35199 
10440000    1.0533208  -0.26038197      1728000    844.16603        52200        35224 
10450000   0.99580597  -0.25902781      1728000    844.98219        52250        35264 
10460000    1.0057337  -0.27630835      1728000    845.80235        52300        35298 
10470000   0.98422422  -0.27496103      1728000    846.62452        52350        35329 
10480000    1.0033134  -0.25773296      1728000    847.44668        52400        35357 
10490000      1.02781  -0.25673885      1728000    848.28681        52450        35397 
10500000   0.98046139  -0.26009632      1728000      849.158        52500        35435 
10510000    1.0148749  -0.26602661      1728000    850.02312        52550        35472 
10520000    1.0170106  -0.25587106      1728000    850.84016        52600        35504 
10530000    1.0095574  -0.27210047      1728000    851.65905        52650        35541 
10540000   0.93221196  -0.26742336      1728000    852.46413        52700        35575 
10550000   0.98391874  -0.27911086      1728000     853.3061        52750        35606 
10560000    1.0706017  -0.26612731      1728000    854.11616        52800        35641 
10570000    0.9703277  -0.28417811      1728000    854.92499        52850        35675 
10580000   0.99947728  -0.28211947      1728000    855.75808        52900        35705 
10590000    1.0369193  -0.28593101      1728000    856.57007        52950        35741 
10600000   0.99496923   -0.2840601      1728000    857.39088        53000        35768 
10610000   0.94114097  -0.28117948      1728000    858.20212        53050        35799 
10620000     1.068947  -0.28436346      1728000     859.0159        53100        35829 
10630000   0.99174268  -0.26522832      1728000    859.82913        53150        35864 
10640000    0.8889563  -0.27915546      1728000    860.63805        53200        35900 
10650000    1.0103858   -0.2935714      1728000    861.44814        53250        35938 
10660000    1.0467049  -0.30675414      1728000     862.2587        53300        35970 
10670000    1.0129337  -0.30435321      1728000    863.07505        53350        35999 
10680000    1.0541589   -0.3087435      1728000    863.89307        53400        36032 
10690000   0.99752448  -0.29580984      1728000    864.72523        53450        36063 
10700000   0.98971914  -0.29589253      1728000    865.54163        53500        36095 
10710000    1.0000977  -0.27262684      1728000    866.35821        53550        36131 
10720000    0.9991543   -0.2962942      1728000    867.16451        53600        36166 
10730000    1.0147266  -0.30131341      1728000    867.97918        53650        36202 
10740000   0.91687424  -0.30852761      1728000    868.80271        53700        36234 
10750000   0.97006716  -0.30142494      1728000     869.6182        53750        36267 
10760000    1.0185896  -0.28270146      1728000    870.42213        53800        36295 
10770000   0.99533708  -0.29030972      1728000    871.22757        53850        36326 
10780000    1.0367345  -0.28354152      1728000    872.03528        53900        36366 
10790000   0.95590576  -0.26301373      1728000     872.8386        53950        36401 
10800000    1.0086702   -0.2552397      1728000    873.64634        54000        36432 
10810000     1.029165  -0.26179145      1728000     874.4725        54050        36464 
10820000   0.97534161  -0.24578702      1728000    875.30074        54100        36497 
10830000     1.005841  -0.25455824      1728000    876.10236        54150        36532 
10840000   0.99396677  -0.25918052      1728000    876.93945        54200        36569 
10850000    1.0158388  -0.28624935      1728000     877.7676        54250        36602 
10860000   0.99578377  -0.29323643      1728000    878.58374        54300        36633 
10870000   0.97492717   -0.2898841      1728000     879.3892        54350        36664 
10880000    1.0399639  -0.30017725      1728000    880.20231        54400        36693 
10890000   0.97455512  -0.27912423      1728000    881.02821        54450        36719 
10900000    0.9812022  -0.29029789      1728000    881.83594        54500        36751 
10910000     1.002251  -0.29167992      1728000    882.63419        54550        36785 
10920000   0.96983119  -0.26550538      1728000    883.45021        54600        36818 
10930000   0.94982202  -0.27434594      1728000    884.23911        54650        36857 
10940000   0.94147854  -0.29602435      1728000    885.03617        54700        36880 
10950000   0.94446638  -0.29160739      1728000    885.82624        54750        36910 
10960000    1.0112055  -0.28914082      1728000    886.61917        54800        36940 
10970000    1.0632931  -0.31160506      1728000    887.41518        54850        36973 
10980000   0.98285796  -0.30926267      1728000    888.21397        54900        37008 
10990000    1.0169261  -0.27851436      1728000    889.00619        54950        37041 
11000000    1.0214512  -0.30026853      1728000    889.83119        55000        37074 
11010000    1.0191799  -0.29953917      1728000    890.63422        55050        37102 
11020000      1.03154  -0.29545604      1728000    891.44115        55100        37136 
11030000   0.96914213  -0.29733239      1728000    892.24394        55150        37167 
11040000    1.0049945  -0.30259926      1728000     893.0481        55200        37208 
11050000   0.92867984   -0.2989522      1728000    893.84815        55250        37239 
11060000   0.98052024  -0.27857893      1728000    894.64681        55300        37269 
11070000    1.0453782  -0.25866406      1728000      895.436        55350        37295 
11080000      0.96418  -0.26579284      1728000    896.23316        55400        37326 
11090000    1.0422491  -0.25816859      1728000    897.02821        55450        37363 
11100000    0.9859911  -0.28090911      1728000    897.83925        55500        37401 
11110000    1.0542805  -0.26845443      1728000    898.64218        55550        37432 
11120000    0.9735429  -0.27889045      1728000    899.44939        55600        37464 
11130000   0.98893454  -0.28568802      1728000     900.2542        55650        37498 
11140000     1.023793  -0.27417222      1728000     901.0764        55700        37530 
11150000    1.0132093  -0.25976521      1728000    901.87521        55750        37568 
11160000    1.0952247  -0.24621222      1728000     902.6795        55800        37604 
11170000    1.0160567  -0.24222187      1728000    903.47728        55850        37640 
11180000   0.98521852  -0.23143201      1728000    904.26733        55900        37672 
11190000    1.0875403  -0.22804444      1728000    905.07024        55950        37709 
11200000    1.0072639  -0.22897544      1728000     905.8723        56000        37747 
11210000   0.94876704  -0.22909302      1728000    906.65842        56050        37782 
11220000    1.0136773  -0.23668612      1728000    907.47341        56100        37813 
11230000   0.97653608  -0.24418011      1728000    908.37346        56150        37843 
11240000    1.0208096  -0.22028903      1728000     909.2106        56200        37875 
11250000    0.9606696  -0.20682663      1728000    910.04129        56250        37911 
11260000    1.0328104  -0.23276799      1728000    910.85124        56300        37950 
11270000    1.0050701   -0.2320075      1728000    911.66057        56350        37990 
11280000    1.0208337  -0.23615008      1728000    912.46513        56400        38030 
11290000    1.0133952  -0.23172751      1728000    913.26915        56450        38070 
11300000   0.91956921  -0.23134776      1728000    914.07717        56500        38108 
11310000   0.99637753  -0.23850559      1728000    914.88131        56550        38143 
11320000    1.0404053   -0.2357859      1728000    915.68421        56600        38178 
11330000    1.0045346  -0.22102102      1728000    916.52423        56650        38216 
11340000    1.0208696  -0.23045129      1728000     917.3341        56700        38255 
11350000   0.97340681  -0.20973998      1728000    918.13327        56750        38290 
11360000   0.95804992  -0.20606394      1728000    918.96948        56800        38323 
11370000   0.99151533   -0.2274218      1728000    919.77845        56850        38355 
11380000    0.9820042   -0.2321872      1728000    920.61617        56900        38390 
11390000    1.0237849  -0.22722995      1728000    921.46343        56950        38426 
11400000    1.0508776  -0.23403339      1728000    922.31055        57000        38462 
11410000    1.0409397  -0.24158018      1728000    923.14968        57050        38496 
11420000   0.99358109  -0.23537761      1728000    923.95041        57100        38534 
11430000    1.0088405  -0.22591862      1728000    924.76575        57150        38573 
11440000    1.0068011  -0.24719184      1728000    925.60491        57200        38606 
11450000   0.95434154  -0.24629819      1728000    926.43826        57250        38640 
11460000    1.0104379  -0.26659249      1728000    927.25769        57300        38678 
11470000    1.0127618  -0.26126335      1728000    928.07287        57350        38713 
11480000    1.0001985  -0.27534436      1728000    928.90701        57400        38749 
11490000   0.94696563   -0.2733926      1728000    929.73712        57450        38789 
11500000   0.96529615   -0.2702432      1728000     930.5941        57500        38825 
11510000   0.98598435  -0.27407722      1728000    931.42525        57550        38855 
11520000   0.98318171  -0.27685397      1728000    932.25339        57600        38889 
11530000   0.97101207   -0.2652546      1728000    933.06756        57650        38924 
11540000    1.0139885  -0.25250314      1728000    933.88574        57700        38961 
11550000    1.0399011  -0.28228113      1728000    934.72089        57750        39000 
11560000   0.99603411  -0.25806086      1728000    935.54016        57800        39028 
11570000    0.9970173  -0.24901998      1728000    936.36255        57850        39064 
11580000    1.0235999  -0.24251141      1728000    937.19769        57900        39098 
11590000   0.96954268  -0.23784055      1728000    938.09177        57950        39134 
11600000   0.96241255  -0.23511481      1728000     938.9472        58000        39168 
11610000    0.9742768  -0.23996618      1728000      939.792        58050        39206 
11620000    1.0148925  -0.25423003      1728000    940.63363        58100        39244 
11630000   0.99432025  -0.26958688      1728000     941.4598        58150        39277 
11640000   0.96197863  -0.27617746      1728000    942.29195        58200        39305 
11650000   0.97082778  -0.27099285      1728000    943.14607        58250        39338 
11660000    1.0241924  -0.27690163      1728000    943.96025        58300        39372 
11670000    1.0174826  -0.30316791      1728000     944.7814        58350        39400 
11680000    1.0299414  -0.28725801      1728000    945.61004        58400        39434 
11690000    1.0620484  -0.29716141      1728000    946.51546        58450        39468 
11700000   0.99033246  -0.27498503      1728000     947.3985        58500        39501 
11710000    1.0362309  -0.28025964      1728000    948.21765        58550        39530 
11720000    1.0004516  -0.27602325      1728000    949.03485        58600        39562 
11730000     1.062165  -0.28438356      1728000    949.87044        58650        39597 
11740000   0.99456087  -0.28835582      1728000    950.69592        58700        39630 
11750000   0.99910777  -0.30451966      1728000    951.53256        58750        39660 
11760000    1.0183533  -0.28683042      1728000     952.3518        58800        39695 
11770000   0.97845723  -0.27235959      1728000    953.16221        58850        39720 
11780000     1.036929  -0.26396943      1728000    953.97755        58900        39752 
11790000   0.96880929  -0.29445313      1728000    954.78475        58950        39787 
11800000     1.095651  -0.28562405      1728000    955.60469        59000        39817 
11810000   0.97027021  -0.28822019      1728000    956.42031        59050        39849 
11820000   0.98096549  -0.27423934      1728000     957.2341        59100        39887 
11830000   0.98672407  -0.27487831      1728000    958.04524        59150        39923 
11840000   0.99696399  -0.29162286      1728000    958.85618        59200        39953 
11850000     1.000911   -0.2889425      1728000    959.68325        59250        39986 
11860000    1.0358974   -0.2778743      1728000     960.5014        59300        40019 
11870000   0.97404126  -0.28833109      1728000    961.31036        59350        40046 
11880000    0.9769069  -0.28323663      1728000    962.11829        59400        40078 
11890000   0.95230555  -0.28816516      1728000     962.9458        59450        40109 
11900000   0.96535951  -0.28231526      1728000    963.76098        59500        40139 
11910000    1.0201019  -0.28210983      1728000     964.5966        59550        40175 
11920000   0.98246941   -0.2827015      1728000    965.43276        59600        40208 
11930000   0.99759404  -0.28800878      1728000    966.28391        59650        40240 
11940000   0.93819924  -0.26424022      1728000    967.12251        59700        40271 
11950000    1.0203494  -0.28278592      1728000    967.93493        59750        40307 
11960000    1.0625104   -0.2715364      1728000    968.75229        59800        40338 
11970000   0.96870185  -0.28480501      1728000    969.58226        59850        40364 
11980000    0.9708347  -0.29153327      1728000    970.39326        59900        40402 
11990000    1.0165058   -0.2876927      1728000    971.21029        59950        40440 
12000000    1.0560121   -0.2864208      1728000     972.0453        60000        40472 
12010000    1.0390141  -0.29480308      1728000    972.85144        60050        40507 
12020000   0.98470519  -0.29615323      1728000     973.6645        60100        40541 
12030000   0.97780731  -0.30268706      1728000     974.4953        60150        40574 
12040000   0.99315665  -0.29192768      1728000    975.31815        60200        40607 
12050000   0.96166478  -0.31190857      1728000    976.13461        60250        40637 
12060000   0.99652648  -0.28959441      1728000     976.9615        60300        40665 
12070000    1.0025239  -0.29127592      1728000    977.79028        60350        40702 
12080000    1.0314456   -0.2913442      1728000    978.63608        60400        40732 
12090000   0.98635792  -0.27696282      1728000    979.45536        60450        40767 
12100000    1.0295114  -0.27485252      1728000    980.30252        60500        40801 
12110000     1.065868  -0.28105324      1728000    981.15267        60550        40836 
12120000   0.96465447  -0.28946984      1728000     981.9613        60600        40867 
12130000    0.9749512  -0.28849588      1728000    982.75446        60650        40901 
12140000    1.0620324  -0.29870535      1728000     983.5572        60700        40935 
12150000    1.0256047  -0.28806911      1728000    984.35141        60750        40968 
12160000   0.98561575  -0.28698268      1728000    985.14984        60800        41001 
12170000   0.95944886  -0.28965033      1728000    985.93878        60850        41036 
12180000     1.027118  -0.29978245      1728000     986.7314        60900        41069 
12190000    1.0341392  -0.29226099      1728000    987.52506        60950        41092 
12200000   0.98941585  -0.29299453      1728000    988.32933        61000        41122 
12210000    1.0381548  -0.31880176      1728000    989.12813        61050        41157 
12220000   0.96905665  -0.31238916      1728000    989.92648        61100        41185 
12230000    1.0066419  -0.29862427      1728000    990.72829        61150        41214 
12240000    1.0369348  -0.29320949      1728000    991.52517        61200        41245 
12250000    1.0094541  -0.29110612      1728000    992.35015        61250        41274 
12260000     1.028383  -0.29607659      1728000    993.17314        61300        41308 
12270000   0.99014354  -0.29607083      1728000    994.02227        61350        41335 
12280000    1.0689885  -0.27891949      1728000    994.84144        61400        41374 
12290000    0.9983433  -0.27231321      1728000    995.64564        61450        41402 
12300000    1.0126209  -0.26656066      1728000    996.47579        61500        41436 
12310000    1.0184623  -0.26247287      1728000     997.3113        61550        41474 
12320000   0.99974872  -0.25552874      1728000     998.1545        61600        41511 
12330000    1.0022235  -0.26712169      1728000    998.98568        61650        41547 
12340000   0.97907242  -0.26542278      1728000    999.80821        61700        41577 
12350000   0.98652989  -0.25881017      1728000    1000.6154        61750        41610 
12360000    1.0674556  -0.23726864      1728000    1001.4246        61800        41646 
12370000    1.0113921  -0.22855048      1728000    1002.2343        61850        41681 
12380000    1.0130551  -0.24489514      1728000    1003.0638        61900        41714 
12390000   0.94151488   -0.2402858      1728000      1003.91        61950        41750 
12400000    1.0052503  -0.24588463      1728000    1004.7441        62000        41784 
12410000   0.97500483  -0.25163295      1728000    1005.5883        62050        41818 
12420000   0.95521158  -0.24954865      1728000    1006.4035        62100        41856 
12430000   0.98346006  -0.25121765      1728000    1007.1971        62150        41889 
12440000   0.93395522  -0.28197987      1728000    1007.9948        62200        41926 
12450000   0.98809188  -0.25185242      1728000    1008.8004        62250        41965 
12460000    1.0016677  -0.28307994      1728000    1009.5914        62300        42000 
12470000    1.0189156  -0.28543685      1728000    1010.3885        62350        42032 
12480000   0.94511118    -0.285296      1728000    1011.1823        62400        42064 
12490000    0.9833074  -0.28277091      1728000    1011.9926        62450        42095 
12500000    1.0480016  -0.29252009      1728000    1012.7934        62500        42134 
12510000   0.98052997   -0.2725181      1728000    1013.5875        62550        42164 
12520000    1.0223281  -0.27877762      1728000    1014.3785        62600        42203 
12530000   0.94824457   -0.2862397      1728000    1015.1731        62650        42234 
12540000   0.94305486  -0.27102963      1728000    1015.9735        62700        42269 
12550000    1.0531566  -0.24731545      1728000    1016.7663        62750        42303 
12560000   0.98147821  -0.25905158      1728000    1017.5671        62800        42344 
12570000   0.96857814  -0.25504742      1728000    1018.3594        62850        42376 
12580000   0.99744389  -0.24969512      1728000    1019.1456        62900        42408 
12590000     1.067351  -0.24798503      1728000    1019.9354        62950        42441 
12600000    1.0021631  -0.24126276      1728000    1020.7444        63000        42474 
12610000    1.0159278  -0.24140731      1728000    1021.5678        63050        42507 
12620000    1.0048933  -0.23411214      1728000     1022.446        63100        42542 
12630000   0.93503369  -0.20470357      1728000    1023.2594        63150        42574 
12640000    1.0290515  -0.20045046      1728000    1024.0674        63200        42612 
12650000   0.97387322  -0.21923482      1728000    1024.9106        63250        42647 
12660000    1.0389757  -0.21371441      1728000    1025.7197        63300        42682 
12670000   0.99315075  -0.22209185      1728000    1026.5504        63350        42714 
12680000    1.0147119  -0.22137501      1728000    1027.3574        63400        42752 
12690000    1.0160912  -0.23762626      1728000    1028.1789        63450        42787 
12700000    1.0112748  -0.23460133      1728000    1029.0054        63500        42825 
12710000   0.97201823  -0.21685067      1728000    1029.8124        63550        42865 
12720000    1.0249207  -0.20533891      1728000    1030.6241        63600        42900 
12730000   0.93369764  -0.18761408      1728000    1031.4433        63650        42939 
12740000    1.0424624  -0.19281154      1728000     1032.249        63700        42976 
12750000   0.91051805  -0.19146771      1728000    1033.0564        63750        43014 
12760000    1.0392405  -0.19095559      1728000    1033.8567        63800        43056 
12770000   0.99115332  -0.20356331      1728000    1034.6989        63850        43096 
12780000   0.98619445  -0.22085394      1728000    1035.5332        63900        43133 
12790000    1.0071301  -0.23042221      1728000    1036.3554        63950        43167 
12800000   0.92673418  -0.22945869      1728000    1037.1706        64000        43202 
12810000   0.98604061  -0.23209312      1728000    1038.0013        64050        43238 
12820000    0.9915239   -0.2182164      1728000    1038.8055        64100        43274 
12830000   0.98591862  -0.23138873      1728000    1039.6327        64150        43308 
12840000   0.95121639  -0.20614342      1728000    1040.4385        64200        43342 
12850000    1.0135913  -0.21805869      1728000    1041.2453        64250        43380 
12860000    1.0048477  -0.22079945      1728000    1042.0676        64300        43418 
12870000   0.97457385  -0.23427406      1728000    1042.8714        64350        43453 
12880000   0.91730793   -0.2331046      1728000    1043.6754        64400        43492 
12890000   0.97017046  -0.23274636      1728000    1044.4786        64450        43527 
12900000    1.0019213  -0.22743988      1728000    1045.3137        64500        43561 
12910000    1.0217071  -0.22294167      1728000    1046.1262        64550        43594 
12920000     1.011354  -0.24462597      1728000    1046.9344        64600        43628 
12930000   0.94783144  -0.22912048      1728000    1047.7434        64650        43661 
12940000    0.9656319  -0.25705229      1728000    1048.5651        64700        43693 
12950000    1.0544725  -0.23792695      1728000    1049.4172        64750        43725 
12960000   0.97520129  -0.25777592      1728000    1050.2394        64800        43762 
12970000   0.97145139  -0.27183025      1728000    1051.0513        64850        43796 
12980000   0.99735646  -0.26720296      1728000    1051.9086        64900        43830 
12990000    1.1153489  -0.26617059      1728000    1052.7497        64950        43862 
13000000   0.98896764  -0.28549135      1728000    1053.5938        65000        43897 
13010000     1.027528  -0.28436471      1728000     1054.431        65050        43924 
13020000   0.96855011  -0.26834682      1728000    1055.2463        65100        43957 
13030000    1.0602602  -0.28021119      1728000    1056.0945        65150        43991 
13040000    0.9834223  -0.26122476      1728000    1056.9346        65200        44028 
13050000    1.0018567  -0.26912098      1728000    1057.7628        65250        44061 
13060000   0.97874776  -0.27246274      1728000     1058.592        65300        44092 
13070000     1.045057  -0.26863925      1728000    1059.4136        65350        44128 
13080000    1.0423344  -0.28406306      1728000    1060.2706        65400        44162 
13090000    1.0321525  -0.27657988      1728000    1061.0958        65450        44195 
13100000   0.97444378  -0.26165897      1728000    1061.9322        65500        44226 
13110000     1.007478  -0.25537808      1728000    1062.7414        65550        44263 
13120000   0.99219733  -0.27940418      1728000    1063.5935        65600        44296 
13130000   0.97644611  -0.25959127      1728000    1064.4556        65650        44326 
13140000   0.97528134  -0.25823136      1728000    1065.3237        65700        44363 
13150000   0.96815843  -0.24655465      1728000    1066.1519        65750        44398 
13160000    1.0213417  -0.24943968      1728000    1066.9936        65800        44430 
13170000    1.0024983  -0.25251947      1728000    1067.8458        65850        44465 
13180000    1.0034781  -0.25098675      1728000     1068.695        65900        44497 
13190000    1.0277205  -0.25262413      1728000    1069.5293        65950        44531 
13200000   0.90818712  -0.27290478      1728000    1070.3854        66000        44564 
13210000    1.0295552  -0.27730856      1728000    1071.2476        66050        44595 
13220000   0.98929025  -0.28347188      1728000      1072.08        66100        44629 
13230000    1.0207647  -0.27891654      1728000    1072.9084        66150        44664 
13240000   0.98861617  -0.25631659      1728000    1073.7402        66200        44693 
13250000    1.0412614  -0.25458249      1728000    1074.6123        66250        44724 
13260000    1.0385865  -0.25610107      1728000    1075.4555        66300        44755 
13270000   0.99594914  -0.24192881      1728000    1076.2996        66350        44789 
13280000   0.95776222  -0.25648089      1728000    1077.1608        66400        44819 
13290000    1.0383923  -0.24458901      1728000    1077.9819        66450        44850 
13300000    1.0539054  -0.26894584      1728000    1078.8191        66500        44883 
13310000   0.96975413  -0.26362299      1728000    1079.6642        66550        44911 
13320000   0.99871062  -0.26862231      1728000    1080.4824        66600        44945 
13330000    1.0339528  -0.26886599      1728000    1081.2925        66650        44975 
13340000   0.93536727  -0.25650306      1728000    1082.1017        66700        45008 
13350000    1.0299833  -0.26482766      1728000    1082.9261        66750        45036 
13360000    1.0367932  -0.26446284      1728000    1083.7423        66800        45077 
13370000    1.0338474  -0.28756313      1728000    1084.5818        66850        45112 
13380000    1.0600808  -0.28576843      1728000     1085.399        66900        45143 
13390000    1.0103964  -0.30018284      1728000    1086.2074        66950        45182 
13400000    1.0704579  -0.29663723      1728000    1087.0323        67000        45211 
13410000   0.94938732  -0.29439101      1728000    1087.8394        67050        45243 
13420000    1.0127867  -0.29435229      1728000    1088.6618        67100        45277 
13430000    1.0388957  -0.29271769      1728000    1089.4841        67150        45309 
13440000    1.0015799  -0.28346258      1728000    1090.3645        67200        45349 
13450000   0.96565211  -0.27061874      1728000    1091.2426        67250        45376 
13460000   0.97552123  -0.24656031      1728000    1092.1707        67300        45414 
13470000    1.0459578   -0.2690548      1728000    1093.0687        67350        45450 
13480000    1.0101262  -0.26390731      1728000    1093.9369        67400        45480 
13490000    1.0807786  -0.26702761      1728000     1094.764        67450        45513 
13500000    1.0271548  -0.26559933      1728000     1095.709        67500        45547 
13510000    1.0302827  -0.24682376      1728000    1096.6151        67550        45581 
13520000    1.0183816   -0.2598968      1728000    1097.4633        67600        45620 
13530000    1.0257991  -0.25697763      1728000    1098.2705        67650        45659 
13540000   0.98513207  -0.25362783      1728000    1099.0816        67700        45690 
13550000    1.0066285  -0.24543462      1728000    1099.8978        67750        45731 
13560000   0.96537898  -0.26070278      1728000     1100.717        67800        45762 
13570000   0.93659574  -0.24977791      1728000    1101.5671        67850        45796 
13580000   0.93816998  -0.25429908      1728000    1102.3964        67900        45836 
13590000    1.0866123  -0.25848596      1728000    1103.2186        67950        45872 
13600000   0.97557628  -0.27719572      1728000    1104.0778        68000        45903 
13610000    1.0173876  -0.26560039      1728000    1104.9139        68050        45937 
13620000   0.96696637  -0.26585377      1728000    1105.7452        68100        45972 
13630000   0.96691581  -0.28304694      1728000    1106.5645        68150        46006 
13640000    0.9933225   -0.2682867      1728000    1107.3799        68200        46040 
13650000    1.0302077  -0.27972998      1728000    1108.2011        68250        46076 
13660000    1.0158214  -0.26756583      1728000    1109.0113        68300        46115 
13670000   0.96571286  -0.27777019      1728000    1109.8264        68350        46151 
13680000   0.95971541   -0.2797269      1728000    1110.6377        68400        46184 
13690000   0.94733944  -0.25892723      1728000    1111.4533        68450        46214 
13700000   0.93429946  -0.27371858      1728000    1112.2747        68500        46249 
13710000      1.01048    -0.254696      1728000    1113.0753        68550        46285 
13720000   0.98179732  -0.25548797      1728000    1113.8767        68600        46324 
13730000   0.97467287  -0.29729422      1728000    1114.6849        68650        46359 
13740000   0.94890385  -0.28515594      1728000    1115.5341        68700        46392 
13750000    1.0103948  -0.28366286      1728000    1116.3483        68750        46425 
13760000   0.99548455  -0.28738795      1728000    1117.1524        68800        46459 
13770000   0.95361696  -0.28614038      1728000    1117.9571        68850        46494 
13780000    1.0620158  -0.28419733      1728000    1118.7574        68900        46530 
13790000    1.0451235  -0.27812322      1728000    1119.5744        68950        46565 
13800000    1.0270327  -0.27746191      1728000    1120.3694        69000        46601 
13810000    1.0125478  -0.27781765      1728000    1121.1675        69050        46634 
13820000    1.0155595   -0.2655453      1728000    1121.9594        69100        46670 
13830000   0.98464202   -0.2626944      1728000    1122.7563        69150        46703 
13840000    1.0202844  -0.27209703      1728000    1123.5535        69200        46738 
13850000   0.97695168  -0.25188051      1728000    1124.3523        69250        46769 
13860000    1.0119377  -0.27197716      1728000    1125.1833        69300        46804 
13870000   0.98528463  -0.28254752      1728000    1126.0133        69350        46838 
13880000   0.96567351  -0.28068023      1728000    1126.8154        69400        46871 
13890000    1.0301524  -0.28249681      1728000    1127.6205        69450        46906 
13900000    1.0903038  -0.26165605      1728000    1128.4264        69500        46943 
13910000    1.0505267  -0.23671492      1728000    1129.2254        69550        46980 
13920000     1.039436  -0.26282669      1728000    1130.0175        69600        47012 
13930000    1.0221045  -0.24712066      1728000    1130.8164        69650        47042 
13940000   0.95423843  -0.23540955      1728000    1131.6365        69700        47072 
13950000    1.0352983   -0.2639197      1728000    1132.4254        69750        47107 
13960000    1.0127653   -0.2673009      1728000    1133.2164        69800        47142 
13970000    1.0226444  -0.25895681      1728000    1134.0273        69850        47175 
13980000    1.0039711  -0.26882552      1728000    1134.8245        69900        47209 
13990000   0.95250259  -0.24811595      1728000    1135.6192        69950        47245 
14000000   0.98912451  -0.26864329      1728000    1136.4185        70000        47282 
14010000    1.0114298  -0.25146994      1728000    1137.2084        70050        47307 
14020000   0.96868944  -0.24360485      1728000    1137.9975        70100        47338 
14030000   0.93285922  -0.25863709      1728000    1138.7835        70150        47376 
14040000    1.0418592    -0.250271      1728000    1139.5786        70200        47411 
14050000    1.0415019  -0.24867695      1728000    1140.3763        70250        47448 
14060000     1.078223   -0.2345906      1728000    1141.1864        70300        47483 
14070000    1.0270443  -0.22715454      1728000    1141.9715        70350        47523 
14080000    1.0191086  -0.23110142      1728000    1142.7557        70400        47563 
14090000   0.97699722   -0.2266128      1728000    1143.5456        70450        47601 
14100000   0.98939786  -0.23805223      1728000    1144.3402        70500        47640 
14110000    0.9104481  -0.25618032      1728000    1145.1276        70550        47673 
14120000   0.96901252  -0.28269955      1728000    1145.9125        70600        47710 
14130000    1.0000365  -0.27413319      1728000    1146.6967        70650        47747 
14140000   0.98670002  -0.24647881      1728000    1147.4815        70700        47783 
14150000   0.99413087  -0.25660616      1728000    1148.2735        70750        47817 
14160000   0.97916523  -0.24969436      1728000    1149.0646        70800        47852 
14170000    1.0368774  -0.24861608      1728000    1149.8817        70850        47887 
14180000    1.0061536   -0.2501816      1728000    1150.6743        70900        47920 
14190000    1.0246088   -0.2400885      1728000    1151.4867        70950        47956 
14200000    0.9713274  -0.25971918      1728000    1152.2814        71000        47993 
14210000    1.0090018  -0.26830563      1728000    1153.0697        71050        48022 
14220000    1.0360124  -0.27852864      1728000    1153.8505        71100        48058 
14230000    1.0402633  -0.24955271      1728000    1154.6394        71150        48089 
14240000    1.0238828  -0.24723569      1728000    1155.4306        71200        48123 
14250000    1.0362666  -0.25925142      1728000    1156.2264        71250        48159 
14260000   0.96649828  -0.26427139      1728000    1157.0156        71300        48192 
14270000    1.0481281  -0.26535566      1728000    1157.8006        71350        48231 
14280000    1.0015959  -0.27177289      1728000    1158.5873        71400        48265 
14290000   0.95178127  -0.27026866      1728000    1159.3846        71450        48297 
14300000   0.92924874  -0.27502284      1728000     1160.226        71500        48329 
14310000    1.0188189  -0.27590337      1728000    1161.0327        71550        48367 
14320000   0.95736759  -0.28434352      1728000    1161.8673        71600        48399 
14330000   0.90303071  -0.27414275      1728000    1162.6846        71650        48425 
14340000   0.99393052   -0.2938725      1728000    1163.4987        71700        48454 
14350000   0.98546731  -0.29312422      1728000    1164.3266        71750        48487 
14360000   0.98174959  -0.28927711      1728000    1165.1717        71800        48523 
14370000     1.014935   -0.2779451      1728000    1165.9811        71850        48554 
14380000   0.95878057  -0.28064973      1728000    1166.8118        71900        48592 
14390000    1.0140996  -0.25339705      1728000    1167.6126        71950        48626 
14400000   0.99133262  -0.25789733      1728000    1168.4338        72000        48660 
14410000   0.96943924   -0.2698711      1728000    1169.2382        72050        48699 
14420000    1.0173483  -0.27420652      1728000    1170.1063        72100        48730 
14430000    1.0168676  -0.27406952      1728000    1170.9764        72150        48758 
14440000    1.0669625  -0.27389815      1728000    1171.8114        72200        48786 
14450000    1.0611037  -0.28292534      1728000    1172.7586        72250        48814 
14460000    1.0228164  -0.27905599      1728000    1173.6327        72300        48843 
14470000   0.99891467  -0.29842181      1728000    1174.5408        72350        48874 
14480000     1.033621  -0.28864098      1728000    1175.4039        72400        48903 
14490000     1.043896  -0.28966573      1728000     1176.267        72450        48934 
14500000     1.040467  -0.28947166      1728000    1177.1167        72500        48963 
14510000    1.0512666  -0.28482704      1728000    1177.9439        72550        48994 
14520000    0.9465175  -0.25982883      1728000    1178.7953        72600        49027 
14530000   0.95620356   -0.2710716      1728000    1179.6394        72650        49061 
14540000    1.0578527  -0.28538075      1728000    1180.4876        72700        49092 
14550000   0.91750975  -0.24735812      1728000    1181.3347        72750        49127 
14560000    1.0153316  -0.26066247      1728000    1182.1314        72800        49155 
14570000    1.0594807  -0.26350857      1728000    1182.9407        72850        49195 
14580000    1.0141044  -0.26679891      1728000    1183.7338        72900        49228 
14590000    1.0148836  -0.25981454      1728000    1184.5314        72950        49260 
14600000   0.99361572  -0.28020066      1728000    1185.3314        73000        49298 
14610000    0.9824393  -0.27597404      1728000    1186.1226        73050        49332 
14620000   0.97487588  -0.28181681      1728000    1186.9096        73100        49366 
14630000   0.97612275  -0.29235146      1728000    1187.7018        73150        49394 
14640000   0.98391323  -0.28816611      1728000    1188.4967        73200        49426 
14650000     1.057781  -0.28352538      1728000    1189.2863        73250        49462 
14660000    1.0523824  -0.29396198      1728000    1190.1015        73300        49492 
14670000   0.95646244  -0.29035842      1728000    1190.9125        73350        49514 
14680000   0.94653592  -0.28271423      1728000    1191.7066        73400        49549 
14690000    1.0419675  -0.26537604      1728000    1192.4976        73450        49575 
14700000   0.92393425   -0.2552219      1728000    1193.2994        73500        49606 
14710000   0.98845227  -0.27951718      1728000    1194.0896        73550        49637 
14720000    1.0514969  -0.24180431      1728000    1194.8827        73600        49667 
14730000    1.0664975  -0.25409049      1728000    1195.6667        73650        49700 
14740000    1.0037302  -0.25663155      1728000    1196.4677        73700        49731 
14750000    1.0252415  -0.25513738      1728000    1197.2585        73750        49767 
14760000    1.0348927  -0.25458258      1728000    1198.0444        73800        49796 
14770000   0.99677974  -0.26523502      1728000    1198.8352        73850        49831 
14780000     1.033509   -0.2567761      1728000    1199.6326        73900        49862 
14790000   0.97141026  -0.25376326      1728000    1200.4232        73950        49894 
14800000    1.0436817  -0.27340821      1728000    1201.2174        74000        49932 
14810000    1.0157209  -0.26032145      1728000    1202.0116        74050        49964 
14820000    0.9860425  -0.25242247      1728000    1202.7987        74100        50001 
14830000   0.97419987  -0.25702187      1728000    1203.5848        74150        50034 
14840000   0.93730026  -0.25911974      1728000    1204.3747        74200        50066 
14850000   0.99158941   -0.2562478      1728000    1205.1685        74250        50096 
14860000     1.017446  -0.26550408      1728000    1205.9645        74300        50131 
14870000   0.98193764  -0.27791563      1728000    1206.7615        74350        50164 
14880000   0.99315815  -0.28758042      1728000    1207.5488        74400        50198 
14890000   0.95799865  -0.26904736      1728000    1208.3385        74450        50236 
14900000    1.0288225   -0.2926548      1728000    1209.1377        74500        50272 
14910000    1.0381386   -0.2716631      1728000     1209.925        74550        50305 
14920000   0.99468769   -0.2810148      1728000    1210.7156        74600        50338 
14930000   0.99327526  -0.29498438      1728000    1211.5076        74650        50374 
14940000    1.0130489  -0.28782121      1728000    1212.3253        74700        50404 
14950000   0.99395739  -0.27966353      1728000    1213.1355        74750        50437 
14960000   0.99763835  -0.27347699      1728000    1213.9243        74800        50476 
14970000    1.0603462  -0.26307546      1728000    1214.7146        74850        50510 
14980000    1.0170836  -0.27853874      1728000    1215.5107        74900        50545 
14990000    1.0581483  -0.25478878      1728000    1216.3036        74950        50584 
15000000   0.99622043  -0.25485463      1728000    1217.1147        75000        50618 
15010000    1.0177599   -0.2406837      1728000    1217.8996        75050        50654 
15020000       1.0039  -0.23871395      1728000    1218.6835        75100        50697 
15030000    1.0204139  -0.26216796      1728000    1219.4665        75150        50732 
15040000    1.0401283  -0.27425822      1728000    1220.2506        75200        50768 
15050000   0.98678349  -0.25496349      1728000    1221.0367        75250        50802 
15060000   0.97278513  -0.26872543      1728000    1221.8447        75300        50838 
15070000    1.0369302  -0.28392433      1728000    1222.6373        75350        50866 
15080000   0.97838731  -0.27776329      1728000    1223.4307        75400        50904 
15090000   0.96297946   -0.2836991      1728000    1224.2355        75450        50934 
15100000    0.9723291  -0.27849393      1728000    1225.0465        75500        50970 
15110000   0.94380808  -0.29585471      1728000    1225.8622        75550        51006 
15120000   0.99859072  -0.29196115      1728000    1226.6597        75600        51037 
15130000   0.96316729  -0.30782102      1728000    1227.4713        75650        51067 
15140000    0.9706095  -0.30453186      1728000    1228.2966        75700        51104 
15150000    1.0043693  -0.28869401      1728000    1229.0927        75750        51137 
15160000   0.95396823   -0.3041553      1728000    1229.8937        75800        51170 
15170000    1.0566524  -0.30614086      1728000    1230.6897        75850        51204 
15180000    1.0367551  -0.31241661      1728000    1231.4944        75900        51229 
15190000   0.92583468  -0.30414106      1728000    1232.3044        75950        51256 
15200000   0.94100731  -0.30795211      1728000    1233.1535        76000        51286 
15210000    1.0332265  -0.29285844      1728000    1233.9806        76050        51312 
15220000    1.0476804  -0.29653023      1728000    1234.7948        76100        51350 
15230000    0.9597065   -0.2864614      1728000    1235.6195        76150        51377 
15240000    1.0435981  -0.30244948      1728000    1236.4317        76200        51406 
15250000    1.0412879  -0.28744524      1728000    1237.2267        76250        51435 
15260000    1.0034288  -0.28848531      1728000    1238.0403        76300        51468 
15270000    1.0034395  -0.31210424      1728000    1238.8417        76350        51502 
15280000     0.988398  -0.29509128      1728000    1239.6363        76400        51536 
15290000   0.98158269  -0.29070902      1728000    1240.4356        76450        51567 
15300000    1.0015106  -0.28653783      1728000    1241.2457        76500        51603 
15310000    1.0299297   -0.2849733      1728000    1242.0406        76550        51633 
15320000   0.99953807  -0.27256026      1728000    1242.8416        76600        51664 
15330000   0.95700567  -0.27760973      1728000    1243.6444        76650        51694 
15340000    1.0381904  -0.26918042      1728000    1244.4377        76700        51723 
15350000   0.99360152  -0.25883265      1728000    1245.2481        76750        51761 
15360000    1.0122345   -0.2704031      1728000    1246.0707        76800        51798 
15370000   0.96249074  -0.27363857      1728000    1246.8747        76850        51825 
15380000    1.0169695  -0.29618775      1728000    1247.6837        76900        51859 
15390000    1.0025239  -0.28394448      1728000    1248.4906        76950        51892 
15400000    1.0501016  -0.27805301      1728000    1249.3028        77000        51926 
15410000    1.0160226  -0.29067082      1728000    1250.0955        77050        51959 
15420000   0.97830514  -0.29894451      1728000    1250.8927        77100        51991 
15430000    1.0468615  -0.30476872      1728000    1251.6937        77150        52025 
15440000    1.0022732  -0.29362623      1728000    1252.4955        77200        52052 
15450000   0.99476319  -0.29735503      1728000    1253.3006        77250        52086 
15460000   0.95584939  -0.30320162      1728000    1254.1105        77300        52122 
15470000    1.0275689  -0.27806479      1728000    1254.9134        77350        52161 
15480000   0.97552193  -0.28385158      1728000    1255.7255        77400        52195 
15490000   0.96894282  -0.27197884      1728000    1256.5494        77450        52227 
15500000    1.0511301  -0.28258703      1728000    1257.3828        77500        52261 
15510000   0.99612241  -0.27491531      1728000    1258.2517        77550        52296 
15520000   0.93927923  -0.29021894      1728000    1259.0626        77600        52327 
15530000   0.98636158  -0.29099598      1728000    1259.9018        77650        52357 
15540000   0.97530104  -0.29408725      1728000    1260.6897        77700        52396 
15550000    1.0347527  -0.28283237      1728000    1261.4755        77750        52428 
15560000   0.97690073  -0.27383827      1728000    1262.2964        77800        52462 
15570000    0.9801703  -0.27991457      1728000    1263.1124        77850        52491 
15580000    1.0131156  -0.28749435      1728000    1263.9325        77900        52526 
15590000    1.0065378  -0.29271209      1728000    1264.7463        77950        52557 
15600000   0.97459061  -0.27742054      1728000    1265.5707        78000        52589 
15610000   0.99191227  -0.27946595      1728000    1266.3766        78050        52617 
15620000    1.0081579  -0.26975021      1728000    1267.1858        78100        52650 
15630000     1.042108  -0.27247879      1728000    1267.9745        78150        52680 
15640000    1.0303329  -0.26111836      1728000    1268.7638        78200        52715 
15650000   0.96103905   -0.2654362      1728000    1269.5693        78250        52747 
15660000    1.0352624  -0.26568983      1728000    1270.3556        78300        52787 
15670000    1.0118454  -0.27389393      1728000    1271.1535        78350        52819 
15680000   0.93765974  -0.27498752      1728000    1271.9686        78400        52856 
15690000    1.0796156  -0.29338624      1728000    1272.7785        78450        52888 
15700000    1.0334687  -0.29970616      1728000    1273.6086        78500        52919 
15710000    1.0591108   -0.2981148      1728000    1274.4156        78550        52949 
15720000   0.98103159  -0.28278885      1728000    1275.2083        78600        52989 
15730000   0.99813542  -0.30638429      1728000     1275.991        78650        53018 
15740000   0.98459087  -0.29233555      1728000    1276.8107        78700        53055 
15750000   0.99975677  -0.27565815      1728000    1277.6238        78750        53085 
15760000   0.95358513  -0.26095214      1728000    1278.4172        78800        53114 
15770000     1.019865  -0.29485092      1728000    1279.2209        78850        53146 
15780000   0.95793655  -0.26704227      1728000    1280.0348        78900        53175 
15790000    0.9995721   -0.2840323      1728000    1280.8695        78950        53207 
15800000   0.98165787  -0.29240784      1728000    1281.6847        79000        53237 
15810000    1.0345872  -0.29868593      1728000    1282.4994        79050        53263 
15820000   0.95835355  -0.29810842      1728000    1283.3086        79100        53296 
15830000   0.96930284  -0.29213347      1728000    1284.1643        79150        53330 
15840000   0.97848706  -0.29148853      1728000    1284.9745        79200        53361 
15850000    1.0346225  -0.28079799      1728000    1285.7665        79250        53395 
15860000    1.0353189  -0.30046227      1728000    1286.5628        79300        53430 
15870000   0.99595175   -0.2806073      1728000    1287.3911        79350        53465 
15880000    1.0408331  -0.29141516      1728000    1288.2106        79400        53495 
15890000    1.0223259  -0.29965673      1728000    1289.0038        79450        53527 
15900000    1.0286935  -0.32420946      1728000    1289.8026        79500        53563 
15910000    1.0088193  -0.32212846      1728000    1290.6176        79550        53590 
15920000    1.0611653  -0.29936016      1728000    1291.4249        79600        53620 
15930000    1.0372735  -0.28966868      1728000    1292.2278        79650        53649 
15940000   0.99714932  -0.28255202      1728000    1293.0325        79700        53683 
15950000   0.99835904  -0.28688773      1728000    1293.8455        79750        53720 
15960000   0.95579031  -0.28694911      1728000    1294.6579        79800        53752 
15970000   0.96337976  -0.28364562      1728000    1295.4516        79850        53783 
15980000    1.0415756   -0.2696001      1728000    1296.2475        79900        53818 
15990000    1.0045126  -0.28725541      1728000    1297.0421        79950        53857 
16000000    1.0244149  -0.28456366      1728000    1297.8567        80000        53888 
16010000   0.99663763   -0.2822501      1728000    1298.6657        80050        53919 
16020000   0.96415042  -0.26434005      1728000    1299.4668        80100        53948 
16030000     0.997408  -0.27834977      1728000    1300.2998        80150        53979 
16040000    1.0456851  -0.28549413      1728000    1301.0897        80200        54007 
16050000    1.0056424  -0.29466705      1728000    1301.8867        80250        54042 
16060000    1.0190236   -0.2966676      1728000    1302.6798        80300        54078 
16070000   0.98111797  -0.27269763      1728000    1303.4818        80350        54109 
16080000    1.0133925  -0.28153639      1728000    1304.2738        80400        54140 
16090000   0.99460382  -0.28399175      1728000    1305.0597        80450        54173 
16100000    1.0168578  -0.28632837      1728000    1305.8517        80500        54201 
16110000    1.0789228  -0.27414319      1728000    1306.6367        80550        54231 
16120000    0.9935443  -0.29440034      1728000    1307.4208        80600        54266 
16130000    1.0321104  -0.28396462      1728000    1308.2036        80650        54294 
16140000   0.95096946  -0.28482375      1728000    1308.9948        80700        54323 
16150000      1.02294   -0.3005427      1728000    1309.7979        80750        54348 
16160000    1.0477246  -0.28828461      1728000    1310.6095        80800        54383 
16170000    1.0614701  -0.28061496      1728000    1311.4136        80850        54419 
16180000    1.0121457  -0.25244633      1728000    1312.2185        80900        54447 
16190000   0.99539089  -0.24377559      1728000    1313.0085        80950        54485 
16200000   0.99101623  -0.26497354      1728000    1313.8108        81000        54523 
16210000   0.93400966   -0.2598108      1728000    1314.6048        81050        54552 
16220000   0.99876277  -0.27692823      1728000    1315.3878        81100        54585 
16230000    0.9259489  -0.28123623      1728000    1316.1876        81150        54623 
16240000   0.97576298  -0.28258398      1728000    1316.9927        81200        54656 
16250000    1.0344234  -0.27383991      1728000    1317.7935        81250        54691 
16260000    1.0579298  -0.25881045      1728000    1318.5867        81300        54728 
16270000   0.98992903  -0.25880824      1728000    1319.3889        81350        54765 
16280000   0.95026017  -0.25967302      1728000    1320.1957        81400        54800 
16290000   0.99332276  -0.27030319      1728000    1320.9878        81450        54833 
16300000    1.0077367  -0.26477126      1728000    1321.7989        81500        54861 
16310000    1.0450228  -0.26499886      1728000    1322.5998        81550        54899 
16320000   0.94748627  -0.25363194      1728000    1323.4133        81600        54929 
16330000   0.94897276  -0.26958842      1728000    1324.2088        81650        54960 
16340000   0.97575426  -0.26049438      1728000    1324.9948        81700        54991 
16350000     1.030791  -0.27080869      1728000    1325.7786        81750        55031 
16360000    1.0011998  -0.26654879      1728000    1326.5737        81800        55068 
16370000    1.0030852   -0.2567101      1728000    1327.3586        81850        55105 
16380000    1.0096895  -0.26020811      1728000    1328.1409        81900        55146 
16390000   0.95372517  -0.26962491      1728000    1328.9273        81950        55178 
16400000    1.0024926  -0.28425292      1728000    1329.7228        82000        55218 
16410000   0.98254963  -0.27958024      1728000    1330.5065        82050        55254 
16420000   0.97625157  -0.28884255      1728000    1331.3026        82100        55291 
16430000    1.0052643  -0.27903101      1728000    1332.0925        82150        55325 
16440000    1.0349769  -0.29172356      1728000    1332.8838        82200        55360 
16450000   0.95056185  -0.29463272      1728000    1333.6822        82250        55395 
16460000   0.94024832  -0.28425783      1728000    1334.4755        82300        55430 
16470000    1.0233104  -0.26992367      1728000    1335.2768        82350        55463 
16480000    1.0116031  -0.26323465      1728000    1336.0629        82400        55502 
16490000     1.016597  -0.26605825      1728000    1336.8537        82450        55538 
16500000   0.97021748  -0.27029037      1728000    1337.6525        82500        55570 
16510000    1.0309113    -0.264236      1728000    1338.4448        82550        55604 
16520000   0.99003452  -0.27577095      1728000    1339.2387        82600        55639 
16530000     1.000901  -0.27499947      1728000    1340.0319        82650        55678 
16540000    1.0706388  -0.26600729      1728000    1340.8206        82700        55713 
16550000   0.93730919  -0.25506503      1728000    1341.6075        82750        55752 
16560000   0.98928696   -0.2735962      1728000    1342.4123        82800        55786 
16570000   0.94672534  -0.27362102      1728000    1343.2126        82850        55815 
16580000   0.96906405  -0.26662334      1728000    1344.0039        82900        55847 
16590000    1.0217493   -0.2759859      1728000    1344.7907        82950        55883 
16600000   0.92873376  -0.28229932      1728000    1345.6074        83000        55919 
16610000   0.99260564  -0.28541017      1728000    1346.4319        83050        55949 
16620000    1.0351107  -0.26867819      1728000    1347.2307        83100        55983 
16630000      1.04054  -0.27940935      1728000    1348.0328        83150        56017 
16640000   0.92403476   -0.2787378      1728000    1348.8336        83200        56051 
16650000    1.0419614  -0.27857564      1728000    1349.6299        83250        56086 
16660000    1.0064276  -0.26232418      1728000    1350.4239        83300        56119 
16670000   0.99821069  -0.28893649      1728000    1351.2388        83350        56155 
16680000   0.98061407  -0.27692689      1728000    1352.0446        83400        56184 
16690000   0.96209381  -0.28257926      1728000    1352.8523        83450        56214 
16700000    1.0147471  -0.27873653      1728000    1353.6796        83500        56250 
16710000    1.0049992  -0.28035665      1728000    1354.4867        83550        56284 
16720000    0.9685208  -0.29693742      1728000    1355.2893        83600        56318 
16730000    1.0123069  -0.27926436      1728000    1356.0996        83650        56355 
16740000    1.0132506  -0.29017797      1728000    1356.9123        83700        56387 
16750000    0.9377075  -0.27344917      1728000    1357.6989        83750        56422 
16760000    1.0307909  -0.27352643      1728000    1358.5063        83800        56455 
16770000    0.9636544  -0.28274431      1728000    1359.3116        83850        56485 
16780000    1.0022435  -0.26850646      1728000    1360.1017        83900        56512 
16790000    1.0487596  -0.25025219      1728000    1360.8888        83950        56544 
16800000   0.97002279  -0.24949003      1728000    1361.6909        84000        56584 
16810000   0.98982041  -0.24723595      1728000    1362.4747        84050        56616 
16820000    1.0313309  -0.25310395      1728000    1363.2589        84100        56645 
16830000    1.0224083  -0.24711274      1728000    1364.0549        84150        56681 
16840000   0.96811483  -0.24530948      1728000    1364.8495        84200        56713 
16850000    0.9905693  -0.26288279      1728000    1365.6431        84250        56749 
16860000   0.97862396  -0.26358949      1728000    1366.4564        84300        56780 
16870000   0.96125506  -0.25643848      1728000    1367.2806        84350        56819 
16880000    1.0185261  -0.25944209      1728000    1368.0924        84400        56855 
16890000     1.005558  -0.25839022      1728000    1368.8905        84450        56891 
16900000   0.98887292  -0.26272996      1728000    1369.6979        84500        56922 
16910000    1.0097142  -0.25495341      1728000    1370.4856        84550        56956 
16920000    0.9887624  -0.25715402      1728000    1371.2729        84600        56992 
16930000   0.95522477  -0.25879613      1728000    1372.0597        84650        57025 
16940000    1.0142516  -0.26676231      1728000    1372.8488        84700        57059 
16950000    1.0138541  -0.25844343      1728000    1373.6398        84750        57091 
16960000     1.007353  -0.25695805      1728000    1374.4336        84800        57122 
16970000    1.0488675  -0.26250468      1728000    1375.2297        84850        57162 
16980000     1.069461  -0.27409776      1728000     1376.039        84900        57193 
16990000    1.0855922  -0.26483715      1728000    1376.8416        84950        57222 
17000000   0.99231096  -0.27918862      1728000    1377.6451        85000        57258 
17010000   0.99697383  -0.28325591      1728000    1378.4348        85050        57292 
17020000   0.94198577  -0.29170284      1728000    1379.2225        85100        57322 
17030000    1.0613975   -0.2838106      1728000    1380.0067        85150        57345 
17040000    1.0019348   -0.2796068      1728000    1380.7868        85200        57377 
17050000   0.96835525  -0.28817483      1728000    1381.5719        85250        57410 
17060000   0.89300164    -0.282576      1728000    1382.3738        85300        57441 
17070000   0.99735052  -0.25950893      1728000    1383.1749        85350        57475 
17080000    1.0119678  -0.27192475      1728000    1383.9738        85400        57508 
17090000    1.0503483  -0.27944743      1728000    1384.7665        85450        57542 
17100000   0.97288999   -0.2874465      1728000    1385.5607        85500        57574 
17110000    1.0458196  -0.27906285      1728000    1386.3579        85550        57610 
17120000    1.0469241  -0.26485263      1728000    1387.1419        85600        57645 
17130000    1.0304858  -0.27554713      1728000    1387.9246        85650        57677 
17140000    1.0446659  -0.28207648      1728000    1388.7106        85700        57709 
17150000    1.0174644  -0.29064834      1728000    1389.5106        85750        57744 
17160000   0.94885873  -0.26958027      1728000    1390.3065        85800        57777 
17170000    1.0555583  -0.25900355      1728000    1391.0909        85850        57815 
17180000    1.0305207  -0.26877466      1728000    1391.8759        85900        57850 
17190000    1.0552274  -0.26734592      1728000    1392.6826        85950        57879 
17200000    1.0418436  -0.27427263      1728000    1393.4967        86000        57918 
17210000   0.98117598  -0.27174444      1728000    1394.2917        86050        57955 
17220000     1.013782  -0.25322385      1728000    1395.0966        86100        57987 
17230000    1.1022687  -0.27065433      1728000    1395.8889        86150        58021 
17240000   0.97763594  -0.27096688      1728000    1396.6869        86200        58056 
17250000   0.96499005  -0.26538297      1728000    1397.4838        86250        58092 
17260000    0.9701553  -0.26013253      1728000    1398.2849        86300        58125 
17270000    1.0112503  -0.27805036      1728000    1399.0756        86350        58159 
17280000    1.0523584   -0.2516275      1728000    1399.8686        86400        58195 
17290000   0.94558202   -0.2604584      1728000     1400.662        86450        58225 
17300000   0.96362457  -0.22329632      1728000     1401.463        86500        58260 
17310000    0.9541541  -0.23927591      1728000    1402.2558        86550        58300 
17320000    1.0078157  -0.25918077      1728000    1403.0649        86600        58336 
17330000   0.98882931  -0.24787867      1728000    1403.8619        86650        58369 
17340000    1.0055936  -0.24748426      1728000    1404.6588        86700        58405 
17350000    1.0272683  -0.24487212      1728000    1405.4658        86750        58443 
17360000     1.012428  -0.25873673      1728000    1406.2849        86800        58478 
17370000   0.99676809  -0.27218845      1728000    1407.0957        86850        58508 
17380000    1.0127894  -0.27222381      1728000    1407.8977        86900        58540 
17390000    1.0245124  -0.26021064      1728000    1408.6911        86950        58571 
17400000    1.0524937  -0.25747081      1728000    1409.4922        87000        58608 
17410000    1.0029537   -0.2477279      1728000    1410.2778        87050        58647 
17420000    1.0098819  -0.26333214      1728000    1411.0708        87100        58686 
17430000   0.98027323  -0.27315204      1728000     1411.856        87150        58720 
17440000    1.0371861  -0.28193925      1728000    1412.6454        87200        58754 
17450000   0.96163262  -0.28936007      1728000    1413.4396        87250        58788 
17460000   0.96203645  -0.28487549      1728000    1414.2368        87300        58823 
17470000   0.98670184  -0.29180136      1728000    1415.0391        87350        58856 
17480000    1.0205859  -0.28508644      1728000     1415.823        87400        58887 
17490000   0.94525991  -0.29985186      1728000    1416.6175        87450        58918 
17500000   0.96637992  -0.28611472      1728000    1417.4127        87500        58950 
17510000    1.0104396  -0.27458374      1728000    1418.1969        87550        58987 
17520000     1.054529  -0.26100554      1728000    1418.9913        87600        59015 
17530000    1.0333616  -0.27409022      1728000    1419.7807        87650        59047 
17540000    1.0309601  -0.28867456      1728000     1420.573        87700        59076 
17550000   0.98143342  -0.26872479      1728000    1421.3596        87750        59108 
17560000     1.008228  -0.26809803      1728000      1422.15        87800        59143 
17570000   0.99844368  -0.30280563      1728000      1422.94        87850        59179 
17580000    1.0790309  -0.28165186      1728000    1423.7348        87900        59213 
17590000   0.94214255  -0.29269522      1728000    1424.5288        87950        59251 
17600000     1.046909  -0.29095569      1728000     1425.343        88000        59278 
17610000   0.97740644  -0.29908757      1728000    1426.1437        88050        59303 
17620000     0.995519  -0.28236327      1728000    1426.9389        88100        59337 
17630000    1.0434015  -0.27997335      1728000    1427.7259        88150        59371 
17640000    1.0462202  -0.27576098      1728000    1428.5188        88200        59404 
17650000    1.0037024  -0.30105909      1728000    1429.3117        88250        59441 
17660000    1.0159365  -0.30267406      1728000    1430.1118        88300        59470 
17670000   0.99460669  -0.29850892      1728000    1430.9119        88350        59503 
17680000    1.0137187  -0.29342529      1728000    1431.7049        88400        59534 
17690000   0.99686546  -0.30763707      1728000    1432.5068        88450        59568 
17700000    1.0080947   -0.2944652      1728000     1433.332        88500        59603 
17710000   0.98499502  -0.29857912      1728000    1434.1387        88550        59632 
17720000   0.97598625   -0.2836716      1728000    1434.9409        88600        59661 
17730000    1.0303639  -0.29330989      1728000    1435.7288        88650        59695 
17740000    1.0770862  -0.29872291      1728000    1436.5758        88700        59719 
17750000   0.97337822  -0.27813765      1728000    1437.3704        88750        59750 
17760000   0.96719168  -0.28969864      1728000    1438.1602        88800        59780 
17770000   0.99776492   -0.2795258      1728000    1438.9436        88850        59814 
17780000   0.96684764  -0.25416954      1728000     1439.744        88900        59845 
17790000   0.97464189  -0.23616274      1728000    1440.5359        88950        59883 
17800000   0.96374667  -0.25753267      1728000    1441.3348        89000        59918 
17810000    1.0287494  -0.27243601      1728000    1442.1448        89050        59946 
17820000    0.9930144  -0.27540608      1728000    1442.9348        89100        59980 
17830000    1.0656816  -0.26157617      1728000    1443.7279        89150        60012 
17840000    1.0544886  -0.26458085      1728000    1444.5317        89200        60043 
17850000   0.98080304  -0.26949248      1728000    1445.3692        89250        60078 
17860000   0.96576863  -0.25351917      1728000    1446.2057        89300        60113 
17870000   0.99833677  -0.26470995      1728000    1447.0209        89350        60150 
17880000   0.91921917  -0.24826564      1728000    1447.8072        89400        60182 
17890000   0.95635414  -0.25673019      1728000     1448.593        89450        60218 
17900000    0.9271103  -0.27736292      1728000    1449.3859        89500        60251 
17910000   0.97913655  -0.29160093      1728000    1450.1839        89550        60288 
17920000      1.00158  -0.30192436      1728000    1450.9934        89600        60323 
17930000    1.0672563  -0.30760947      1728000     1451.795        89650        60355 
17940000   0.99545986  -0.32590763      1728000    1452.5857        89700        60390 
17950000   0.96127334  -0.28842736      1728000    1453.3679        89750        60420 
17960000   0.97087883   -0.3199813      1728000    1454.1531        89800        60455 
17970000    0.9827962  -0.28969742      1728000    1454.9434        89850        60494 
17980000    1.0447794  -0.32255954      1728000    1455.7338        89900        60527 
17990000    1.0670947  -0.31301003      1728000    1456.5277        89950        60561 
18000000   0.97966321    -0.301073      1728000     1457.347        90000        60596 
18010000   0.90358969   -0.3071645      1728000    1458.1468        90050        60628 
18020000   0.95941867  -0.28373299      1728000    1458.9426        90100        60658 
18030000   0.97047535  -0.27581794      1728000    1459.7316        90150        60689 
18040000   0.97304054  -0.27427233      1728000     1460.515        90200        60720 
18050000    1.0555141  -0.27575549      1728000    1461.3058        90250        60760 
18060000   0.97229379  -0.29047531      1728000    1462.1172        90300        60798 
18070000    1.0171606   -0.2951155      1728000     1462.909        90350        60831 
18080000    1.0232182  -0.28486212      1728000    1463.6958        90400        60869 
18090000    1.0354037   -0.2951917      1728000    1464.4956        90450        60903 
18100000      1.00609  -0.30031233      1728000    1465.3071        90500        60933 
18110000   0.96517145  -0.30019859      1728000    1466.1338        90550        60964 
18120000   0.96423731  -0.31285196      1728000    1466.9566        90600        60994 
18130000   0.94806445  -0.26687936      1728000    1467.7708        90650        61026 
18140000    1.0196606  -0.28185879      1728000    1468.5845        90700        61057 
18150000    1.0181837  -0.29237457      1728000    1469.3891        90750        61087 
18160000    1.0042573  -0.28548071      1728000    1470.1969        90800        61121 
18170000   0.98803212   -0.2725905      1728000    1471.0069        90850        61158 
18180000    1.0142915  -0.27243323      1728000     1471.801        90900        61193 
18190000    1.0342868  -0.27973964      1728000    1472.5898        90950        61226 
18200000   0.97378554  -0.28893023      1728000     1473.391        91000        61260 
18210000    1.0421052  -0.27780036      1728000    1474.1869        91050        61290 
18220000    1.0558712  -0.29046472      1728000    1474.9797        91100        61325 
18230000    1.0284667  -0.26061579      1728000    1475.7638        91150        61360 
18240000     1.077659  -0.27293679      1728000    1476.5516        91200        61394 
18250000    1.0563779  -0.27776746      1728000     1477.346        91250        61423 
18260000    1.0362349  -0.29432605      1728000    1478.1389        91300        61458 
18270000    1.0787244  -0.27003115      1728000    1478.9296        91350        61494 
18280000   0.99610152  -0.26345953      1728000     1479.717        91400        61532 
18290000   0.98828073  -0.28748221      1728000    1480.5069        91450        61567 
18300000   0.98400798  -0.28755085      1728000     1481.302        91500        61603 
18310000    1.0005611  -0.28100295      1728000    1482.0878        91550        61642 
18320000    1.0461854   -0.2804466      1728000     1482.876        91600        61674 
18330000     1.081512  -0.27890295      1728000     1483.658        91650        61707 
18340000   0.98777509  -0.28513304      1728000     1484.445        91700        61737 
18350000   0.97676306  -0.30559006      1728000    1485.2569        91750        61769 
18360000     1.025498  -0.30453013      1728000    1486.0706        91800        61800 
18370000    1.0740385    -0.286991      1728000    1486.8817        91850        61838 
18380000   0.98803631  -0.28922916      1728000     1487.672        91900        61872 
18390000   0.96990615  -0.28662528      1728000    1488.4628        91950        61908 
18400000    1.0095461  -0.29206462      1728000     1489.258        92000        61940 
18410000    1.0077919  -0.27777028      1728000    1490.0518        92050        61969 
18420000    1.0518081  -0.27750603      1728000    1490.8398        92100        62001 
18430000    1.0157913  -0.26409286      1728000      1491.63        92150        62037 
18440000    0.9872213  -0.26473824      1728000     1492.422        92200        62069 
18450000    1.0551797  -0.27253471      1728000    1493.2119        92250        62101 
18460000   0.96731899   -0.2736783      1728000    1494.0078        92300        62139 
18470000    1.0163453  -0.26260459      1728000    1494.8119        92350        62177 
18480000   0.94911892  -0.27252575      1728000    1495.6168        92400        62209 
18490000     1.031094  -0.28040916      1728000     1496.442        92450        62242 
18500000   0.96362311  -0.29499161      1728000     1497.247        92500        62276 
18510000    1.0136863  -0.27283405      1728000    1498.0319        92550        62315 
18520000    1.0288639  -0.27712881      1728000    1498.8229        92600        62352 
18530000   0.98362015  -0.28285391      1728000    1499.6117        92650        62387 
18540000   0.99333028  -0.26643248      1728000    1500.3978        92700        62423 
18550000    1.0000706  -0.27767736      1728000    1501.1909        92750        62455 
18560000    1.0023858  -0.28409911      1728000    1501.9828        92800        62486 
18570000   0.97217595  -0.27714781      1728000    1502.7736        92850        62524 
18580000    1.0443568  -0.27224678      1728000    1503.5628        92900        62555 
18590000     1.039664  -0.26816111      1728000    1504.3528        92950        62588 
18600000   0.95660878  -0.27789971      1728000    1505.1498        93000        62624 
18610000    1.1238952  -0.27574401      1728000    1505.9378        93050        62656 
18620000    1.0545859  -0.27354078      1728000    1506.7229        93100        62695 
18630000    1.0120899  -0.27243155      1728000    1507.5087        93150        62727 
18640000   0.99718471     -0.27994      1728000    1508.2968        93200        62761 
18650000    1.0180677  -0.29203648      1728000    1509.0888        93250        62793 
18660000   0.98974506  -0.28094689      1728000    1509.8789        93300        62832 
18670000   0.98816372  -0.30360028      1728000    1510.6739        93350        62865 
18680000   0.98587205   -0.2955815      1728000    1511.4718        93400        62898 
18690000    1.0035169  -0.28730361      1728000    1512.2619        93450        62929 
18700000    1.0267024  -0.28544052      1728000    1513.0589        93500        62963 
18710000   0.95915627  -0.30029176      1728000    1513.8418        93550        62995 
18720000   0.99504528  -0.28732167      1728000    1514.6269        93600        63031 
18730000   0.98954802   -0.2798185      1728000    1515.4149        93650        63068 
18740000    1.0023159  -0.26937363      1728000    1516.2048        93700        63105 
18750000    1.0308051  -0.26456552      1728000    1516.9968        93750        63142 
18760000    0.9847046  -0.27397291      1728000    1517.7899        93800        63179 
18770000   0.98750762  -0.28650308      1728000    1518.5823        93850        63217 
18780000    1.0060944  -0.30992434      1728000    1519.3769        93900        63250 
18790000    1.0124654  -0.28131732      1728000    1520.1703        93950        63284 
18800000   0.96999081  -0.29051572      1728000    1520.9728        94000        63318 
18810000    0.9816784  -0.30406788      1728000    1521.7649        94050        63355 
18820000   0.96055041  -0.28827437      1728000    1522.5508        94100        63387 
18830000   0.98750798  -0.27327679      1728000    1523.3424        94150        63416 
18840000   0.96895976  -0.28592031      1728000    1524.1307        94200        63450 
18850000    1.0203139  -0.27376131      1728000     1524.917        94250        63483 
18860000    0.9563512  -0.27603963      1728000    1525.7056        94300        63518 
18870000   0.98655008  -0.27903886      1728000    1526.4988        94350        63553 
18880000   0.98137005  -0.26494523      1728000     1527.287        94400        63588 
18890000    1.0088763  -0.27221165      1728000    1528.0789        94450        63624 
18900000    1.0150459  -0.27008467      1728000    1528.8817        94500        63660 
18910000   0.94271596  -0.27308672      1728000    1529.6737        94550        63695 
18920000   0.97554789  -0.26816802      1728000    1530.4682        94600        63727 
18930000    1.0409573  -0.26339885      1728000    1531.2588        94650        63757 
18940000   0.98400634  -0.26650513      1728000     1532.046        94700        63792 
18950000   0.97850242  -0.26496003      1728000     1532.836        94750        63835 
18960000    1.0382922  -0.26627322      1728000    1533.6319        94800        63870 
18970000     1.004748   -0.2596852      1728000    1534.4279        94850        63907 
18980000    1.0350979  -0.24223549      1728000    1535.2219        94900        63941 
18990000   0.98998605  -0.25241907      1728000    1536.0129        94950        63977 
19000000   0.95967788  -0.26635794      1728000    1536.8188        95000        64007 
19010000    1.0052669  -0.27538157      1728000    1537.6058        95050        64042 
19020000    1.0050336  -0.24563705      1728000    1538.3967        95100        64077 
19030000     1.060446    -0.258593      1728000    1539.1867        95150        64107 
19040000    1.0161764  -0.25752028      1728000    1539.9708        95200        64145 
19050000    1.0157235  -0.26515988      1728000    1540.7841        95250        64178 
19060000    1.0352711  -0.26193957      1728000    1541.5773        95300        64210 
19070000   0.98881113  -0.27715152      1728000    1542.3748        95350        64244 
19080000   0.97187043   -0.2626051      1728000     1543.172        95400        64279 
19090000    1.0078759  -0.27120318      1728000    1543.9587        95450        64316 
19100000    1.0390621   -0.2615693      1728000    1544.7566        95500        64350 
19110000    1.0491147  -0.25904564      1728000    1545.5538        95550        64380 
19120000    1.0253422   -0.2494173      1728000    1546.3419        95600        64419 
19130000    1.0371866  -0.25779668      1728000    1547.1258        95650        64455 
19140000    1.0441453  -0.25494038      1728000    1547.9099        95700        64493 
19150000   0.97758548  -0.25875254      1728000    1548.6918        95750        64531 
19160000    1.0403244  -0.26246993      1728000    1549.4783        95800        64560 
19170000   0.99466314  -0.26232252      1728000    1550.2689        95850        64597 
19180000   0.99181019  -0.26892022      1728000    1551.0529        95900        64629 
19190000    1.0054451   -0.2688422      1728000    1551.8487        95950        64661 
19200000   0.94852339   -0.2813436      1728000    1552.6479        96000        64696 
19210000   0.98082982  -0.28438562      1728000    1553.4344        96050        64726 
19220000     1.013552   -0.2557719      1728000    1554.2269        96100        64750 
19230000    1.0381748  -0.25277647      1728000    1555.0149        96150        64784 
19240000    1.0176897  -0.25429881      1728000    1555.8249        96200        64819 
19250000    1.0230404  -0.28581677      1728000    1556.6189        96250        64855 
19260000    1.0450572  -0.26947102      1728000    1557.4138        96300        64886 
19270000   0.94888644  -0.27169306      1728000    1558.2076        96350        64918 
19280000    1.0194709    -0.257038      1728000    1558.9999        96400        64946 
19290000    1.0223364  -0.26022084      1728000    1559.7838        96450        64983 
19300000     1.029421  -0.26307209      1728000    1560.5859        96500        65021 
19310000    1.0303194  -0.27450798      1728000    1561.3788        96550        65056 
19320000    1.0101886  -0.27312471      1728000    1562.1681        96600        65090 
19330000    1.0096382  -0.28503233      1728000    1562.9587        96650        65123 
19340000    1.0149379  -0.28319275      1728000    1563.7579        96700        65155 
19350000   0.97452997   -0.2847505      1728000    1564.5462        96750        65186 
19360000    1.0053437   -0.2875893      1728000    1565.3389        96800        65224 
19370000    1.0010003  -0.27825475      1728000    1566.1306        96850        65253 
19380000   0.96153137  -0.28399576      1728000     1566.922        96900        65288 
19390000    1.0177556   -0.3023253      1728000     1567.713        96950        65325 
19400000    1.0207284  -0.27937956      1728000      1568.51        97000        65361 
19410000    1.0344137  -0.27962347      1728000    1569.3012        97050        65391 
19420000    1.0077779  -0.27135565      1728000    1570.0937        97100        65423 
19430000     1.063611  -0.26252392      1728000    1570.8848        97150        65461 
19440000    1.0453052  -0.27707971      1728000    1571.6849        97200        65495 
19450000    1.0505018   -0.2679035      1728000    1572.4681        97250        65534 
19460000    1.0284886  -0.25456868      1728000    1573.2654        97300        65567 
19470000   0.95952694  -0.26295489      1728000    1574.0608        97350        65600 
19480000    1.0518594  -0.24204126      1728000    1574.8638        97400        65632 
19490000    1.0064233  -0.24728419      1728000    1575.6549        97450        65666 
19500000    0.9670524  -0.24691839      1728000    1576.4573        97500        65703 
19510000   0.96702879  -0.26180506      1728000    1577.2494        97550        65734 
19520000   0.96525919  -0.24473339      1728000    1578.0401        97600        65770 
19530000   0.98752934  -0.25409966      1728000     1578.829        97650        65806 
19540000    1.0510777  -0.25547953      1728000     1579.625        97700        65846 
19550000   0.97746975  -0.27287553      1728000    1580.4349        97750        65882 
19560000    1.0105866  -0.26705277      1728000    1581.2355        97800        65909 
19570000    1.0196253  -0.27876322      1728000    1582.0369        97850        65948 
19580000    1.0497633  -0.27499462      1728000    1582.8239        97900        65980 
19590000    1.0275988  -0.25869671      1728000    1583.6448        97950        66018 
19600000   0.95411327  -0.27586722      1728000    1584.4547        98000        66049 
19610000    0.9669017   -0.2628901      1728000    1585.2649        98050        66080 
19620000   0.91455437  -0.24639144      1728000     1586.058        98100        66116 
19630000    1.0547367  -0.26126854      1728000    1586.8607        98150        66150 
19640000    1.0076817  -0.27662981      1728000    1587.6631        98200        66190 
19650000    1.0239429  -0.26495191      1728000    1588.4735        98250        66224 
19660000    0.9925179  -0.28452253      1728000    1589.2796        98300        66256 
19670000    1.0214594   -0.2689704      1728000    1590.0806        98350        66289 
19680000    1.0568105  -0.27685249      1728000    1590.8858        98400        66317 
19690000    1.0133266   -0.2786072      1728000    1591.7008        98450        66349 
19700000   0.97670514  -0.26816421      1728000     1592.513        98500        66378 
19710000   0.92910235  -0.27343846      1728000    1593.3078        98550        66409 
19720000   0.99139163  -0.29279314      1728000    1594.1197        98600        66445 
19730000   0.98764852   -0.2733268      1728000    1594.9258        98650        66475 
19740000    1.0846461  -0.28157499      1728000    1595.7297        98700        66509 
19750000    1.0324381     -0.26008      1728000    1596.5278        98750        66541 
19760000   0.97256409   -0.2773605      1728000     1597.327        98800        66574 
19770000    1.0514817  -0.28962944      1728000    1598.1359        98850        66603 
19780000    1.0243669  -0.28397176      1728000    1598.9328        98900        66629 
19790000    1.0003406  -0.27137013      1728000     1599.731        98950        66664 
19800000   0.95571491  -0.28063191      1728000    1600.5389        99000        66702 
19810000     1.039463  -0.25250129      1728000    1601.3307        99050        66738 
19820000    1.0125984  -0.26876918      1728000    1602.1807        99100        66770 
19830000    1.0047399  -0.27115803      1728000    1602.9848        99150        66802 
19840000   0.95665368  -0.25033413      1728000    1603.7879        99200        66832 
19850000    1.0408744  -0.26723323      1728000    1604.5908        99250        66861 
19860000   0.99228711   -0.2484214      1728000    1605.4059        99300        66892 
19870000    1.0008582  -0.24222131      1728000    1606.2109        99350        66929 
19880000   0.95893189  -0.26130213      1728000    1607.0214        99400        66968 
19890000    1.0568236  -0.25215493      1728000    1607.8248        99450        67005 
19900000   0.96637185  -0.26226355      1728000     1608.648        99500        67042 
19910000    1.0187668  -0.26785768      1728000    1609.4351        99550        67076 
19920000    1.0393545  -0.27990016      1728000    1610.2301        99600        67109 
19930000   0.98637772  -0.28833114      1728000    1611.0169        99650        67145 
19940000    1.0002435  -0.28652479      1728000    1611.8178        99700        67171 
19950000   0.99710356  -0.28252899      1728000     1612.606        99750        67206 
19960000    1.0346868  -0.29223299      1728000     1613.399        99800        67236 
19970000    1.0274705  -0.29826068      1728000    1614.1832        99850        67270 
19980000   0.96807209  -0.29829228      1728000    1614.9765        99900        67305 
19990000    1.0905406      -0.3231      1728000    1615.7777        99950        67337 
20000000   0.94860684  -0.31034948      1728000    1616.5979       100000        67371 
20010000    1.0571422   -0.3082369      1728000     1617.393       100050        67407 
20020000    0.9704031  -0.32265719      1728000     1618.204       100100        67437 
20030000    1.0211101  -0.31860659      1728000    1619.0215       100150        67469 
20040000    1.0216675  -0.31220315      1728000    1619.8252       100200        67500 
20050000   0.97510856  -0.31332443      1728000    1620.6367       100250        67530 
20060000    1.0324896   -0.3091117      1728000    1621.4388       100300        67566 
20070000    1.0212546  -0.31510271      1728000    1622.2539       100350        67594 
20080000    1.0136891  -0.33107224      1728000    1623.0641       100400        67629 
20090000   0.93988331  -0.32630502      1728000    1623.8757       100450        67657 
20100000   0.90721712  -0.32391617      1728000     1624.688       100500        67690 
20110000    1.0409119  -0.31285184      1728000    1625.4777       100550        67724 
20120000    1.0105393  -0.32535013      1728000     1626.273       100600        67758 
20130000    1.0966196  -0.32414345      1728000    1627.0895       100650        67789 
20140000   0.99669489  -0.31351849      1728000    1627.8918       100700        67818 
20150000   0.94652685  -0.31674965      1728000       1628.7       100750        67846 
20160000   0.98632752   -0.3196149      1728000    1629.5177       100800        67881 
20170000   0.97803064  -0.29556596      1728000     1630.332       100850        67910 
20180000    1.0033769   -0.3000096      1728000    1631.1359       100900        67941 
20190000    1.0024849  -0.31255104      1728000    1631.9509       100950        67980 
20200000   0.95482359  -0.28230083      1728000     1632.754       101000        68014 
20210000   0.99370015  -0.30273687      1728000     1633.566       101050        68047 
20220000     1.032646  -0.31681212      1728000    1634.3766       101100        68077 
20230000    1.0012076  -0.32170511      1728000     1635.197       101150        68114 
20240000    1.0130675  -0.30802792      1728000     1636.006       101200        68146 
20250000   0.99064946  -0.30885361      1728000     1636.814       101250        68175 
20260000   0.97817634  -0.29673301      1728000    1637.6206       101300        68206 
20270000    1.0191412   -0.3106987      1728000     1638.424       101350        68238 
20280000   0.98612672  -0.29852675      1728000    1639.2289       101400        68265 
20290000    1.0143683  -0.28350498      1728000    1640.0427       101450        68299 
20300000    1.0692811  -0.30108529      1728000    1640.8698       101500        68331 
20310000   0.99557521  -0.32078536      1728000     1641.679       101550        68367 
20320000    1.0009495  -0.31900939      1728000    1642.5123       101600        68396 
20330000    0.9848177  -0.29744867      1728000    1643.3334       101650        68429 
20340000    0.9972087  -0.29577485      1728000    1644.1884       101700        68463 
20350000    1.0494238  -0.29736165      1728000    1645.0127       101750        68492 
20360000   0.97179544  -0.27706581      1728000    1645.8289       101800        68533 
20370000    1.0274046  -0.29510306      1728000    1646.6282       101850        68567 
20380000   0.98547377  -0.29046542      1728000    1647.4347       101900        68600 
20390000   0.99436913  -0.30559398      1728000    1648.2579       101950        68635 
20400000    1.0127774  -0.29051914      1728000    1649.0741       102000        68665 
20410000   0.99478027  -0.29366839      1728000    1649.8814       102050        68703 
20420000   0.97111633  -0.29087938      1728000    1650.6906       102100        68733 
20430000    1.0506985  -0.27661648      1728000     1651.493       102150        68761 
20440000    1.0380941  -0.29005583      1728000    1652.2851       102200        68797 
20450000    1.0149849  -0.28267903      1728000    1653.0889       102250        68827 
20460000    1.0251363  -0.26571549      1728000     1653.888       102300        68858 
20470000    1.0583586  -0.27139536      1728000    1654.6861       102350        68894 
20480000     1.018314  -0.28626335      1728000     1655.481       102400        68931 
20490000   0.97803962  -0.28822586      1728000     1656.273       102450        68967 
20500000    1.0383048  -0.28120529      1728000    1657.0836       102500        68996 
20510000    1.0331125  -0.27782635      1728000    1657.8819       102550        69027 
20520000   0.98819088  -0.24578105      1728000     1658.679       102600        69060 
20530000    1.0380471  -0.26799419      1728000    1659.4751       102650        69099 
20540000    1.0047193  -0.27128505      1728000    1660.2684       102700        69133 
20550000    1.0297971   -0.2835072      1728000     1661.063       102750        69168 
20560000    1.0264407  -0.26732871      1728000    1661.8678       102800        69204 
20570000    1.0104173  -0.27392818      1728000     1662.657       102850        69232 
20580000    1.0904939  -0.25992661      1728000     1663.447       102900        69266 
20590000    1.0515116  -0.27445729      1728000     1664.241       102950        69300 
20600000   0.99937546  -0.25604205      1728000    1665.0369       103000        69337 
20610000    1.0160138  -0.27008088      1728000    1665.8218       103050        69373 
20620000    1.0035026  -0.26134081      1728000     1666.611       103100        69409 
20630000    1.0174473  -0.27253829      1728000    1667.3961       103150        69446 
20640000   0.99970791  -0.27370676      1728000    1668.1809       103200        69482 
20650000   0.95613331  -0.26974878      1728000     1668.967       103250        69513 
20660000   0.96164933  -0.27970407      1728000     1669.758       103300        69545 
20670000   0.96612486  -0.27104113      1728000     1670.547       103350        69576 
20680000    1.0280769  -0.28028801      1728000     1671.335       103400        69606 
20690000   0.95435401  -0.28658212      1728000     1672.123       103450        69638 
20700000   0.93211871  -0.27974747      1728000    1672.9201       103500        69673 
20710000   0.97894533  -0.27067073      1728000     1673.712       103550        69704 
20720000   0.97171666   -0.2676737      1728000    1674.5071       103600        69735 
20730000      1.04332  -0.26075398      1728000    1675.2961       103650        69761 
20740000   0.98069521  -0.27850374      1728000     1676.091       103700        69799 
20750000     1.014696  -0.27108648      1728000    1676.8911       103750        69831 
20760000     1.037785  -0.25455678      1728000    1677.6839       103800        69866 
20770000   0.99667497  -0.29176779      1728000     1678.474       103850        69896 
20780000    1.0587709  -0.26390789      1728000    1679.2731       103900        69930 
20790000   0.99857307  -0.25745331      1728000    1680.0619       103950        69969 
20800000   0.94878549  -0.27059577      1728000     1680.866       104000        70004 
20810000   0.99588792  -0.28377561      1728000    1681.6709       104050        70038 
20820000    1.0165423  -0.28934183      1728000     1682.475       104100        70071 
20830000   0.98466347  -0.31066346      1728000    1683.2969       104150        70103 
20840000    1.0090872  -0.30604526      1728000    1684.1311       104200        70133 
20850000    1.0147734  -0.30065936      1728000    1684.9282       104250        70171 
20860000    1.0640638  -0.31575123      1728000    1685.7339       104300        70201 
20870000    1.0143659   -0.2938081      1728000     1686.526       104350        70228 
20880000   0.97597226  -0.31122032      1728000    1687.3691       104400        70257 
20890000   0.96084872  -0.32752639      1728000    1688.1842       104450        70288 
20900000   0.98681197  -0.30745642      1728000    1689.0175       104500        70324 
20910000    1.0143017  -0.30893291      1728000    1689.8261       104550        70361 
20920000    1.0103056  -0.28811958      1728000    1690.6786       104600        70387 
20930000    1.0493883  -0.29023697      1728000    1691.5041       104650        70420 
20940000   0.94016811  -0.28999656      1728000     1692.316       104700        70455 
20950000    1.0069323  -0.29425423      1728000      1693.14       104750        70479 
20960000    1.0172803  -0.30256065      1728000    1693.9491       104800        70509 
20970000   0.97598213  -0.28064099      1728000    1694.7722       104850        70539 
20980000    0.9901035  -0.28456104      1728000    1695.5865       104900        70575 
20990000    1.0164633  -0.28450455      1728000    1696.4276       104950        70609 
21000000   0.97769862  -0.26424639      1728000    1697.2629       105000        70641 
21010000    1.1011206   -0.2676212      1728000    1698.0841       105050        70676 
21020000    0.9998064  -0.26194071      1728000    1698.8964       105100        70711 
21030000    1.0171857  -0.26655946      1728000    1699.7533       105150        70751 
21040000   0.98625916  -0.26557576      1728000    1700.5665       105200        70787 
21050000   0.98792653  -0.28315523      1728000     1701.375       105250        70822 
21060000    1.0491063  -0.29542482      1728000     1702.177       105300        70856 
21070000    1.0674915  -0.28037986      1728000    1702.9808       105350        70889 
21080000    1.0739987  -0.26572224      1728000    1703.7821       105400        70919 
21090000   0.99908458  -0.26571142      1728000    1704.5957       105450        70945 
21100000      1.01995   -0.2845887      1728000    1705.3937       105500        70981 
21110000    1.0253342  -0.29292699      1728000     1706.198       105550        71016 
21120000    1.0163367  -0.30356706      1728000     1706.999       105600        71045 
21130000    1.0031359  -0.28853574      1728000    1707.7998       105650        71080 
21140000   0.93411236  -0.28488222      1728000    1708.5974       105700        71112 
21150000   0.97192487  -0.26312973      1728000    1709.3953       105750        71145 
21160000   0.96399134  -0.27229966      1728000    1710.1901       105800        71179 
21170000    0.9992963  -0.28532562      1728000    1710.9861       105850        71216 
21180000   0.98488398  -0.26550746      1728000    1711.7901       105900        71242 
21190000    1.0991414  -0.27162851      1728000    1712.5821       105950        71275 
21200000   0.94568998  -0.28444074      1728000    1713.3871       106000        71308 
21210000   0.95439224  -0.25898316      1728000    1714.1796       106050        71340 
21220000   0.99131042  -0.26467694      1728000    1714.9691       106100        71377 
21230000    1.0354365  -0.29413482      1728000     1715.757       106150        71412 
21240000    1.0269592  -0.30102376      1728000    1716.5534       106200        71440 
21250000    1.0167998   -0.3036064      1728000    1717.3438       106250        71469 
21260000    0.9702086   -0.2777942      1728000    1718.1434       106300        71503 
21270000    1.0273701  -0.29911711      1728000    1718.9385       106350        71530 
21280000    1.0317616  -0.27423047      1728000    1719.7321       106400        71560 
21290000    1.0135022  -0.25144635      1728000     1720.516       106450        71599 
21300000    1.0132383  -0.24473276      1728000     1721.311       106500        71635 
21310000   0.99841943  -0.24804251      1728000    1722.0939       106550        71667 
21320000    1.0118334  -0.26595806      1728000     1722.881       106600        71704 
21330000    1.0286957   -0.2666538      1728000     1723.675       106650        71737 
21340000    1.0170516   -0.2607949      1728000    1724.4879       106700        71774 
21350000   0.96764947  -0.25874204      1728000    1725.2871       106750        71806 
21360000   0.99243425  -0.26134696      1728000    1726.0854       106800        71843 
21370000   0.99783269   -0.2544552      1728000    1726.8751       106850        71881 
21380000    1.0092624  -0.25455679      1728000    1727.6721       106900        71918 
21390000    1.0050869  -0.22954262      1728000    1728.4523       106950        71962 
21400000    1.0268666  -0.23850317      1728000     1729.255       107000        71998 
21410000     1.016614  -0.22523419      1728000     1730.054       107050        72028 
21420000    1.0317649  -0.24128128      1728000     1730.846       107100        72061 
21430000    1.0200662  -0.24632773      1728000    1731.6411       107150        72097 
21440000    1.0213865  -0.24752307      1728000    1732.4541       107200        72135 
21450000    1.0482408  -0.26039175      1728000     1733.242       107250        72167 
21460000    1.0725669  -0.27390826      1728000    1734.0359       107300        72201 
21470000    0.9796175  -0.28209419      1728000    1734.8351       107350        72227 
21480000     1.059893  -0.26113806      1728000    1735.6262       107400        72261 
21490000   0.97734363  -0.26360603      1728000    1736.4186       107450        72299 
21500000     1.015528  -0.26490837      1728000    1737.2291       107500        72326 
21510000    1.0181605  -0.27581146      1728000    1738.0251       107550        72360 
21520000   0.94715693  -0.28643445      1728000    1738.8231       107600        72395 
21530000   0.93431806  -0.27606855      1728000    1739.6272       107650        72432 
21540000   0.94743225   -0.2625792      1728000    1740.4201       107700        72466 
21550000    0.9937326  -0.27803312      1728000    1741.2201       107750        72501 
21560000    1.0071952  -0.27250035      1728000    1742.0221       107800        72533 
21570000    1.0363187   -0.2868011      1728000    1742.8219       107850        72561 
21580000    1.0407359  -0.31330663      1728000    1743.6207       107900        72592 
21590000   0.95327276  -0.31394759      1728000     1744.427       107950        72622 
21600000    1.0294409  -0.30152701      1728000    1745.2301       108000        72657 
21610000    1.0501973  -0.28208753      1728000    1746.0229       108050        72695 
21620000   0.93501981  -0.28084931      1728000    1746.8161       108100        72728 
21630000    0.9768033  -0.29351536      1728000    1747.6074       108150        72757 
21640000    1.0188351  -0.31719005      1728000    1748.4063       108200        72786 
21650000   0.97657859  -0.30565507      1728000    1749.2083       108250        72817 
21660000    0.9639672  -0.28403686      1728000     1750.017       108300        72847 
21670000      0.97777  -0.27941939      1728000    1750.8131       108350        72881 
21680000   0.98907011  -0.28010434      1728000    1751.6082       108400        72921 
21690000   0.99147138  -0.28484014      1728000    1752.4015       108450        72951 
21700000    1.0151509  -0.29489743      1728000    1753.2153       108500        72978 
21710000   0.95586102  -0.29312749      1728000    1754.0188       108550        73006 
21720000    1.0083104  -0.30548984      1728000    1754.8202       108600        73045 
21730000   0.97678929  -0.31064397      1728000    1755.6297       108650        73079 
21740000    1.0299019   -0.3032803      1728000    1756.4339       108700        73111 
21750000   0.97407269  -0.29691695      1728000    1757.2213       108750        73144 
21760000     1.027389  -0.29205751      1728000    1758.0122       108800        73177 
21770000   0.98146205  -0.29548911      1728000    1758.8035       108850        73214 
21780000    1.0174118  -0.30342346      1728000    1759.6091       108900        73243 
21790000    1.0402814  -0.30813803      1728000    1760.4187       108950        73276 
21800000   0.93181221  -0.29992652      1728000    1761.2461       109000        73314 
21810000   0.96652005  -0.30639812      1728000    1762.0863       109050        73341 
21820000   0.99986749  -0.32987106      1728000    1762.9183       109100        73366 
21830000    1.0114948  -0.31187281      1728000    1763.8064       109150        73396 
21840000   0.97696699  -0.30273107      1728000    1764.6577       109200        73426 
21850000   0.98529194  -0.29888977      1728000    1765.5807       109250        73459 
21860000    1.0944821   -0.3146661      1728000    1766.4528       109300        73490 
21870000    1.0199342   -0.2901699      1728000    1767.4318       109350        73525 
21880000   0.99974797  -0.28002158      1728000    1768.3799       109400        73562 
21890000    1.0228197  -0.28923006      1728000    1769.3119       109450        73600 
21900000   0.97567047  -0.28789002      1728000    1770.3019       109500        73636 
21910000    1.0252507  -0.29903227      1728000     1771.155       109550        73672 
21920000    1.0191351  -0.28649194      1728000    1771.9693       109600        73709 
21930000    1.0227211  -0.27717805      1728000    1772.8554       109650        73735 
21940000    1.0112313  -0.28068059      1728000    1773.6876       109700        73767 
21950000   0.91308138  -0.26808656      1728000      1774.51       109750        73800 
21960000   0.96857865  -0.28918487      1728000    1775.3401       109800        73834 
21970000   0.98727822  -0.29252547      1728000    1776.2242       109850        73865 
21980000   0.99352233  -0.30116276      1728000    1777.0953       109900        73898 
21990000   0.98582681   -0.2895395      1728000    1777.9289       109950        73930 
22000000    1.0356205  -0.30536131      1728000     1778.837       110000        73965 
22010000    1.0366729  -0.29346969      1728000    1779.7281       110050        74000 
22020000    1.0049427  -0.30493222      1728000    1780.6641       110100        74029 
22030000    1.0165988  -0.28729557      1728000    1781.5133       110150        74055 
22040000   0.97184269  -0.29465455      1728000    1782.3314       110200        74090 
22050000   0.98098959  -0.31431731      1728000    1783.1585       110250        74122 
22060000   0.97027431  -0.29437687      1728000     1783.989       110300        74155 
22070000   0.98397913   -0.2919415      1728000    1784.8102       110350        74190 
22080000    1.0625519  -0.31131055      1728000    1785.6614       110400        74218 
22090000   0.95469863  -0.29608475      1728000     1786.486       110450        74250 
22100000   0.98435179  -0.28585561      1728000    1787.3132       110500        74286 
22110000   0.98033532  -0.26738348      1728000    1788.1243       110550        74325 
22120000   0.93951782  -0.27365013      1728000    1788.9483       110600        74357 
22130000   0.96003956  -0.26788653      1728000    1789.7784       110650        74391 
22140000   0.98705745  -0.27525814      1728000    1790.5882       110700        74425 
22150000     1.028662  -0.28045015      1728000    1791.4023       110750        74463 
22160000     1.044992  -0.27114513      1728000    1792.2232       110800        74492 
22170000   0.97149719  -0.26140191      1728000    1793.0591       110850        74527 
22180000    1.0095156  -0.27038337      1728000    1793.8804       110900        74559 
22190000    1.0622792  -0.26236062      1728000    1794.6913       110950        74592 
22200000   0.97559736  -0.24972195      1728000     1795.514       111000        74627 
22210000   0.99555591  -0.26837197      1728000    1796.3342       111050        74661 
22220000   0.93113221  -0.25134435      1728000    1797.1392       111100        74699 
22230000   0.94859291   -0.2630079      1728000    1797.9462       111150        74729 
22240000   0.99594348  -0.28077511      1728000    1798.7525       111200        74760 
22250000   0.98389973  -0.27388462      1728000    1799.5701       111250        74794 
22260000    1.0055303  -0.26436319      1728000    1800.3842       111300        74822 
22270000   0.96849392  -0.27437794      1728000    1801.1854       111350        74859 
22280000   0.99603869  -0.26202261      1728000    1802.0082       111400        74899 
22290000   0.97456802  -0.27590065      1728000    1802.8111       111450        74933 
22300000   0.96126864  -0.27402029      1728000    1803.6284       111500        74968 
22310000    1.0361335  -0.27433043      1728000    1804.4525       111550        75003 
22320000    1.0299123  -0.27884728      1728000    1805.2657       111600        75042 
22330000   0.99261775  -0.26193529      1728000    1806.0751       111650        75082 
22340000   0.98636284  -0.29264585      1728000    1806.9041       111700        75117 
22350000   0.95737732  -0.28981262      1728000    1807.7152       111750        75149 
22360000     1.035602  -0.27537724      1728000    1808.5284       111800        75181 
22370000   0.95828675  -0.28518041      1728000    1809.3422       111850        75210 
22380000   0.94196549    -0.292236      1728000    1810.1774       111900        75237 
22390000   0.97714427  -0.29260682      1728000     1810.991       111950        75275 
22400000    0.9098052  -0.29183104      1728000    1811.8232       112000        75309 
22410000    1.0178909  -0.27508208      1728000    1812.6364       112050        75343 
22420000    1.0247167  -0.30367398      1728000    1813.4792       112100        75374 
22430000   0.97227482  -0.27700831      1728000    1814.2958       112150        75406 
22440000    1.0343911  -0.26280804      1728000    1815.1173       112200        75442 
22450000   0.99256703  -0.26498696      1728000    1815.9342       112250        75478 
22460000    1.0822716  -0.25751791      1728000    1816.7432       112300        75519 
22470000    0.9490277  -0.24826482      1728000    1817.5462       112350        75555 
22480000   0.95543995  -0.26781516      1728000    1818.3693       112400        75591 
22490000   0.96396457  -0.27507688      1728000    1819.1802       112450        75627 
22500000    1.0186056  -0.26838206      1728000    1820.0022       112500        75660 
22510000    1.0330511  -0.27015853      1728000    1820.8312       112550        75692 
22520000    1.0351617  -0.27793696      1728000    1821.6523       112600        75729 
22530000   0.97872214  -0.28690824      1728000     1822.466       112650        75767 
22540000    1.0159745  -0.26240355      1728000    1823.2872       112700        75801 
22550000    1.0164385  -0.26611907      1728000    1824.1094       112750        75837 
22560000   0.98503585  -0.26671958      1728000    1824.9255       112800        75878 
22570000    1.0022297  -0.26030635      1728000    1825.7434       112850        75912 
22580000   0.96713996  -0.24448276      1728000    1826.5602       112900        75950 
22590000    1.0512139  -0.26944395      1728000    1827.3774       112950        75974 
22600000   0.98902944  -0.25797286      1728000    1828.1953       113000        76009 
22610000    1.0103605  -0.25174053      1728000    1829.0043       113050        76045 
22620000    1.0548196  -0.26227382      1728000    1829.8234       113100        76079 
22630000    1.0679916  -0.25622366      1728000    1830.6352       113150        76107 
22640000   0.96658026  -0.24900496      1728000    1831.4473       113200        76142 
22650000    0.9903387  -0.26029911      1728000     1832.283       113250        76181 
22660000    1.0028542  -0.26994892      1728000    1833.1012       113300        76217 
22670000    1.0091623  -0.25856223      1728000    1833.9282       113350        76252 
22680000   0.99468742  -0.25790077      1728000    1834.7414       113400        76287 
22690000   0.99960174  -0.26304346      1728000    1835.5562       113450        76317 
22700000    1.0255015  -0.25245197      1728000    1836.3682       113500        76346 
22710000    1.0234035  -0.25766763      1728000    1837.1764       113550        76385 
22720000   0.98580761  -0.24023075      1728000    1837.9812       113600        76428 
22730000    1.0415125  -0.26189975      1728000    1838.7895       113650        76455 
22740000   0.94418394  -0.25879766      1728000    1839.6003       113700        76495 
22750000    1.0492138  -0.23858414      1728000    1840.4032       113750        76532 
22760000    1.0582387  -0.25763887      1728000    1841.2161       113800        76567 
22770000   0.99842556   -0.2424216      1728000    1842.0243       113850        76599 
22780000    1.0001692  -0.24711422      1728000    1842.8472       113900        76633 
22790000   0.99612586  -0.23489721      1728000    1843.6592       113950        76667 
22800000    1.0315762  -0.23837093      1728000    1844.4922       114000        76706 
22810000    1.0546573  -0.23906894      1728000    1845.3343       114050        76746 
22820000    1.0047521  -0.24197529      1728000    1846.1575       114100        76782 
22830000     1.037429  -0.23352343      1728000    1846.9624       114150        76819 
22840000   0.97264428  -0.24358484      1728000    1847.7614       114200        76856 
22850000    1.0290253  -0.25321126      1728000    1848.5726       114250        76892 
22860000    1.0458789  -0.25676211      1728000    1849.3835       114300        76927 
22870000   0.98547558   -0.2522872      1728000    1850.1816       114350        76966 
22880000    1.0106049  -0.26687403      1728000    1850.9917       114400        77000 
22890000    0.9629619  -0.27225954      1728000    1851.7978       114450        77033 
22900000   0.95227741   -0.2622734      1728000    1852.6072       114500        77067 
22910000   0.98456942  -0.27837293      1728000    1853.4165       114550        77097 
22920000   0.97567863  -0.30586402      1728000    1854.2202       114600        77130 
22930000    1.0124327  -0.30698463      1728000    1855.0252       114650        77161 
22940000   0.99862437  -0.31859426      1728000    1855.8383       114700        77185 
22950000   0.97488965  -0.30972688      1728000    1856.6495       114750        77214 
22960000    0.9855104  -0.31001723      1728000    1857.4591       114800        77245 
22970000    1.0613984  -0.31508103      1728000    1858.2731       114850        77279 
22980000   0.98902087  -0.29564873      1728000    1859.0842       114900        77312 
22990000    1.0444515  -0.27314599      1728000    1859.8984       114950        77350 
23000000   0.99645466  -0.28630116      1728000    1860.7293       115000        77384 
23010000   0.98857908  -0.27226087      1728000    1861.5432       115050        77419 
23020000    1.0636898  -0.28879639      1728000    1862.3592       115100        77456 
23030000   0.98611848   -0.2844159      1728000    1863.1703       115150        77492 
23040000     0.973366   -0.2893765      1728000    1864.0193       115200        77527 
23050000    1.0112305  -0.29245981      1728000    1864.8334       115250        77559 
23060000    1.0367237  -0.27409013      1728000    1865.6405       115300        77595 
23070000   0.99308431  -0.28740418      1728000    1866.4431       115350        77623 
23080000    1.0347161  -0.28386816      1728000    1867.2962       115400        77651 
23090000   0.95683179  -0.26465051      1728000    1868.1334       115450        77685 
23100000    1.0369625  -0.24651141      1728000    1868.9573       115500        77718 
23110000      1.01318  -0.28222812      1728000    1869.7685       115550        77753 
23120000   0.92166079  -0.30301204      1728000    1870.5802       115600        77786 
23130000   0.95593373  -0.29395531      1728000    1871.3875       115650        77819 
23140000    1.0978244  -0.27641994      1728000    1872.2032       115700        77857 
23150000    1.0402221  -0.27072953      1728000    1873.0173       115750        77889 
23160000    1.0146444  -0.28091997      1728000    1873.8263       115800        77920 
23170000   0.96819054  -0.27522551      1728000    1874.6373       115850        77949 
23180000     1.009719  -0.28095328      1728000    1875.4693       115900        77981 
23190000   0.96179745  -0.29406965      1728000     1876.283       115950        78016 
23200000   0.99745801   -0.2960045      1728000    1877.1024       116000        78047 
23210000   0.97864952  -0.28301161      1728000    1877.9123       116050        78083 
23220000    1.0140164  -0.28077536      1728000    1878.7215       116100        78117 
23230000    1.0241957  -0.29272979      1728000    1879.5233       116150        78153 
23240000    1.0531761  -0.28884029      1728000    1880.3265       116200        78178 
23250000   0.96965093  -0.27456276      1728000    1881.1296       116250        78209 
23260000   0.94504087  -0.27299387      1728000    1881.9442       116300        78244 
23270000    1.0028503  -0.25160277      1728000    1882.7484       116350        78278 
23280000     1.096543  -0.25157057      1728000    1883.5424       116400        78321 
23290000    1.0598937  -0.27459247      1728000    1884.3791       116450        78362 
23300000    1.0465512   -0.2855747      1728000    1885.2012       116500        78394 
23310000     1.009554  -0.29631546      1728000    1886.0134       116550        78426 
23320000    1.0500639  -0.27740051      1728000    1886.8412       116600        78461 
23330000    1.0526296  -0.25224525      1728000    1887.6492       116650        78496 
23340000    1.0402004  -0.24665226      1728000    1888.4534       116700        78532 
23350000   0.98271039  -0.25632039      1728000    1889.3151       116750        78572 
23360000   0.98662165    -0.272797      1728000    1890.1264       116800        78607 
23370000    1.0570842  -0.29606962      1728000    1890.9373       116850        78645 
23380000    1.0239669  -0.28916043      1728000    1891.7563       116900        78676 
23390000   0.99330533  -0.26555643      1728000    1892.5673       116950        78714 
23400000    1.0516023  -0.25396301      1728000    1893.3901       117000        78753 
23410000    1.0165796  -0.27269082      1728000    1894.2014       117050        78785 
23420000     1.063258  -0.27229008      1728000     1895.005       117100        78820 
23430000    1.0044624  -0.29381182      1728000    1895.8033       117150        78859 
23440000    1.0282071  -0.29916277      1728000    1896.6105       117200        78890 
23450000    1.0195032  -0.29131573      1728000    1897.4496       117250        78923 
23460000    1.0406023  -0.28983688      1728000    1898.3373       117300        78955 
23470000    1.0113264  -0.29716299      1728000    1899.2435       117350        78988 
23480000    1.0012024  -0.29513422      1728000    1900.1169       117400        79020 
23490000     1.026723  -0.27740115      1728000    1900.9271       117450        79054 
23500000    1.0200151  -0.28387249      1728000    1901.7538       117500        79089 
23510000    1.0613162  -0.28734981      1728000    1902.5561       117550        79130 
23520000    1.0235637   -0.2889638      1728000    1903.3689       117600        79166 
23530000   0.93937744  -0.28862879      1728000    1904.1781       117650        79199 
23540000   0.97670851  -0.30184846      1728000    1904.9854       117700        79229 
23550000     1.025451  -0.28962482      1728000    1905.8066       117750        79261 
23560000    1.0332332  -0.29533471      1728000    1906.6367       117800        79295 
23570000   0.94186299  -0.30067597      1728000    1907.4829       117850        79327 
23580000   0.97314228  -0.28457319      1728000    1908.3002       117900        79359 
23590000    1.0105602  -0.28935456      1728000    1909.1256       117950        79390 
23600000    1.0273325  -0.29724108      1728000    1909.9569       118000        79424 
23610000    1.0149044  -0.31581821      1728000    1910.7795       118050        79457 
23620000    1.0524726  -0.30911289      1728000    1911.6023       118100        79486 
23630000    1.0028897  -0.31572137      1728000    1912.4365       118150        79519 
23640000   0.98928718   -0.2838802      1728000    1913.2583       118200        79548 
23650000   0.98595316  -0.26167917      1728000    1914.1265       118250        79581 
23660000    1.0037843   -0.2367224      1728000    1914.9683       118300        79616 
23670000   0.89860793  -0.26850658      1728000    1915.8449       118350        79644 
23680000   0.97509442  -0.25901898      1728000    1916.6685       118400        79678 
23690000   0.96929256  -0.26886661      1728000    1917.4924       118450        79709 
23700000    1.0061849  -0.29046686      1728000    1918.3163       118500        79740 
23710000   0.98537873   -0.2669772      1728000    1919.1441       118550        79772 
23720000    1.0102248   -0.2630714      1728000    1919.9703       118600        79809 
23730000    1.0037218  -0.25899798      1728000    1920.7984       118650        79844 
23740000    1.0047475  -0.27721799      1728000    1921.6363       118700        79876 
23750000    1.0124439  -0.27132081      1728000    1922.4633       118750        79906 
23760000    1.0203916  -0.29010613      1728000    1923.3564       118800        79943 
23770000   0.98816632  -0.28708179      1728000    1924.1897       118850        79968 
23780000    1.0210328   -0.2775718      1728000    1925.0064       118900        79996 
23790000   0.92918355  -0.26200859      1728000    1925.8271       118950        80022 
23800000   0.98703427  -0.25169632      1728000    1926.6522       119000        80057 
23810000   0.96640725  -0.23248982      1728000    1927.4725       119050        80093 
23820000    0.9702106  -0.23619505      1728000    1928.2875       119100        80132 
23830000    1.0045947  -0.24266097      1728000    1929.0953       119150        80171 
23840000    1.0711913  -0.22725446      1728000    1929.9025       119200        80205 
23850000   0.94840907  -0.24670275      1728000    1930.7109       119250        80250 
23860000   0.95989091  -0.27025842      1728000    1931.5234       119300        80289 
23870000   0.97838915  -0.26575203      1728000    1932.3447       119350        80327 
23880000    0.9725902  -0.26707696      1728000    1933.1579       119400        80362 
23890000   0.90569183  -0.25153257      1728000    1933.9686       119450        80394 
23900000    1.0233698   -0.2812561      1728000    1934.7966       119500        80427 
23910000    1.0398025  -0.27791355      1728000    1935.6197       119550        80461 
23920000    1.0053933  -0.26059116      1728000    1936.4465       119600        80494 
23930000    1.0302496  -0.28475598      1728000    1937.2643       119650        80526 
23940000     1.034043  -0.29452597      1728000    1938.0853       119700        80554 
23950000   0.99785069   -0.2788163      1728000    1938.9103       119750        80588 
23960000   0.98422695  -0.30389657      1728000    1939.7293       119800        80620 
23970000     1.026947  -0.28949272      1728000    1940.5523       119850        80652 
23980000    1.0056691  -0.28897193      1728000    1941.3877       119900        80681 
23990000     1.010146  -0.28063992      1728000    1942.2138       119950        80713 
24000000    1.0163527  -0.29816773      1728000    1943.0451       120000        80744 
24010000    0.9734706  -0.29116483      1728000    1943.8605       120050        80783 
24020000   0.97295712  -0.30424336      1728000    1944.6827       120100        80816 
24030000    1.0240486   -0.2967108      1728000    1945.5033       120150        80847 
24040000   0.98981096  -0.29316497      1728000    1946.3394       120200        80884 
24050000    1.0066982  -0.29138351      1728000    1947.1773       120250        80916 
24060000    1.0003223  -0.27509118      1728000    1947.9942       120300        80949 
24070000   0.96288302  -0.27537843      1728000    1948.8073       120350        80986 
24080000   0.96302095  -0.27617651      1728000    1949.6204       120400        81017 
24090000    1.0334572  -0.27429258      1728000    1950.4387       120450        81054 
24100000   0.95439511  -0.25848157      1728000    1951.2592       120500        81089 
24110000    1.0287371  -0.26618479      1728000    1952.0646       120550        81130 
24120000     1.029622  -0.25277509      1728000    1952.8689       120600        81164 
24130000    1.0144612  -0.25764898      1728000    1953.6667       120650        81204 
24140000    1.0219462  -0.25786205      1728000    1954.4723       120700        81243 
24150000    1.0231119  -0.27536752      1728000    1955.2902       120750        81275 
24160000    1.0265372  -0.25579985      1728000    1956.1023       120800        81312 
24170000    1.0315445  -0.29325865      1728000    1956.9223       120850        81343 
24180000   0.95407328   -0.2761299      1728000    1957.7483       120900        81376 
24190000   0.93746725  -0.28862746      1728000    1958.5615       120950        81410 
24200000    1.0286916  -0.27900789      1728000    1959.4195       121000        81443 
24210000   0.96969112  -0.26908661      1728000    1960.2494       121050        81479 
24220000   0.99739695  -0.27202909      1728000    1961.0564       121100        81512 
24230000   0.99982784  -0.27766818      1728000    1961.8963       121150        81547 
24240000    1.0404845  -0.26216008      1728000    1962.7092       121200        81582 
24250000    1.0431792  -0.27283719      1728000    1963.5195       121250        81616 
24260000    1.0502409  -0.29566553      1728000    1964.3485       121300        81648 
24270000    1.0069832  -0.26597252      1728000    1965.1673       121350        81679 
24280000   0.93484243  -0.27081563      1728000    1965.9835       121400        81715 
24290000    0.9538674  -0.27845258      1728000    1966.8224       121450        81754 
24300000   0.93608531  -0.25680715      1728000    1967.6451       121500        81788 
24310000    1.0459803  -0.25685958      1728000    1968.4651       121550        81821 
24320000    1.0578906  -0.24635316      1728000    1969.2723       121600        81853 
24330000    1.0447602  -0.27092397      1728000    1970.0854       121650        81884 
24340000    1.0105522  -0.26299635      1728000    1970.8937       121700        81917 
24350000   0.99709254    -0.267561      1728000    1971.7032       121750        81953 
24360000   0.94522723  -0.25437812      1728000    1972.5134       121800        81985 
24370000    1.0316596   -0.2692419      1728000    1973.3176       121850        82018 
24380000    1.0227737  -0.25628452      1728000    1974.1361       121900        82050 
24390000    1.0010774  -0.26357997      1728000    1974.9471       121950        82080 
24400000    1.0583728   -0.2615491      1728000    1975.7646       122000        82110 
24410000   0.94488679  -0.26564059      1728000    1976.5768       122050        82146 
24420000   0.98592187  -0.23851575      1728000    1977.3933       122100        82183 
24430000   0.93651175  -0.25979499      1728000     1978.201       122150        82222 
24440000   0.95769364  -0.22791305      1728000    1979.0102       122200        82258 
24450000   0.97885879  -0.22812131      1728000    1979.8165       122250        82295 
24460000    0.9862788  -0.22851616      1728000    1980.6423       122300        82330 
24470000    1.0145485  -0.21632413      1728000    1981.4422       122350        82364 
24480000    1.0101102  -0.21864643      1728000    1982.2444       122400        82401 
24490000    0.9835642  -0.21949563      1728000    1983.0576       122450        82441 
24500000    1.0790224  -0.22381525      1728000    1983.8854       122500        82478 
24510000    1.0064005  -0.23720571      1728000    1984.6914       122550        82515 
24520000    1.0559602  -0.22913837      1728000    1985.5002       122600        82545 
24530000   0.97787147  -0.23485218      1728000    1986.3014       122650        82581 
24540000   0.99587882  -0.23543603      1728000    1987.1063       122700        82616 
24550000    1.0185586  -0.23847116      1728000    1987.9104       122750        82650 
24560000    1.0003761  -0.24145095      1728000    1988.7215       122800        82685 
24570000    1.0169369  -0.23687555      1728000    1989.5292       122850        82721 
24580000   0.97617199  -0.24387316      1728000    1990.3376       122900        82756 
24590000    1.0372495  -0.24703948      1728000    1991.1504       122950        82789 
24600000   0.95896587  -0.24342959      1728000    1991.9975       123000        82820 
24610000   0.94938431  -0.24780271      1728000    1992.8132       123050        82852 
24620000    1.0097368  -0.26160293      1728000    1993.6184       123100        82890 
24630000   0.98163871  -0.25718698      1728000    1994.4354       123150        82927 
24640000   0.93623727  -0.24340527      1728000    1995.2522       123200        82964 
24650000    1.0550726  -0.26001049      1728000    1996.0673       123250        82999 
24660000    0.9956562  -0.27890439      1728000    1996.8792       123300        83035 
24670000    1.0189554  -0.27834917      1728000    1997.6834       123350        83068 
24680000    1.0093252  -0.28118479      1728000    1998.4903       123400        83101 
24690000     1.057839  -0.29279822      1728000    1999.3004       123450        83134 
24700000   0.96284039  -0.28635837      1728000    2000.1143       123500        83167 
24710000    1.0094061  -0.26604018      1728000    2000.9144       123550        83208 
24720000   0.95120635  -0.26730813      1728000    2001.7247       123600        83244 
24730000   0.97116665  -0.27017786      1728000    2002.5279       123650        83283 
24740000    1.0330423   -0.2669129      1728000    2003.3396       123700        83313 
24750000    0.9782853  -0.27111247      1728000    2004.1473       123750        83347 
24760000   0.98960296  -0.25993963      1728000    2004.9483       123800        83376 
24770000   0.99789224  -0.25196132      1728000    2005.7515       123850        83410 
24780000    1.0145606  -0.27081366      1728000    2006.5637       123900        83445 
24790000   0.97940907   -0.2787439      1728000    2007.3755       123950        83477 
24800000    1.0334349  -0.25920166      1728000    2008.1965       124000        83511 
24810000   0.97006615  -0.26668657      1728000    2009.0435       124050        83544 
24820000    1.0330857  -0.25690781      1728000    2009.8786       124100        83575 
24830000   0.99078478  -0.27020046      1728000    2010.6838       124150        83612 
24840000    0.9728583  -0.25548738      1728000     2011.486       124200        83643 
24850000    1.0256024  -0.26290267      1728000    2012.2872       124250        83674 
24860000     1.029943  -0.27202259      1728000    2013.0928       124300        83708 
24870000   0.97192916  -0.25180576      1728000    2013.8984       124350        83744 
24880000   0.98517974  -0.24510773      1728000    2014.7482       124400        83777 
24890000   0.99711242  -0.25049684      1728000    2015.5643       124450        83818 
24900000    1.0470776   -0.2530155      1728000    2016.3884       124500        83853 
24910000   0.97451526  -0.24753751      1728000    2017.1974       124550        83886 
24920000     0.985694  -0.26563546      1728000    2018.0071       124600        83923 
24930000   0.94132113  -0.25253762      1728000    2018.8216       124650        83957 
24940000   0.99725033  -0.24383746      1728000    2019.6394       124700        83989 
24950000   0.97493091  -0.26730584      1728000    2020.4742       124750        84020 
24960000    1.0571381  -0.26457895      1728000    2021.2846       124800        84057 
24970000    1.0220186  -0.26040529      1728000    2022.1016       124850        84094 
24980000    1.0511168  -0.26860727      1728000    2022.9075       124900        84126 
24990000   0.97299117  -0.26858299      1728000    2023.7264       124950        84160 
25000000   0.97898452  -0.26991893      1728000    2024.5706       125000        84189 
25010000    1.0115732  -0.25685929      1728000    2025.3782       125050        84225 
25020000   0.99930357  -0.24216768      1728000    2026.1864       125100        84259 
25030000    1.0051314   -0.2625455      1728000    2027.0023       125150        84293 
25040000   0.92921273  -0.26501881      1728000    2027.8184       125200        84332 
25050000    1.0431933  -0.29965017      1728000    2028.6464       125250        84365 
25060000    1.0000139  -0.31413216      1728000    2029.4615       125300        84400 
25070000     1.031562  -0.27851329      1728000    2030.2996       125350        84429 
25080000    1.0059787    -0.276902      1728000    2031.1106       125400        84469 
25090000   0.97523552  -0.27801914      1728000    2031.9244       125450        84501 
25100000    0.9807429  -0.26298822      1728000    2032.7445       125500        84530 
25110000   0.96144322  -0.27485667      1728000    2033.5724       125550        84560 
25120000   0.99983258  -0.26761372      1728000    2034.3825       125600        84593 
25130000    1.0635542  -0.27408965      1728000    2035.1982       125650        84623 
25140000    1.0405073  -0.27458343      1728000    2036.0261       125700        84656 
25150000    1.0173804  -0.27275541      1728000    2036.8483       125750        84689 
25160000    1.0038007  -0.30068811      1728000    2037.6754       125800        84721 
25170000    1.0238635  -0.27934902      1728000    2038.5116       125850        84758 
25180000    1.0251492  -0.26275573      1728000    2039.3717       125900        84792 
25190000   0.97887396  -0.27489769      1728000    2040.2109       125950        84829 
25200000    1.0213267  -0.25503625      1728000     2041.061       126000        84860 
25210000   0.97738263  -0.25189526      1728000    2041.8981       126050        84896 
25220000   0.98441631   -0.2432111      1728000    2042.7243       126100        84925 
25230000    1.0008875  -0.22868733      1728000    2043.5355       126150        84963 
25240000    1.0551327  -0.22668012      1728000    2044.3746       126200        85004 
25250000    1.0583958  -0.24889863      1728000    2045.1968       126250        85039 
25260000     1.052519  -0.24808085      1728000    2046.0149       126300        85071 
25270000     1.075541  -0.26241654      1728000    2046.8279       126350        85112 
25280000    1.0372709  -0.25186066      1728000    2047.6463       126400        85141 
25290000   0.98459961  -0.25989841      1728000    2048.4725       126450        85175 
25300000   0.95920866  -0.26025426      1728000    2049.2962       126500        85213 
25310000   0.99548072  -0.27184926      1728000    2050.1103       126550        85247 
25320000    1.0361148  -0.29593222      1728000    2050.9355       126600        85282 
25330000   0.97123361  -0.28851063      1728000    2051.7492       126650        85314 
25340000     1.017735  -0.28309588      1728000    2052.5624       126700        85342 
25350000   0.94104073  -0.29295182      1728000    2053.3714       126750        85372 
25360000    1.0520037  -0.28333962      1728000    2054.1897       126800        85409 
25370000   0.97929519  -0.27872362      1728000    2055.0034       126850        85440 
25380000   0.96503704  -0.26215129      1728000    2055.8215       126900        85468 
25390000    1.0362734  -0.27149834      1728000    2056.6416       126950        85505 
25400000    1.0144782  -0.25507992      1728000    2057.4624       127000        85541 
25410000   0.95101814  -0.25903575      1728000    2058.2805       127050        85570 
25420000   0.95187416  -0.24117283      1728000    2059.0955       127100        85601 
25430000    1.0820858   -0.2404219      1728000    2059.9064       127150        85638 
25440000    1.0290942  -0.26150174      1728000    2060.7146       127200        85676 
25450000    0.9625696  -0.25061555      1728000    2061.5292       127250        85714 
25460000    1.0280414  -0.24875164      1728000    2062.3643       127300        85753 
25470000   0.98332198  -0.25971883      1728000    2063.1638       127350        85790 
25480000    1.0445811  -0.24815667      1728000     2063.972       127400        85826 
25490000    1.1014288  -0.26217369      1728000    2064.7875       127450        85865 
25500000   0.97962461  -0.27196011      1728000    2065.6036       127500        85902 
25510000   0.98718093  -0.27315333      1728000    2066.4144       127550        85940 
25520000    1.0380381  -0.27279068      1728000    2067.2315       127600        85977 
25530000    1.0179515  -0.29078426      1728000    2068.0655       127650        86014 
25540000   0.98884345  -0.27406219      1728000    2068.8775       127700        86049 
25550000   0.94732378  -0.26318487      1728000    2069.6874       127750        86084 
25560000   0.95844434  -0.25252443      1728000    2070.5026       127800        86121 
25570000   0.98145816  -0.25258384      1728000    2071.3134       127850        86151 
25580000    1.0481762  -0.26168116      1728000    2072.1245       127900        86184 
25590000     1.011596   -0.2640821      1728000    2072.9466       127950        86220 
25600000    1.0319644   -0.2399001      1728000    2073.7627       128000        86255 
25610000    1.0186431  -0.25181661      1728000    2074.5777       128050        86292 
25620000   0.97507826  -0.25401928      1728000    2075.3802       128100        86325 
25630000   0.91436416   -0.2478967      1728000    2076.2084       128150        86366 
25640000   0.99001286  -0.25596525      1728000    2077.0325       128200        86402 
25650000   0.95025626  -0.26150085      1728000    2077.8415       128250        86441 
25660000    1.0323245  -0.26287482      1728000    2078.6827       128300        86476 
25670000   0.96592977  -0.27326022      1728000    2079.4945       128350        86516 
25680000   0.97614522  -0.25098771      1728000    2080.3203       128400        86551 
25690000    0.9670486  -0.27451624      1728000    2081.1317       128450        86588 
25700000     1.095775  -0.26102637      1728000    2081.9695       128500        86623 
25710000   0.99383371  -0.25807638      1728000    2082.8015       128550        86651 
25720000    1.0197777  -0.24920243      1728000    2083.6264       128600        86687 
25730000     1.022704  -0.26665139      1728000    2084.4466       128650        86721 
25740000   0.97585219  -0.26938453      1728000    2085.2575       128700        86754 
25750000   0.95302873  -0.27580747      1728000    2086.0695       128750        86780 
25760000   0.96479581  -0.27492427      1728000    2086.9127       128800        86809 
25770000    1.0320269  -0.26473352      1728000    2087.7219       128850        86841 
25780000   0.99916111  -0.24051982      1728000    2088.5297       128900        86874 
25790000   0.98225663  -0.22816678      1728000    2089.3354       128950        86913 
25800000    1.0134187  -0.25535013      1728000    2090.1677       129000        86944 
25810000    1.0184481  -0.26550732      1728000    2090.9745       129050        86977 
25820000   0.97634235  -0.28977189      1728000    2091.7895       129100        87009 
25830000    1.0085208  -0.28652336      1728000    2092.6126       129150        87044 
25840000   0.91263803  -0.27066257      1728000    2093.4174       129200        87079 
25850000   0.96046279   -0.2595931      1728000    2094.2152       129250        87107 
25860000    1.0273612  -0.26590758      1728000    2095.0215       129300        87145 
25870000   0.98165753  -0.25875392      1728000    2095.8302       129350        87179 
25880000    1.0150132  -0.26315608      1728000    2096.6407       129400        87214 
25890000    1.0502274  -0.26832978      1728000    2097.4662       129450        87254 
25900000   0.99531347  -0.26356001      1728000    2098.2877       129500        87287 
25910000    1.0066804  -0.25107573      1728000    2099.1105       129550        87320 
25920000   0.98911656  -0.27129327      1728000    2099.9323       129600        87355 
25930000    1.0010257   -0.2738964      1728000    2100.7489       129650        87392 
25940000   0.97818116  -0.26336436      1728000    2101.5646       129700        87428 
25950000   0.98963031  -0.24816687      1728000    2102.3808       129750        87463 
25960000   0.97935953  -0.23802755      1728000    2103.1937       129800        87502 
25970000   0.97733489  -0.24444871      1728000    2104.0118       129850        87534 
25980000   0.98048605  -0.23664096      1728000    2104.8205       129900        87569 
25990000    1.0219594  -0.24095999      1728000    2105.6358       129950        87602 
26000000   0.95468763  -0.22351253      1728000    2106.4738       130000        87638 
26010000   0.98890298  -0.23594559      1728000    2107.3044       130050        87677 
26020000    0.9988841  -0.27513588      1728000    2108.1175       130100        87717 
26030000   0.94752106  -0.27143877      1728000    2108.9527       130150        87747 
26040000    1.0488431  -0.26960724      1728000     2109.771       130200        87780 
26050000   0.96843777  -0.25236519      1728000    2110.5993       130250        87813 
26060000    1.0369079  -0.26212104      1728000    2111.4184       130300        87843 
26070000   0.96110415  -0.28332044      1728000    2112.2527       130350        87878 
26080000   0.91511576  -0.28272283      1728000    2113.0774       130400        87910 
26090000   0.98114553  -0.27395984      1728000    2113.9336       130450        87934 
26100000    1.0377153  -0.28380974      1728000    2114.8094       130500        87968 
26110000   0.98119198  -0.28997657      1728000    2115.6495       130550        87999 
26120000    1.0861588  -0.28535948      1728000    2116.4957       130600        88028 
26130000   0.98049307  -0.26597127      1728000    2117.3539       130650        88066 
26140000   0.97108609  -0.26914929      1728000    2118.1807       130700        88098 
26150000   0.98475939  -0.26262472      1728000    2119.0265       130750        88128 
26160000    1.0161915  -0.26916754      1728000    2119.8425       130800        88164 
26170000   0.98145405  -0.27444215      1728000    2120.6585       130850        88197 
26180000   0.96515259   -0.2686174      1728000    2121.4713       130900        88232 
26190000   0.99310596  -0.26554584      1728000    2122.3034       130950        88269 
26200000   0.94841848  -0.26928617      1728000    2123.1213       131000        88306 
26210000   0.95598254  -0.26639015      1728000    2123.9365       131050        88339 
26220000   0.96967387  -0.26152141      1728000    2124.7706       131100        88375 
26230000    1.0484881  -0.25556766      1728000    2125.5846       131150        88408 
26240000   0.99044687  -0.27503795      1728000    2126.4194       131200        88439 
26250000    0.9683529  -0.25483723      1728000     2127.239       131250        88474 
26260000   0.95904298  -0.24247079      1728000    2128.0562       131300        88510 
26270000   0.96489658  -0.27372032      1728000    2128.8914       131350        88538 
26280000    1.0260025  -0.25353074      1728000    2129.7089       131400        88571 
26290000    1.0341953  -0.25627956      1728000    2130.5346       131450        88602 
26300000      1.03153  -0.25751134      1728000    2131.3615       131500        88632 
26310000   0.97058723  -0.24641024      1728000    2132.1755       131550        88672 
26320000   0.98454174  -0.24497141      1728000    2133.0214       131600        88700 
26330000    1.0509982  -0.25378297      1728000    2133.8392       131650        88731 
26340000   0.99939182  -0.25676206      1728000    2134.6596       131700        88766 
26350000    1.0532488  -0.26313753      1728000    2135.4905       131750        88799 
26360000   0.95669565  -0.26653191      1728000    2136.3247       131800        88834 
26370000    1.0139652  -0.25824334      1728000    2137.1664       131850        88863 
26380000   0.97174213   -0.2721835      1728000    2137.9947       131900        88901 
26390000   0.99393948  -0.25405778      1728000    2138.8236       131950        88935 
26400000    1.0162251  -0.26147124      1728000    2139.6614       132000        88974 
26410000    1.0525259  -0.28996522      1728000    2140.4986       132050        89010 
26420000    1.0368622  -0.26506229      1728000    2141.3316       132100        89042 
26430000    1.0411024  -0.25232975      1728000    2142.1686       132150        89078 
26440000   0.96657081   -0.2600932      1728000    2143.0046       132200        89105 
26450000    1.0238651  -0.28181484      1728000    2143.8356       132250        89136 
26460000   0.98999588  -0.29411109      1728000    2144.6586       132300        89175 
26470000   0.95419178  -0.28349437      1728000    2145.5146       132350        89209 
26480000     1.031995  -0.30133581      1728000    2146.3525       132400        89239 
26490000   0.99220623  -0.29774819      1728000    2147.1855       132450        89277 
26500000   0.98468559   -0.2993842      1728000    2148.0148       132500        89304 
26510000    1.0357217  -0.30147765      1728000     2148.839       132550        89339 
26520000    1.0145567  -0.25624822      1728000    2149.6751       132600        89367 
26530000    1.0409988  -0.26721426      1728000    2150.5007       132650        89403 
26540000     1.065857   -0.2722838      1728000    2151.3196       132700        89439 
26550000   0.98714409  -0.25978127      1728000    2152.1435       132750        89471 
26560000   0.99591024  -0.29639818      1728000    2152.9914       132800        89500 
26570000    1.0574426  -0.27808549      1728000    2153.8238       132850        89535 
26580000   0.97593438  -0.26230389      1728000    2154.6495       132900        89569 
26590000    1.0382082  -0.23502952      1728000    2155.4675       132950        89601 
26600000    1.0043371   -0.2399554      1728000    2156.2956       133000        89639 
26610000    1.0044718  -0.25109166      1728000    2157.1135       133050        89680 
26620000   0.99293936  -0.26699959      1728000    2157.9327       133100        89716 
26630000   0.97272171  -0.26491337      1728000    2158.8096       133150        89751 
26640000    1.0107516   -0.2597353      1728000    2159.6247       133200        89784 
26650000    1.0124672  -0.27314626      1728000    2160.4467       133250        89821 
26660000   0.98194196  -0.27609594      1728000    2161.2755       133300        89853 
26670000    1.0091092  -0.26767957      1728000    2162.0924       133350        89882 
26680000   0.96221205  -0.27713862      1728000    2162.9096       133400        89919 
26690000   0.97610147  -0.26968329      1728000    2163.7654       133450        89957 
26700000    1.0226388  -0.27957693      1728000    2164.5915       133500        89989 
26710000   0.92113226  -0.29197902      1728000    2165.4096       133550        90024 
26720000    1.0403997  -0.30479394      1728000    2166.2294       133600        90058 
26730000   0.96012319  -0.26522542      1728000    2167.0426       133650        90095 
26740000   0.97167042  -0.27000618      1728000    2167.8554       133700        90125 
26750000    1.0264137  -0.27898021      1728000    2168.6906       133750        90156 
26760000   0.92249356  -0.28862243      1728000    2169.5566       133800        90188 
26770000    1.0193849  -0.27414068      1728000    2170.4211       133850        90217 
26780000    1.0045573   -0.2783468      1728000    2171.2463       133900        90248 
26790000    1.0219716  -0.28034838      1728000    2172.0884       133950        90275 
26800000    1.0403306  -0.27335424      1728000    2172.9665       134000        90310 
26810000   0.94731033  -0.29287953      1728000    2173.8107       134050        90341 
26820000   0.95257956  -0.30477218      1728000    2174.6868       134100        90369 
26830000    1.0753471   -0.2872196      1728000    2175.5539       134150        90401 
26840000   0.94598394  -0.29109542      1728000      2176.41       134200        90433 
26850000    1.0538643  -0.27606187      1728000     2177.286       134250        90463 
26860000   0.98535956  -0.28684157      1728000    2178.1085       134300        90500 
26870000    0.9283514   -0.3067445      1728000     2178.917       134350        90535 
26880000     1.015353   -0.2750412      1728000    2179.7457       134400        90562 
26890000    1.0081139  -0.28118204      1728000    2180.5579       134450        90597 
26900000   0.99318825  -0.26157477      1728000    2181.3789       134500        90631 
26910000    1.0232284  -0.28669827      1728000    2182.1961       134550        90663 
26920000   0.97850553  -0.27686936      1728000    2183.0145       134600        90692 
26930000    1.0334631  -0.29303119      1728000    2183.8565       134650        90727 
26940000   0.96902933  -0.29588844      1728000     2184.682       134700        90754 
26950000    1.0064139  -0.28041262      1728000    2185.5247       134750        90789 
26960000   0.96650119  -0.27863709      1728000    2186.3477       134800        90817 
26970000      1.02435  -0.28104455      1728000    2187.1645       134850        90855 
26980000    1.0194366    -0.299707      1728000    2187.9844       134900        90884 
26990000   0.99255412  -0.27809434      1728000    2188.7916       134950        90915 
27000000    1.0103422  -0.27992393      1728000    2189.6275       135000        90945 
27010000    1.1232562  -0.26005129      1728000    2190.4505       135050        90980 
27020000    1.0200602  -0.26734824      1728000    2191.3299       135100        91017 
27030000    1.0012819  -0.26087605      1728000     2192.147       135150        91052 
27040000    1.0139628  -0.25018585      1728000    2192.9599       135200        91088 
27050000   0.93145076  -0.23908853      1728000    2193.7704       135250        91124 
27060000    1.0288209  -0.25760802      1728000    2194.5949       135300        91146 
27070000    0.9998538  -0.24581241      1728000    2195.4206       135350        91182 
27080000    1.0198255  -0.24366923      1728000    2196.2298       135400        91218 
27090000    0.9785335  -0.27176259      1728000     2197.048       135450        91256 
27100000    1.0902445  -0.23397031      1728000    2197.8724       135500        91288 
27110000   0.99312681  -0.24891842      1728000    2198.7086       135550        91321 
27120000    1.0182577  -0.24937823      1728000    2199.5247       135600        91356 
27130000    1.0202153  -0.23926796      1728000    2200.3429       135650        91394 
27140000   0.97546562  -0.25005652      1728000    2201.1551       135700        91427 
27150000    1.0161139  -0.24387399      1728000    2201.9862       135750        91466 
27160000    1.0265101  -0.25233345      1728000    2202.8048       135800        91498 
27170000   0.99683839  -0.26026832      1728000    2203.6139       135850        91528 
27180000    1.0359075  -0.27555413      1728000    2204.4233       135900        91564 
27190000    1.0425914  -0.28388662      1728000    2205.2725       135950        91598 
27200000    1.0256309  -0.27556219      1728000     2206.107       136000        91632 
27210000   0.98760992  -0.26196171      1728000    2206.9362       136050        91668 
27220000   0.92849778  -0.26897788      1728000    2207.7427       136100        91702 
27230000    1.0513159  -0.26106895      1728000    2208.5493       136150        91732 
27240000    1.0074284  -0.25790899      1728000    2209.3624       136200        91765 
27250000    1.0792031  -0.25089388      1728000    2210.1806       136250        91798 
27260000    1.0324115  -0.26165969      1728000    2210.9987       136300        91834 
27270000   0.99514918  -0.26810099      1728000    2211.8255       136350        91873 
27280000    1.0101334   -0.2650683      1728000    2212.6366       136400        91907 
27290000   0.94000161  -0.26817141      1728000    2213.4416       136450        91943 
27300000   0.98491443  -0.26668804      1728000    2214.2592       136500        91979 
27310000    1.0159662  -0.27457274      1728000    2215.0775       136550        92012 
27320000    1.0056127  -0.28381505      1728000    2215.8927       136600        92047 
27330000   0.96192083  -0.27152046      1728000    2216.7067       136650        92080 
27340000    1.0056928   -0.2785878      1728000    2217.5149       136700        92112 
27350000    1.0176363  -0.26659032      1728000    2218.3179       136750        92151 
27360000   0.95604547  -0.24449408      1728000    2219.1353       136800        92185 
27370000   0.97032348   -0.2539925      1728000    2219.9518       136850        92221 
27380000   0.94900471  -0.25207287      1728000    2220.7839       136900        92261 
27390000    1.0164576  -0.27057201      1728000    2221.6008       136950        92295 
27400000   0.99019242  -0.25786873      1728000    2222.4198       137000        92328 
27410000    1.0529495  -0.26671457      1728000     2223.229       137050        92360 
27420000   0.99872237   -0.2587627      1728000    2224.0477       137100        92386 
27430000   0.99471329  -0.25200074      1728000    2224.8649       137150        92422 
27440000   0.95008608  -0.24635777      1728000    2225.6811       137200        92457 
27450000     1.027128  -0.24752914      1728000    2226.4926       137250        92493 
27460000    1.0550593  -0.25206138      1728000    2227.3217       137300        92528 
27470000    1.0131917   -0.2791615      1728000    2228.1386       137350        92564 
27480000     1.001703  -0.26288683      1728000    2228.9636       137400        92599 
27490000    1.0203865  -0.26935541      1728000    2229.7809       137450        92634 
27500000    1.0227393  -0.27225135      1728000    2230.6148       137500        92668 
27510000   0.99287385  -0.28488327      1728000    2231.4227       137550        92706 
27520000    1.0103492  -0.28564819      1728000    2232.2456       137600        92737 
27530000    1.0252801  -0.29291561      1728000    2233.0651       137650        92774 
27540000    1.0552955  -0.27862658      1728000    2233.8975       137700        92808 
27550000   0.99498169  -0.27510207      1728000    2234.7167       137750        92840 
27560000   0.99731042  -0.27902949      1728000    2235.5357       137800        92871 
27570000   0.94335333  -0.28285751      1728000    2236.3655       137850        92909 
27580000    1.0383302  -0.24808512      1728000    2237.1786       137900        92943 
27590000   0.96040017  -0.26388883      1728000    2237.9967       137950        92975 
27600000   0.98661879  -0.25532168      1728000    2238.8175       138000        93009 
27610000   0.95648945  -0.27119611      1728000    2239.6615       138050        93052 
27620000    1.0262117  -0.27430892      1728000    2240.4688       138100        93089 
27630000   0.97336111  -0.29470369      1728000    2241.2837       138150        93116 
27640000    1.0301878  -0.28473688      1728000    2242.1027       138200        93151 
27650000    1.0153092  -0.27275193      1728000    2242.9126       138250        93182 
27660000   0.97865045  -0.27770917      1728000    2243.7446       138300        93215 
27670000    1.0469795  -0.27024074      1728000    2244.5538       138350        93253 
27680000    1.0884376  -0.27670905      1728000    2245.3626       138400        93280 
27690000    1.0065138  -0.27141363      1728000    2246.1816       138450        93318 
27700000   0.99510419  -0.28614298      1728000    2247.0015       138500        93353 
27710000   0.97806682  -0.29798892      1728000    2247.8304       138550        93382 
27720000   0.97434024  -0.29661914      1728000    2248.6485       138600        93420 
27730000    1.0655289  -0.30273709      1728000    2249.4642       138650        93452 
27740000    1.0617396  -0.28114758      1728000    2250.2834       138700        93484 
27750000    1.0359788  -0.28649753      1728000    2251.0931       138750        93518 
27760000    1.0671733  -0.27246447      1728000    2251.9075       138800        93555 
27770000   0.96889008  -0.28969996      1728000    2252.7228       138850        93586 
27780000   0.99783751  -0.27993856      1728000    2253.5316       138900        93619 
27790000    1.0121767  -0.28890496      1728000    2254.3526       138950        93652 
27800000    1.0247829  -0.26093301      1728000    2255.1806       139000        93680 
27810000     1.062151  -0.25898883      1728000    2255.9906       139050        93712 
27820000   0.99728145  -0.26725311      1728000    2256.8077       139100        93748 
27830000    1.0226079  -0.26965318      1728000    2257.6165       139150        93784 
27840000    1.0196966  -0.26220257      1728000    2258.4287       139200        93819 
27850000    1.0669612   -0.2716752      1728000    2259.2456       139250        93855 
27860000    1.0155049  -0.25722842      1728000    2260.1006       139300        93885 
27870000    1.0066224  -0.24581252      1728000    2260.9028       139350        93921 
27880000    1.0694806  -0.27899499      1728000    2261.7166       139400        93955 
27890000   0.90841691  -0.25374694      1728000    2262.5446       139450        93986 
27900000   0.97620242   -0.2685379      1728000    2263.3658       139500        94023 
27910000   0.96211348   -0.2668565      1728000    2264.1755       139550        94051 
27920000    1.0082763  -0.24421875      1728000    2264.9868       139600        94082 
27930000   0.99592781  -0.27292642      1728000    2265.8076       139650        94117 
27940000    1.0434362  -0.24801507      1728000    2266.6289       139700        94152 
27950000    1.0299399  -0.26028144      1728000    2267.4417       139750        94184 
27960000    1.0185872  -0.26884893      1728000    2268.2486       139800        94220 
27970000    1.0065965  -0.25572971      1728000    2269.0725       139850        94251 
27980000   0.99272672  -0.28150277      1728000    2269.8937       139900        94286 
27990000    1.0086063  -0.27734761      1728000    2270.7138       139950        94317 
28000000   0.97714308   -0.2823502      1728000    2271.5436       140000        94352 
28010000   0.99378367  -0.29295667      1728000    2272.3546       140050        94383 
28020000    1.0028731  -0.28236065      1728000    2273.1722       140100        94416 
28030000    1.0175207  -0.27194697      1728000    2273.9807       140150        94449 
28040000    1.0719087  -0.27015549      1728000    2274.7907       140200        94479 
28050000    1.0031893  -0.26996342      1728000    2275.6036       140250        94517 
28060000    0.9384285   -0.2918729      1728000    2276.4274       140300        94553 
28070000   0.95689199  -0.29061057      1728000    2277.2577       140350        94586 
28080000    1.0151871  -0.28869796      1728000    2278.0736       140400        94622 
28090000    1.0128994  -0.26160714      1728000    2278.8865       140450        94651 
28100000   0.99712898  -0.29370749      1728000    2279.7076       140500        94682 
28110000    1.0753469  -0.30522254      1728000    2280.5196       140550        94712 
28120000   0.95502057   -0.2950635      1728000    2281.3356       140600        94750 
28130000    1.0082838  -0.27707364      1728000    2282.1486       140650        94782 
28140000    1.0458803   -0.2660304      1728000    2282.9555       140700        94815 
28150000    1.0605123  -0.27409148      1728000    2283.7699       140750        94849 
28160000    1.0393756  -0.26126346      1728000    2284.5896       140800        94883 
28170000    0.9618902  -0.25356644      1728000    2285.4037       140850        94915 
28180000    1.0014299   -0.2443898      1728000    2286.2217       140900        94948 
28190000    1.0189179  -0.25065735      1728000    2287.0316       140950        94982 
28200000   0.97381259  -0.24472401      1728000    2287.8487       141000        95017 
28210000   0.98181722  -0.25022101      1728000    2288.6618       141050        95057 
28220000    1.0192498  -0.24983686      1728000    2289.4746       141100        95091 
28230000   0.99267687  -0.25251909      1728000    2290.2876       141150        95124 
28240000    1.0449864  -0.22903294      1728000    2291.0976       141200        95160 
28250000    1.0044286  -0.26797582      1728000    2291.9177       141250        95193 
28260000    1.0014725  -0.27266801      1728000    2292.7467       141300        95227 
28270000    1.0133168  -0.26778056      1728000    2293.5628       141350        95260 
28280000    1.0725045   -0.2627859      1728000    2294.3726       141400        95295 
28290000    1.0163721  -0.26595259      1728000    2295.1828       141450        95333 
28300000   0.93516299  -0.27304087      1728000    2296.0045       141500        95367 
28310000    1.0008004  -0.24123885      1728000    2296.8427       141550        95408 
28320000    1.0101965  -0.23945755      1728000    2297.6538       141600        95446 
28330000   0.92212895  -0.27458556      1728000    2298.4667       141650        95476 
28340000    1.0543497  -0.25911063      1728000    2299.2816       141700        95517 
28350000   0.99621691  -0.25349758      1728000     2300.096       141750        95554 
28360000   0.96659706  -0.25930819      1728000    2300.9277       141800        95585 
28370000       1.0114  -0.26993474      1728000    2301.7497       141850        95621 
28380000   0.99126478  -0.26214053      1728000    2302.5745       141900        95659 
28390000   0.92811032  -0.24702505      1728000    2303.3818       141950        95695 
28400000    1.0326629  -0.25884162      1728000    2304.2049       142000        95732 
28410000   0.98807583  -0.24040835      1728000    2305.0407       142050        95765 
28420000    1.0410767  -0.25784051      1728000    2305.8846       142100        95801 
28430000   0.97769051  -0.24447862      1728000    2306.7286       142150        95837 
28440000    1.0261868  -0.24203456      1728000    2307.5559       142200        95871 
28450000    1.0144948  -0.23727231      1728000     2308.376       142250        95907 
28460000    1.0023918  -0.25028097      1728000    2309.2286       142300        95942 
28470000    1.0815856  -0.24933533      1728000    2310.0888       142350        95975 
28480000   0.92693959  -0.26801488      1728000    2310.9474       142400        96009 
28490000   0.99963998  -0.25847122      1728000    2311.7906       142450        96046 
28500000   0.96135033  -0.27356621      1728000    2312.6307       142500        96084 
28510000    0.9519832  -0.28684315      1728000    2313.4599       142550        96121 
28520000   0.95997371  -0.28386373      1728000    2314.2778       142600        96155 
28530000   0.99683076  -0.27587277      1728000     2315.103       142650        96189 
28540000   0.99709251  -0.28425339      1728000    2315.9451       142700        96220 
28550000   0.96153151  -0.27045897      1728000    2316.8002       142750        96258 
28560000    1.0644609  -0.24396118      1728000    2317.6274       142800        96291 
28570000    0.9772894  -0.27348903      1728000    2318.4655       142850        96329 
28580000     1.005424  -0.26385091      1728000    2319.3167       142900        96359 
28590000   0.95305899  -0.25352758      1728000    2320.1358       142950        96395 
28600000    1.0118092  -0.26391553      1728000     2320.975       143000        96429 
28610000    1.0149788  -0.27804044      1728000    2321.8291       143050        96462 
28620000   0.92807107  -0.29282006      1728000    2322.6628       143100        96494 
28630000   0.99782573  -0.29471816      1728000    2323.4829       143150        96524 
28640000    1.0469472  -0.29853097      1728000    2324.3022       143200        96560 
28650000    1.0131124   -0.2789206      1728000    2325.1202       143250        96592 
28660000    1.0560036   -0.3033461      1728000    2325.9428       143300        96623 
28670000    0.9683885  -0.31536335      1728000    2326.7903       143350        96658 
28680000    1.0155902  -0.30297876      1728000    2327.6294       143400        96689 
28690000   0.95743187  -0.30835366      1728000    2328.4381       143450        96723 
28700000    1.1053775   -0.3345631      1728000    2329.2688       143500        96752 
28710000    1.0629943   -0.3165232      1728000    2330.1078       143550        96783 
28720000     1.007055   -0.3131693      1728000    2330.9289       143600        96812 
28730000    1.0191819  -0.31880919      1728000    2331.8316       143650        96843 
28740000    1.0430919  -0.30276336      1728000    2332.6597       143700        96877 
28750000    0.9879933  -0.28785342      1728000    2333.4759       143750        96911 
28760000   0.98643249  -0.29024205      1728000     2334.302       143800        96942 
28770000   0.96025514  -0.26522119      1728000    2335.1311       143850        96972 
28780000   0.99645532  -0.29268037      1728000    2335.9524       143900        97003 
28790000   0.96139697  -0.28335193      1728000    2336.7571       143950        97037 
28800000   0.99010646  -0.29602147      1728000    2337.5699       144000        97063 
28810000   0.96882442  -0.30575487      1728000    2338.3778       144050        97099 
28820000    1.0734935  -0.29411032      1728000    2339.1827       144100        97137 
28830000   0.95340137  -0.30362881      1728000    2340.0087       144150        97171 
28840000    1.0230282  -0.27809221      1728000    2340.8339       144200        97206 
28850000   0.98444977  -0.27990976      1728000    2341.6528       144250        97240 
28860000   0.98468556  -0.26992103      1728000    2342.4648       144300        97270 
28870000    1.0107964  -0.26414692      1728000    2343.2798       144350        97301 
28880000   0.99174778  -0.26749546      1728000    2344.0958       144400        97339 
28890000    1.0232013  -0.27063714      1728000    2344.9087       144450        97374 
28900000   0.98067834  -0.27132036      1728000    2345.7217       144500        97411 
28910000    1.0000049  -0.26321562      1728000    2346.5296       144550        97447 
28920000    1.0011361  -0.25346298      1728000    2347.3386       144600        97482 
28930000    1.0125321  -0.25096697      1728000    2348.1498       144650        97519 
28940000   0.99844785  -0.24235693      1728000    2348.9797       144700        97556 
28950000    1.0348666  -0.24612478      1728000    2349.7898       144750        97591 
28960000   0.97194759  -0.25364911      1728000    2350.6069       144800        97623 
28970000   0.96475154  -0.25069641      1728000    2351.4328       144850        97657 
28980000     1.002644  -0.24731577      1728000    2352.2617       144900        97691 
28990000   0.97776013  -0.26079574      1728000    2353.0768       144950        97728 
29000000   0.99415532  -0.26705914      1728000    2353.9016       145000        97762 
29010000    1.0006731  -0.25249639      1728000    2354.7089       145050        97798 
29020000   0.98412841  -0.24311673      1728000    2355.5292       145100        97830 
29030000    0.9844737   -0.2762412      1728000    2356.3482       145150        97858 
29040000    1.0769849  -0.28255538      1728000     2357.191       145200        97891 
29050000    1.0026061  -0.28699465      1728000    2358.0162       145250        97934 
29060000    1.0285462  -0.28352772      1728000    2358.8544       145300        97971 
29070000    1.0082848  -0.27496788      1728000    2359.6875       145350        98003 
29080000   0.93623537    -0.272986      1728000    2360.5227       145400        98037 
29090000    1.0494432  -0.26689873      1728000    2361.3678       145450        98072 
29100000    1.0139973  -0.29497819      1728000    2362.2029       145500        98105 
29110000   0.99044017  -0.29384243      1728000    2363.0251       145550        98143 
29120000   0.97420913  -0.30053555      1728000    2363.8529       145600        98174 
29130000      0.98003   -0.2738444      1728000    2364.6681       145650        98210 
29140000    1.0478588  -0.27829256      1728000    2365.4953       145700        98238 
29150000    1.0724966  -0.27509004      1728000    2366.3152       145750        98278 
29160000    1.0284576  -0.26850984      1728000    2367.1426       145800        98315 
29170000   0.98563363  -0.27875675      1728000    2367.9658       145850        98348 
29180000    1.0446692  -0.29590932      1728000      2368.78       145900        98385 
29190000   0.94709296  -0.27333683      1728000    2369.6231       145950        98424 
29200000   0.97194271   -0.2589787      1728000    2370.4762       146000        98457 
29210000   0.96657224  -0.26800584      1728000    2371.3189       146050        98494 
29220000      1.00196  -0.28443347      1728000     2372.172       146100        98526 
29230000   0.95255256  -0.27604947      1728000    2372.9854       146150        98560 
29240000   0.99219112  -0.26527622      1728000    2373.8172       146200        98592 
29250000    1.0058521  -0.27168132      1728000    2374.6318       146250        98629 
29260000    1.0162333  -0.26740682      1728000     2375.449       146300        98665 
29270000    1.0113277  -0.27466302      1728000    2376.2657       146350        98693 
29280000    1.0152482  -0.26788785      1728000    2377.0967       146400        98726 
29290000    1.0600496  -0.27015455      1728000    2377.9156       146450        98755 
29300000   0.93927528  -0.28379335      1728000    2378.7717       146500        98792 
29310000     1.050206  -0.27746681      1728000    2379.5779       146550        98828 
29320000   0.99225512  -0.26509207      1728000    2380.3948       146600        98855 
29330000   0.98180638  -0.28045021      1728000    2381.2267       146650        98893 
29340000    1.0441433  -0.30104078      1728000    2382.0487       146700        98927 
29350000   0.99575997  -0.28956511      1728000    2382.8747       146750        98964 
29360000    1.0341573  -0.29665471      1728000    2383.7169       146800        98998 
29370000   0.96050646  -0.31069181      1728000    2384.5451       146850        99027 
29380000   0.97737157    -0.310462      1728000    2385.3649       146900        99056 
29390000    1.0026966   -0.2933436      1728000    2386.1819       146950        99085 
29400000    1.0025393  -0.30875066      1728000    2387.0098       147000        99119 
29410000    1.0145608  -0.28996365      1728000    2387.8218       147050        99152 
29420000   0.95178516   -0.2732418      1728000    2388.6336       147100        99184 
29430000    1.0128175  -0.28868904      1728000    2389.4446       147150        99214 
29440000   0.95327686  -0.27711392      1728000    2390.2558       147200        99248 
29450000   0.99052304  -0.26990549      1728000    2391.0668       147250        99277 
29460000    1.0208914  -0.25369896      1728000    2391.8819       147300        99311 
29470000    1.0794783  -0.28585432      1728000    2392.6986       147350        99346 
29480000   0.99161698  -0.28435249      1728000    2393.5147       147400        99378 
29490000   0.97599096   -0.2822202      1728000     2394.323       147450        99409 
29500000   0.92794614  -0.27307796      1728000     2395.132       147500        99446 
29510000    1.0029549  -0.27972985      1728000    2395.9479       147550        99479 
29520000    1.0136497  -0.26986972      1728000    2396.7789       147600        99510 
29530000    1.0144705  -0.25771846      1728000    2397.5807       147650        99542 
29540000   0.98399391  -0.26953728      1728000    2398.3876       147700        99574 
29550000    1.0048488   -0.2569339      1728000    2399.2102       147750        99609 
29560000   0.98808542  -0.27808606      1728000    2400.0199       147800        99649 
29570000   0.99109852   -0.2660119      1728000    2400.8479       147850        99684 
29580000    1.0154782  -0.27030989      1728000    2401.6647       147900        99717 
29590000     1.015801  -0.26228524      1728000    2402.4718       147950        99754 
29600000   0.97158488  -0.26784538      1728000    2403.2878       148000        99791 
29610000    1.0457636  -0.26655386      1728000    2404.0992       148050        99821 
29620000   0.98631597  -0.27827319      1728000    2404.9126       148100        99857 
29630000   0.91437103  -0.26789234      1728000    2405.7298       148150        99889 
29640000    1.0043481  -0.27988187      1728000    2406.5527       148200        99924 
29650000   0.98516649  -0.26236872      1728000    2407.3659       148250        99955 
29660000    0.9542019  -0.26382977      1728000    2408.2018       148300        99984 
29670000    1.0466025  -0.26452692      1728000    2409.0366       148350       100024 
29680000    1.0290032  -0.25800191      1728000    2409.8448       148400       100057 
29690000    1.0322851  -0.26689199      1728000    2410.6611       148450       100092 
29700000    1.0214239  -0.25324243      1728000    2411.4846       148500       100127 
29710000    1.0259998  -0.25580753      1728000    2412.2968       148550       100168 
29720000   0.92882576  -0.25068527      1728000    2413.1209       148600       100199 
29730000    1.0138166  -0.24909231      1728000    2413.9608       148650       100229 
29740000    1.0276541  -0.24180887      1728000    2414.7906       148700       100267 
29750000   0.97541923  -0.25699738      1728000    2415.6179       148750       100300 
29760000    1.0841231  -0.24382075      1728000    2416.4497       148800       100338 
29770000   0.98761947  -0.24657661      1728000     2417.267       148850       100376 
29780000   0.96054764  -0.22557895      1728000    2418.1023       148900       100410 
29790000    1.0220372    -0.238618      1728000    2418.9371       148950       100445 
29800000   0.96641096  -0.22887577      1728000    2419.7608       149000       100489 
29810000    1.0261572  -0.23467961      1728000     2420.564       149050       100526 
29820000    1.0106312  -0.24740611      1728000    2421.3726       149100       100559 
29830000    1.0212212  -0.27651666      1728000      2422.18       149150       100592 
29840000    1.0178374  -0.25773119      1728000    2422.9938       149200       100623 
29850000   0.97646464  -0.26207449      1728000    2423.8099       149250       100653 
29860000    1.0032326  -0.25639496      1728000    2424.6239       149300       100689 
29870000    1.0627315  -0.24982982      1728000     2425.435       149350       100729 
29880000     1.026056  -0.27291118      1728000    2426.2499       149400       100760 
29890000      1.04861   -0.2726682      1728000    2427.0589       149450       100788 
29900000    1.0724971  -0.29121341      1728000    2427.8897       149500       100823 
29910000    1.0077223  -0.30755395      1728000    2428.7119       149550       100853 
29920000    1.0390649  -0.30154925      1728000    2429.5318       149600       100884 
29930000    1.0010683  -0.31307081      1728000    2430.3468       149650       100917 
29940000    1.0037479  -0.29711706      1728000    2431.1676       149700       100950 
29950000   0.99471454  -0.28362472      1728000    2431.9878       149750       100979 
29960000   0.98958107  -0.30694898      1728000    2432.8118       149800       101011 
29970000   0.93620314  -0.30084997      1728000    2433.6329       149850       101044 
29980000      1.09178  -0.30784668      1728000    2434.4588       149900       101078 
29990000    1.0280359  -0.28555491      1728000    2435.2779       149950       101110 
30000000   0.97321993  -0.31078904      1728000    2436.1128       150000       101139 
30010000    1.0160743  -0.28318414      1728000    2436.9328       150050       101177 
30020000   0.96632477  -0.29436694      1728000     2437.753       150100       101209 
30030000     1.053051  -0.30251059      1728000    2438.5748       150150       101239 
30040000    1.0227448  -0.29682107      1728000    2439.3888       150200       101274 
30050000   0.99256247  -0.30201689      1728000    2440.2077       150250       101304 
30060000    1.0271849  -0.32047561      1728000    2441.0466       150300       101335 
30070000    1.0283394  -0.30694717      1728000    2441.8627       150350       101366 
30080000     1.053037  -0.31704437      1728000    2442.6699       150400       101399 
30090000    1.0436723  -0.32368275      1728000    2443.4951       150450       101434 
30100000   0.99270085  -0.31283754      1728000     2444.319       150500       101467 
30110000   0.93865945  -0.29374646      1728000     2445.131       150550       101503 
30120000    0.9471036  -0.30016705      1728000    2445.9838       150600       101538 
30130000   0.98399938  -0.31923177      1728000    2446.8246       150650       101567 
30140000    1.0365028  -0.32579039      1728000    2447.6589       150700       101602 
30150000   0.97302032  -0.32877721      1728000    2448.4929       150750       101631 
30160000   0.97032418  -0.31289129      1728000    2449.3208       150800       101664 
30170000    1.0222698  -0.31608142      1728000    2450.1648       150850       101696 
30180000   0.91031503  -0.30664133      1728000    2450.9866       150900       101721 
30190000   0.96363529  -0.31756945      1728000     2451.815       150950       101757 
30200000   0.99188031  -0.30923425      1728000    2452.6381       151000       101790 
30210000   0.98002642  -0.28900808      1728000    2453.4517       151050       101824 
30220000    1.0375916  -0.27473655      1728000    2454.2608       151100       101856 
30230000    1.0015559  -0.28793205      1728000    2455.0739       151150       101890 
30240000   0.95579519  -0.29126199      1728000    2455.8869       151200       101927 
30250000    1.0450686   -0.2980108      1728000     2456.701       151250       101954 
30260000    1.0183303  -0.29117457      1728000    2457.5058       151300       101985 
30270000   0.93495139  -0.32115815      1728000    2458.3369       151350       102013 
30280000    1.0099187  -0.32035828      1728000    2459.1558       151400       102044 
30290000   0.98165837  -0.32840753      1728000    2459.9728       151450       102076 
30300000     1.009831   -0.3148586      1728000    2460.8039       151500       102104 
30310000    1.0011911  -0.30854155      1728000    2461.6351       151550       102133 
30320000   0.94946461  -0.29799077      1728000    2462.4491       151600       102169 
30330000   0.99786925  -0.29578766      1728000    2463.2688       151650       102202 
30340000   0.97303481  -0.28593934      1728000    2464.0841       151700       102237 
30350000     1.041374  -0.29319791      1728000    2464.8959       151750       102270 
30360000   0.93978296  -0.29076846      1728000     2465.718       151800       102308 
30370000    1.0055708  -0.30297031      1728000    2466.5509       151850       102337 
30380000    1.0124118  -0.29999184      1728000    2467.3959       151900       102369 
30390000    1.0127881  -0.30372681      1728000    2468.2113       151950       102404 
30400000    1.0400757   -0.2784304      1728000    2469.0339       152000       102432 
30410000    1.0164839   -0.2824671      1728000    2469.8638       152050       102463 
30420000   0.94742939  -0.28230101      1728000    2470.6777       152100       102501 
30430000     1.009116  -0.28521616      1728000    2471.4979       152150       102533 
30440000   0.95877978  -0.29163115      1728000    2472.3029       152200       102561 
30450000    1.0181185  -0.28882339      1728000    2473.1181       152250       102600 
30460000   0.98737468  -0.28639987      1728000    2473.9509       152300       102631 
30470000   0.94170693  -0.28900516      1728000    2474.8174       152350       102661 
30480000     1.024335  -0.28752146      1728000    2475.7244       152400       102692 
30490000    1.0586997  -0.28609923      1728000    2476.7064       152450       102725 
30500000    1.0122327  -0.29748137      1728000    2477.5499       152500       102755 
30510000     1.001475   -0.2948075      1728000    2478.3701       152550       102788 
30520000     1.011684   -0.2806423      1728000    2479.1831       152600       102823 
30530000   0.95801069  -0.26774559      1728000    2480.0285       152650       102859 
30540000    1.0673025  -0.27274171      1728000    2480.8527       152700       102889 
30550000   0.93583603  -0.27223074      1728000    2481.6658       152750       102926 
30560000    1.0222711  -0.26895052      1728000     2482.474       152800       102957 
30570000    1.0440994  -0.26626451      1728000    2483.2791       152850       102992 
30580000   0.98588542   -0.2620128      1728000    2484.1102       152900       103031 
30590000   0.95677219  -0.24829896      1728000    2484.9437       152950       103062 
30600000   0.97002789  -0.23919974      1728000    2485.8268       153000       103092 
30610000   0.99504321  -0.22943492      1728000     2486.636       153050       103131 
30620000    1.0428449  -0.25647064      1728000    2487.4441       153100       103165 
30630000   0.99202099  -0.25208594      1728000    2488.2518       153150       103198 
30640000   0.99298678  -0.24376348      1728000    2489.0549       153200       103239 
30650000    1.0385657  -0.22039112      1728000    2489.8589       153250       103276 
30660000    1.0679948  -0.23642062      1728000    2490.6619       153300       103313 
30670000    0.9705052   -0.2250705      1728000     2491.483       153350       103338 
30680000    1.0031552  -0.26107084      1728000    2492.2959       153400       103373 
30690000   0.99902129  -0.24897498      1728000    2493.0969       153450       103412 
30700000    1.0400102  -0.23015973      1728000    2493.9049       153500       103448 
30710000   0.95596198  -0.23765945      1728000     2494.712       153550       103488 
30720000    1.0674339  -0.22914598      1728000     2495.521       153600       103525 
30730000   0.98943195  -0.23114532      1728000    2496.3249       153650       103563 
30740000    1.0477307  -0.24545715      1728000    2497.1409       153700       103592 
30750000    1.0449581  -0.25567637      1728000     2497.961       153750       103625 
30760000    1.0207958  -0.27191531      1728000    2498.7859       153800       103666 
30770000    1.0496852  -0.28891243      1728000    2499.6057       153850       103703 
30780000    1.0391164  -0.27929544      1728000    2500.4271       153900       103733 
30790000   0.99521547  -0.28024814      1728000    2501.2449       153950       103767 
30800000   0.96605892  -0.28854485      1728000    2502.0759       154000       103801 
30810000    1.0266735  -0.26691067      1728000     2502.893       154050       103834 
30820000    1.0276528  -0.26325009      1728000    2503.7031       154100       103871 
30830000    1.0336695  -0.27547328      1728000    2504.5181       154150       103907 
30840000   0.95533909  -0.28762644      1728000    2505.3661       154200       103938 
30850000   0.98971682  -0.30933249      1728000    2506.1938       154250       103971 
30860000    1.0674678  -0.28293823      1728000    2507.0301       154300       104005 
30870000   0.95639974  -0.29549542      1728000    2507.8796       154350       104039 
30880000   0.99479954  -0.29399374      1728000    2508.7087       154400       104069 
30890000    1.0292261  -0.28199235      1728000    2509.5149       154450       104095 
30900000    1.0178547  -0.28031676      1728000    2510.3331       154500       104130 
30910000   0.95790876  -0.27206186      1728000    2511.1312       154550       104168 
30920000    1.1241781  -0.28370723      1728000    2511.9404       154600       104200 
30930000    1.0207575  -0.27016172      1728000     2512.743       154650       104236 
30940000    1.0170627  -0.26282266      1728000    2513.5467       154700       104272 
30950000    1.0058558  -0.28387858      1728000    2514.3511       154750       104306 
30960000    1.0142584  -0.28342643      1728000    2515.1641       154800       104337 
30970000   0.99055324  -0.29349386      1728000    2515.9779       154850       104374 
30980000   0.98944236  -0.28765353      1728000    2516.7838       154900       104408 
30990000   0.97258197  -0.27609959      1728000    2517.5958       154950       104439 
31000000   0.95586237  -0.28800092      1728000    2518.4179       155000       104474 
31010000    1.0048438  -0.28519636      1728000     2519.227       155050       104502 
31020000    1.0189016  -0.28791359      1728000    2520.0461       155100       104534 
31030000   0.98909833  -0.27630933      1728000    2520.8537       155150       104567 
31040000    1.0041361   -0.2592719      1728000    2521.6955       155200       104604 
31050000    1.0339198  -0.24835866      1728000    2522.5267       155250       104633 
31060000    1.0366741  -0.26598246      1728000    2523.3429       155300       104671 
31070000       0.9981  -0.26264899      1728000     2524.157       155350       104699 
31080000    1.0470874  -0.24400986      1728000    2525.0101       155400       104732 
31090000   0.97101377  -0.24546671      1728000    2525.8292       155450       104767 
31100000   0.99174561  -0.25908469      1728000    2526.6491       155500       104804 
31110000   0.99411946  -0.27938517      1728000    2527.4661       155550       104835 
31120000    1.0287301  -0.28041102      1728000    2528.2772       155600       104867 
31130000     1.028476  -0.28041879      1728000    2529.0917       155650       104898 
31140000    0.9414208  -0.27270248      1728000     2529.923       155700       104930 
31150000   0.97852106  -0.27634614      1728000    2530.7383       155750       104963 
31160000   0.97928323  -0.27181535      1728000    2531.5654       155800       104995 
31170000     1.021281  -0.27725101      1728000    2532.3936       155850       105027 
31180000    1.0582568  -0.24676502      1728000     2533.221       155900       105061 
31190000   0.99418754  -0.23873809      1728000    2534.0751       155950       105098 
31200000   0.99331875  -0.24980267      1728000    2534.8943       156000       105134 
31210000   0.98956656  -0.24215916      1728000    2535.7059       156050       105172 
31220000    1.0138826  -0.24611167      1728000    2536.5168       156100       105205 
31230000    1.0480364  -0.24505703      1728000    2537.3321       156150       105240 
31240000    1.0159359   -0.2542706      1728000     2538.153       156200       105274 
31250000    1.0469234  -0.24502656      1728000    2539.0091       156250       105304 
31260000   0.94349678  -0.24450968      1728000    2539.8248       156300       105337 
31270000   0.96554415  -0.26644907      1728000    2540.6449       156350       105372 
31280000   0.99031709  -0.23864622      1728000    2541.5278       156400       105408 
31290000    1.0344775  -0.23562555      1728000    2542.3699       156450       105439 
31300000   0.99751207  -0.22895833      1728000    2543.1839       156500       105471 
31310000    1.0140618  -0.23752718      1728000    2544.0279       156550       105511 
31320000    0.9759264  -0.23055149      1728000    2544.8739       156600       105547 
31330000   0.97857572  -0.24875482      1728000    2545.7005       156650       105580 
31340000    1.0332243  -0.24265793      1728000    2546.5084       156700       105617 
31350000   0.97518483   -0.2401991      1728000    2547.3219       156750       105649 
31360000    1.0134357  -0.23665248      1728000    2548.1299       156800       105684 
31370000    1.0147673  -0.23781081      1728000     2548.939       156850       105722 
31380000   0.99269506  -0.24849525      1728000    2549.7637       156900       105761 
31390000   0.98758543  -0.24095332      1728000    2550.5767       156950       105798 
31400000    1.0806647  -0.24542345      1728000     2551.404       157000       105834 
31410000    1.0187902  -0.24370287      1728000    2552.2218       157050       105869 
31420000   0.94922258  -0.23803383      1728000     2553.038       157100       105906 
31430000   0.93900812  -0.23722448      1728000    2553.8429       157150       105944 
31440000    1.1307244  -0.23029423      1728000    2554.6509       157200       105983 
31450000    1.0498815  -0.23393137      1728000    2555.4819       157250       106016 
31460000    1.0129157  -0.23287042      1728000    2556.2918       157300       106057 
31470000   0.97381546  -0.23147588      1728000    2557.0929       157350       106094 
31480000    1.0130661  -0.24596211      1728000    2557.9127       157400       106132 
31490000    1.0663361  -0.25388803      1728000    2558.7391       157450       106166 
31500000    1.0424837  -0.24830926      1728000    2559.5542       157500       106198 
31510000   0.99502665  -0.26251092      1728000    2560.3571       157550       106238 
31520000    1.0063079  -0.25693596      1728000    2561.1689       157600       106274 
31530000    1.0810417   -0.2588028      1728000    2561.9729       157650       106313 
31540000   0.97564918  -0.25855735      1728000    2562.7858       157700       106346 
31550000   0.98142069   -0.2830807      1728000    2563.6007       157750       106382 
31560000    1.0636447  -0.25734117      1728000    2564.4439       157800       106415 
31570000   0.96235889  -0.25465468      1728000    2565.2608       157850       106449 
31580000    1.0335269  -0.25840069      1728000     2566.073       157900       106480 
31590000    1.0240751   -0.2760341      1728000     2566.887       157950       106514 
31600000   0.98359232  -0.28178408      1728000    2567.7349       158000       106547 
31610000    1.0417184  -0.27398343      1728000     2568.539       158050       106583 
31620000   0.93982769  -0.26522852      1728000    2569.3372       158100       106619 
31630000   0.94272146   -0.2844472      1728000    2570.1478       158150       106658 
31640000   0.96224967   -0.2692647      1728000    2570.9895       158200       106696 
31650000    1.0380687  -0.27546434      1728000    2571.8097       158250       106735 
31660000   0.94795843  -0.26364209      1728000    2572.6458       158300       106764 
31670000    1.0001955  -0.29195912      1728000     2573.461       158350       106797 
31680000   0.95730866  -0.29337129      1728000    2574.2851       158400       106829 
31690000   0.98011169  -0.30159276      1728000    2575.1129       158450       106859 
31700000    1.0247431  -0.31477325      1728000    2575.9479       158500       106889 
31710000    1.0383755  -0.29272323      1728000    2576.7809       158550       106921 
31720000    1.0736589  -0.29720622      1728000    2577.5971       158600       106952 
31730000   0.95455043  -0.28297697      1728000    2578.4142       158650       106982 
31740000    1.0297453  -0.28111113      1728000    2579.2388       158700       107016 
31750000    0.9998632  -0.28686758      1728000     2580.093       158750       107051 
31760000   0.98817635  -0.28849385      1728000     2580.897       158800       107085 
31770000   0.94931257  -0.26989965      1728000    2581.7019       158850       107119 
31780000   0.97295394  -0.28427961      1728000    2582.5311       158900       107152 
31790000    0.9528189  -0.29622117      1728000     2583.352       158950       107183 
31800000    1.0092832  -0.29678397      1728000    2584.1748       159000       107208 
31810000   0.97909979  -0.29384165      1728000    2585.0149       159050       107238 
31820000   0.96298916  -0.30464631      1728000    2585.8354       159100       107265 
31830000   0.95648053  -0.29783175      1728000     2586.646       159150       107296 
31840000   0.98166831  -0.30194137      1728000    2587.4509       159200       107329 
31850000   0.96357612  -0.30327326      1728000     2588.316       159250       107359 
31860000   0.98628563  -0.31417307      1728000    2589.1278       159300       107390 
31870000    1.0391245  -0.32063167      1728000    2589.9383       159350       107417 
31880000   0.99719213  -0.30877034      1728000    2590.7639       159400       107443 
31890000    1.0258283  -0.29419706      1728000     2591.575       159450       107478 
31900000    1.0185664  -0.28548968      1728000     2592.397       159500       107505 
31910000   0.95621092  -0.30074361      1728000     2593.203       159550       107535 
31920000   0.97282148  -0.28239693      1728000    2594.0169       159600       107562 
31930000   0.97971284  -0.29971116      1728000    2594.8292       159650       107591 
31940000   0.99949633  -0.29207984      1728000    2595.6422       159700       107624 
31950000   0.93413686  -0.27196472      1728000    2596.4548       159750       107657 
31960000   0.98134959  -0.26827942      1728000    2597.2662       159800       107687 
31970000    1.0175388  -0.26033978      1728000     2598.075       159850       107720 
31980000     1.098873  -0.27136211      1728000    2598.8938       159900       107754 
31990000   0.96162897  -0.27958014      1728000    2599.7059       159950       107785 
32000000    1.0025294  -0.27894621      1728000    2600.5381       160000       107818 
32010000   0.95671036   -0.2578544      1728000    2601.3401       160050       107855 
32020000   0.94991821  -0.24970532      1728000    2602.1461       160100       107893 
32030000    1.0038783  -0.26575147      1728000    2602.9501       160150       107934 
32040000   0.94541204  -0.25215684      1728000    2603.7698       160200       107973 
32050000    1.0933124  -0.24845323      1728000    2604.5842       160250       108010 
32060000     1.094166  -0.26213587      1728000     2605.411       160300       108044 
32070000    0.9604514  -0.24511035      1728000    2606.2281       160350       108079 
32080000    1.0436354   -0.2578276      1728000    2607.0482       160400       108114 
32090000    1.0160068  -0.28157818      1728000    2607.8519       160450       108149 
32100000   0.95627584  -0.27631756      1728000    2608.6622       160500       108185 
32110000   0.92499779  -0.24390754      1728000    2609.4731       160550       108215 
32120000    1.0337319  -0.24915837      1728000    2610.2783       160600       108248 
32130000    1.0080877  -0.25383052      1728000     2611.079       160650       108282 
32140000   0.98707424   -0.2447927      1728000    2611.9151       160700       108315 
32150000     1.001473  -0.25767416      1728000    2612.7261       160750       108357 
32160000    1.0065708  -0.25872115      1728000    2613.5391       160800       108392 
32170000    1.0339963  -0.29332188      1728000     2614.352       160850       108425 
32180000   0.98451416  -0.24149389      1728000     2615.168       160900       108459 
32190000    1.0623121  -0.25153047      1728000    2615.9861       160950       108496 
32200000    0.9958041  -0.26478161      1728000    2616.8212       161000       108533 
32210000    1.0327619  -0.23436887      1728000     2617.633       161050       108565 
32220000    1.0190984  -0.24961375      1728000     2618.442       161100       108601 
32230000    1.0276997  -0.25557823      1728000    2619.2771       161150       108640 
32240000   0.99222143  -0.24920782      1728000    2620.0931       161200       108679 
32250000    1.0390679  -0.24997553      1728000    2620.9052       161250       108710 
32260000   0.97711355  -0.25923734      1728000    2621.7259       161300       108740 
32270000    1.0024715  -0.26927507      1728000    2622.5491       161350       108777 
32280000   0.97699823  -0.25421327      1728000     2623.368       161400       108812 
32290000   0.97215612  -0.24870037      1728000    2624.1831       161450       108842 
32300000    1.0140258   -0.2872182      1728000    2625.0062       161500       108880 
32310000    1.0748291  -0.26746623      1728000    2625.8251       161550       108916 
32320000   0.99484558  -0.26011639      1728000      2626.65       161600       108953 
32330000    1.0148632  -0.28216362      1728000     2627.466       161650       108991 
32340000    1.0188526  -0.28406686      1728000     2628.284       161700       109017 
32350000   0.97009155  -0.26696615      1728000    2629.0942       161750       109055 
32360000    1.0226987  -0.27180466      1728000    2629.9153       161800       109087 
32370000    0.9278414  -0.26266193      1728000    2630.7521       161850       109120 
32380000     1.046914  -0.25461238      1728000    2631.5642       161900       109155 
32390000    1.0331678  -0.25445484      1728000    2632.4304       161950       109190 
32400000    1.0180328  -0.23044704      1728000    2633.2806       162000       109225 
32410000   0.95856453   -0.2278317      1728000    2634.1148       162050       109265 
32420000   0.97736079  -0.21758203      1728000    2634.9419       162100       109298 
32430000    1.0234804  -0.25207815      1728000    2635.7524       162150       109334 
32440000   0.95089295  -0.25510506      1728000     2636.595       162200       109374 
32450000    0.9772851  -0.24112733      1728000     2637.413       162250       109411 
32460000    1.0086325  -0.25156625      1728000     2638.234       162300       109444 
32470000   0.99568304  -0.27261567      1728000    2639.0421       162350       109480 
32480000    1.0525139   -0.2911124      1728000    2639.8762       162400       109515 
32490000   0.94979977  -0.27463443      1728000    2640.7282       162450       109547 
32500000    1.0089113  -0.28526334      1728000    2641.5661       162500       109584 
32510000   0.99013284  -0.28933257      1728000    2642.3873       162550       109614 
32520000    0.9767533  -0.28369205      1728000    2643.2074       162600       109651 
32530000    1.0074404  -0.27259599      1728000    2644.0411       162650       109684 
32540000    1.0010825   -0.2818458      1728000    2644.8531       162700       109719 
32550000    1.0330834  -0.29009542      1728000     2645.673       162750       109750 
32560000      1.05929  -0.26801564      1728000    2646.4941       162800       109786 
32570000   0.97783834  -0.24600542      1728000    2647.2991       162850       109815 
32580000   0.98690413  -0.27112016      1728000    2648.1141       162900       109844 
32590000    1.0760179  -0.24894825      1728000     2648.928       162950       109882 
32600000    1.0103698  -0.23821959      1728000    2649.7611       163000       109918 
32610000   0.98097406  -0.25476568      1728000     2650.569       163050       109950 
32620000   0.91320373  -0.25417804      1728000    2651.3781       163100       109989 
32630000    1.0659308  -0.26032604      1728000    2652.1919       163150       110019 
32640000    1.0675721  -0.25979527      1728000    2653.0243       163200       110050 
32650000   0.97688778  -0.26709964      1728000    2653.8381       163250       110076 
32660000    1.0427403  -0.27266846      1728000    2654.6749       163300       110104 
32670000   0.99827877  -0.26605449      1728000    2655.4941       163350       110133 
32680000   0.95435336  -0.26572994      1728000     2656.295       163400       110169 
32690000    1.0053478  -0.27736949      1728000     2657.106       163450       110205 
32700000    0.9973141  -0.28474958      1728000    2657.9361       163500       110236 
32710000   0.92255466   -0.2865272      1728000     2658.747       163550       110268 
32720000   0.99777925  -0.29251422      1728000    2659.5588       163600       110298 
32730000   0.94581088  -0.28667266      1728000    2660.3831       163650       110331 
32740000   0.96091087  -0.28742627      1728000     2661.196       163700       110366 
32750000    1.0777733  -0.28598676      1728000    2662.0101       163750       110396 
32760000    1.0099159  -0.27920098      1728000    2662.8171       163800       110432 
32770000   0.98761896  -0.28521131      1728000    2663.6281       163850       110470 
32780000    1.0237868  -0.30122613      1728000    2664.4843       163900       110502 
32790000   0.99178886  -0.29143168      1728000    2665.3101       163950       110532 
32800000    1.0115122  -0.27189295      1728000    2666.1342       164000       110565 
32810000   0.99391329  -0.28646661      1728000     2666.956       164050       110595 
32820000   0.99480664  -0.28358881      1728000    2667.7742       164100       110632 
32830000    1.0369874  -0.28509413      1728000    2668.6121       164150       110665 
32840000    1.0125468  -0.26741128      1728000    2669.4442       164200       110699 
32850000   0.98014535   -0.2763279      1728000    2670.2884       164250       110739 
32860000    1.0066532    -0.299022      1728000    2671.1056       164300       110772 
32870000   0.91639679  -0.27976044      1728000    2671.9362       164350       110802 
32880000    1.0605431  -0.28373608      1728000    2672.7542       164400       110837 
32890000   0.98350811  -0.26237454      1728000    2673.5824       164450       110871 
32900000   0.97785751  -0.26839499      1728000    2674.3911       164500       110904 
32910000    1.0248498  -0.27448325      1728000    2675.1892       164550       110932 
32920000   0.98484278  -0.26928776      1728000    2675.9822       164600       110968 
32930000    1.0489681  -0.27965606      1728000    2676.7743       164650       111000 
32940000    1.0316134  -0.25941896      1728000    2677.5591       164700       111036 
32950000    1.0119948  -0.23187587      1728000    2678.4184       164750       111069 
32960000   0.97981317  -0.22894771      1728000    2679.2095       164800       111107 
32970000    1.0086246  -0.24817665      1728000    2680.0033       164850       111141 
32980000   0.99765336  -0.22518264      1728000     2680.791       164900       111175 
32990000    0.9804229  -0.22222956      1728000    2681.5859       164950       111214 
33000000   0.99971269  -0.24112947      1728000    2682.4011       165000       111245 
33010000    1.0372002   -0.2239689      1728000    2683.1923       165050       111275 
33020000   0.95957675  -0.21487368      1728000    2683.9752       165100       111311 
33030000   0.96942304  -0.22969469      1728000    2684.7639       165150       111347 
33040000    1.0442824  -0.22670625      1728000    2685.5491       165200       111386 
33050000   0.99588467   -0.2183699      1728000     2686.331       165250       111419 
33060000    1.0044376  -0.23364333      1728000    2687.1189       165300       111453 
33070000   0.97943337  -0.21589031      1728000    2687.8981       165350       111488 
33080000   0.98612499  -0.23319696      1728000    2688.6831       165400       111525 
33090000   0.98245846  -0.25639579      1728000     2689.475       165450       111562 
33100000    1.0393135  -0.24131972      1728000    2690.2726       165500       111601 
33110000     1.028254  -0.23909372      1728000    2691.0591       165550       111632 
33120000   0.97569176   -0.2315417      1728000    2691.8442       165600       111667 
33130000   0.96865002  -0.24096304      1728000    2692.6339       165650       111702 
33140000    1.0047129  -0.24616164      1728000    2693.4162       165700       111735 
33150000   0.99186406  -0.25364145      1728000     2694.206       165750       111774 
33160000   0.99849419  -0.24493503      1728000    2695.0025       165800       111811 
33170000    1.0490816   -0.2551301      1728000     2695.804       165850       111850 
33180000    1.0301077  -0.26125641      1728000    2696.6693       165900       111881 
33190000    1.0373502  -0.26848918      1728000    2697.4781       165950       111912 
33200000   0.98369362   -0.2588099      1728000    2698.2933       166000       111952 
33210000    1.0059345  -0.25518274      1728000    2699.1131       166050       111991 
33220000    1.0566239  -0.26665474      1728000    2699.9191       166100       112022 
33230000    0.9467256  -0.26851781      1728000    2700.7311       166150       112058 
33240000   0.99847927  -0.26561859      1728000    2701.5348       166200       112090 
33250000    1.0335502  -0.28588703      1728000    2702.3585       166250       112123 
33260000    1.0361875  -0.26573466      1728000    2703.1853       166300       112155 
33270000   0.94297711  -0.27068896      1728000    2703.9881       166350       112191 
33280000     1.000857  -0.27922266      1728000    2704.7909       166400       112226 
33290000   0.99454606  -0.28035887      1728000    2705.5981       166450       112255 
33300000    1.0276052  -0.27296243      1728000    2706.4201       166500       112287 
33310000   0.98295819  -0.26556046      1728000    2707.2432       166550       112322 
33320000     0.992979  -0.26608781      1728000     2708.056       166600       112358 
33330000   0.95735566   -0.2781852      1728000    2708.8762       166650       112385 
33340000    1.0060165  -0.30015076      1728000    2709.6914       166700       112425 
33350000    1.0017323  -0.26860493      1728000    2710.5045       166750       112460 
33360000     1.040732  -0.26967256      1728000    2711.3186       166800       112490 
33370000    1.0716885  -0.25401937      1728000    2712.1321       166850       112521 
33380000   0.97107838  -0.25533771      1728000    2712.9384       166900       112557 
33390000    1.0384166  -0.25676724      1728000    2713.7442       166950       112592 
33400000    1.0828777   -0.2563004      1728000    2714.5568       167000       112630 
33410000    1.0305081  -0.23666965      1728000    2715.3741       167050       112668 
33420000   0.99209799  -0.26029795      1728000     2716.184       167100       112696 
33430000    1.0229698  -0.21899505      1728000    2716.9901       167150       112736 
33440000    1.0155942  -0.24052401      1728000    2717.7983       167200       112775 
33450000   0.98396833  -0.24732315      1728000     2718.607       167250       112814 
33460000   0.95015289   -0.2515283      1728000    2719.4102       167300       112850 
33470000   0.95662774   -0.2526259      1728000    2720.2172       167350       112888 
33480000    1.0183532  -0.23707918      1728000    2721.0199       167400       112929 
33490000   0.96866664  -0.25590347      1728000    2721.8267       167450       112965 
33500000    0.9893486  -0.27844166      1728000    2722.6959       167500       112992 
33510000    1.0704095  -0.27014367      1728000    2723.5351       167550       113021 
33520000    1.0005451  -0.27150706      1728000    2724.3478       167600       113054 
33530000    1.0534782  -0.29321868      1728000    2725.1651       167650       113089 
33540000    1.0150605   -0.2716053      1728000    2725.9757       167700       113121 
33550000   0.98374946  -0.29130247      1728000    2726.7928       167750       113153 
33560000    1.0021972  -0.30019751      1728000     2727.611       167800       113183 
33570000    1.0293872  -0.28668007      1728000    2728.4333       167850       113207 
33580000    1.0404828  -0.29230329      1728000    2729.2512       167900       113235 
33590000   0.93903412  -0.29264899      1728000    2730.0721       167950       113265 
33600000   0.98671036  -0.27337961      1728000    2730.8961       168000       113302 
33610000    1.0355755  -0.27058223      1728000    2731.7061       168050       113337 
33620000    1.0380462  -0.29938921      1728000    2732.5271       168100       113369 
33630000   0.96700097  -0.28693963      1728000    2733.3498       168150       113400 
33640000    1.0067824   -0.2876609      1728000    2734.1771       168200       113434 
33650000   0.99767527  -0.29589366      1728000     2734.997       168250       113471 
33660000    1.0018849  -0.28544722      1728000     2735.813       168300       113501 
33670000   0.96412004  -0.27391593      1728000    2736.6279       168350       113532 
33680000    1.0596756  -0.27518838      1728000    2737.4371       168400       113565 
33690000   0.97892584  -0.27654839      1728000    2738.2482       168450       113600 
33700000    1.0551902   -0.2913879      1728000    2739.0811       168500       113634 
33710000    1.0353034  -0.27079096      1728000    2739.9221       168550       113668 
33720000   0.98502966  -0.25818317      1728000    2740.7683       168600       113705 
33730000    1.0457852  -0.25794657      1728000    2741.5885       168650       113742 
33740000   0.97526709  -0.27410432      1728000    2742.4141       168700       113775 
33750000    1.0361806  -0.26523399      1728000    2743.2372       168750       113815 
33760000   0.94182017   -0.2621254      1728000    2744.0774       168800       113848 
33770000    1.0067777  -0.26361271      1728000    2744.9305       168850       113886 
33780000   0.99950333  -0.26012882      1728000    2745.7698       168900       113914 
33790000    1.0124936  -0.26021493      1728000    2746.6039       168950       113948 
33800000    1.0060568  -0.26131518      1728000    2747.4331       169000       113978 
33810000   0.94034967  -0.28356986      1728000    2748.2533       169050       114009 
33820000    1.0448101   -0.2635779      1728000     2749.083       169100       114043 
33830000   0.98828109  -0.27634588      1728000    2749.9022       169150       114076 
33840000   0.99006753  -0.26499407      1728000    2750.7203       169200       114108 
33850000   0.98711699  -0.25082378      1728000    2751.5446       169250       114143 
33860000   0.88296498  -0.26693983      1728000    2752.3977       169300       114179 
33870000    0.9306517  -0.27896933      1728000    2753.2221       169350       114219 
33880000    1.0170473   -0.2616867      1728000    2754.0472       169400       114250 
33890000   0.96328506  -0.24711881      1728000    2754.9243       169450       114286 
33900000   0.99557172  -0.25635368      1728000    2755.7715       169500       114321 
33910000   0.96725673  -0.25054272      1728000    2756.6039       169550       114354 
33920000    1.0377821  -0.23510855      1728000    2757.4381       169600       114384 
33930000     1.043727  -0.24632145      1728000    2758.2593       169650       114420 
33940000    1.0228774  -0.24667716      1728000    2759.1223       169700       114460 
33950000   0.97592368  -0.25587973      1728000    2759.9624       169750       114495 
33960000    0.9521459  -0.25827105      1728000    2760.7815       169800       114529 
33970000    1.0320907  -0.25249777      1728000    2761.6001       169850       114561 
33980000   0.91853279  -0.25559317      1728000     2762.442       169900       114593 
33990000    1.0255043   -0.2622272      1728000    2763.2741       169950       114635 
34000000     1.003344  -0.25362356      1728000    2764.1042       170000       114674 
34010000    1.0001109  -0.25300434      1728000     2764.917       170050       114707 
34020000   0.97916713  -0.26151286      1728000    2765.7391       170100       114742 
34030000   0.96880092  -0.27173125      1728000     2766.559       170150       114776 
34040000   0.96159789  -0.26515028      1728000    2767.3754       170200       114810 
34050000    1.0785284  -0.24811658      1728000    2768.1881       170250       114839 
34060000     1.015813  -0.25865168      1728000    2769.0402       170300       114875 
34070000   0.95631507  -0.26547483      1728000     2769.846       170350       114913 
34080000   0.96362301  -0.26863433      1728000    2770.6631       170400       114948 
34090000    1.0242201  -0.27287182      1728000    2771.4712       170450       114980 
34100000     1.041779  -0.26654948      1728000    2772.2982       170500       115018 
34110000   0.99003648  -0.26492044      1728000    2773.1223       170550       115057 
34120000    1.0187641  -0.28239905      1728000    2773.9341       170600       115092 
34130000    0.9985658  -0.28442441      1728000    2774.7541       170650       115126 
34140000    1.0544802  -0.27994253      1728000    2775.5861       170700       115158 
34150000    1.0239234   -0.2750714      1728000    2776.4091       170750       115195 
34160000   0.97753625  -0.28120203      1728000    2777.2502       170800       115228 
34170000    1.0734201  -0.27765703      1728000    2778.0822       170850       115263 
34180000    1.0249665  -0.27701059      1728000    2778.8963       170900       115297 
34190000   0.95653685  -0.26337382      1728000    2779.7141       170950       115334 
34200000   0.98155827   -0.2746909      1728000     2780.531       171000       115365 
34210000   0.96459716  -0.25989067      1728000    2781.3482       171050       115399 
34220000   0.96845635  -0.27068455      1728000     2782.173       171100       115439 
34230000    0.9483126  -0.26469639      1728000    2782.9862       171150       115470 
34240000   0.98485307   -0.2603961      1728000    2783.8071       171200       115507 
34250000   0.96076601  -0.27269206      1728000    2784.6297       171250       115543 
34260000    1.0394627  -0.26478631      1728000    2785.4539       171300       115577 
34270000   0.95049492  -0.27408985      1728000    2786.3021       171350       115611 
34280000   0.93865131  -0.26208194      1728000    2787.1322       171400       115648 
34290000   0.94461205  -0.28185953      1728000    2787.9464       171450       115684 
34300000    1.0239233  -0.27222374      1728000    2788.7726       171500       115720 
34310000    1.0419891  -0.27208897      1728000    2789.5912       171550       115754 
34320000   0.97551811  -0.25700088      1728000    2790.4223       171600       115786 
34330000    0.9384413  -0.29057538      1728000    2791.2795       171650       115819 
34340000    1.0433726  -0.24732736      1728000    2792.1436       171700       115852 
34350000    1.0503441   -0.2412501      1728000    2792.9748       171750       115888 
34360000   0.95774665  -0.25702392      1728000    2793.8242       171800       115920 
34370000    1.0392817  -0.25573006      1728000    2794.6489       171850       115957 
34380000    1.0317838  -0.25651084      1728000    2795.4601       171900       115990 
34390000   0.97251898  -0.27901361      1728000    2796.2682       171950       116029 
34400000   0.94983828  -0.25547765      1728000    2797.1064       172000       116069 
34410000    1.0127176  -0.25905662      1728000    2797.9147       172050       116107 
34420000   0.99486854  -0.24466896      1728000    2798.7153       172100       116137 
34430000    1.0633963  -0.24563367      1728000    2799.5107       172150       116171 
34440000    1.0151805  -0.26771625      1728000    2800.3266       172200       116203 
34450000   0.96805031  -0.24057162      1728000    2801.1173       172250       116238 
34460000   0.94947325  -0.26112127      1728000     2801.908       172300       116270 
34470000    1.0156382  -0.26557302      1728000     2802.696       172350       116306 
34480000    1.0759465  -0.25818517      1728000    2803.4883       172400       116340 
34490000    1.0102734  -0.25382505      1728000    2804.2802       172450       116371 
34500000   0.91362203   -0.2544198      1728000    2805.0815       172500       116403 
34510000    1.0503772  -0.26663991      1728000    2805.8879       172550       116431 
34520000   0.97853279  -0.27353637      1728000    2806.6901       172600       116463 
34530000   0.97889714  -0.27990378      1728000    2807.4909       172650       116498 
34540000    1.0215156   -0.2672468      1728000     2808.286       172700       116524 
34550000   0.94873952  -0.27382548      1728000    2809.0762       172750       116560 
34560000   0.94614091  -0.27310515      1728000    2809.8619       172800       116593 
34570000   0.99190053  -0.26125226      1728000    2810.6491       172850       116619 
34580000   0.95305882   -0.2785996      1728000    2811.4413       172900       116658 
34590000   0.93701136  -0.28486029      1728000    2812.2461       172950       116690 
34600000   0.99232636   -0.2833639      1728000    2813.0572       173000       116727 
34610000    1.0006284  -0.28129456      1728000    2813.8529       173050       116762 
34620000    1.0105733  -0.26876799      1728000    2814.6831       173100       116802 
34630000   0.98865488  -0.27023866      1728000    2815.4943       173150       116833 
34640000   0.94411256  -0.27096538      1728000    2816.2952       173200       116867 
34650000   0.95104739  -0.25807404      1728000    2817.0891       173250       116901 
34660000     1.059988  -0.26392061      1728000    2817.8881       173300       116943 
34670000     0.954949  -0.24019572      1728000    2818.6813       173350       116973 
34680000   0.98472839  -0.26214068      1728000    2819.4685       173400       117010 
34690000   0.97558807  -0.24690276      1728000    2820.2477       173450       117048 
34700000   0.96951114  -0.24862028      1728000    2821.0401       173500       117084 
34710000    1.0647666  -0.24679572      1728000    2821.8312       173550       117120 
34720000   0.98837546  -0.24192506      1728000    2822.6212       173600       117155 
34730000    1.0270697  -0.23630368      1728000    2823.4186       173650       117193 
34740000    1.0181417  -0.27261413      1728000    2824.2241       173700       117227 
34750000     1.050186  -0.27155579      1728000    2825.0312       173750       117264 
34760000    1.0857598  -0.24734353      1728000    2825.8273       173800       117296 
34770000   0.96371464  -0.25053352      1728000    2826.6424       173850       117326 
34780000   0.99227366  -0.25227151      1728000    2827.4546       173900       117359 
34790000   0.96903023  -0.27526573      1728000    2828.2526       173950       117393 
34800000    1.0370166  -0.27901438      1728000    2829.0767       174000       117420 
34810000   0.94355937   -0.2679804      1728000    2829.8969       174050       117456 
34820000    0.9457959  -0.25750216      1728000    2830.6921       174100       117496 
34830000   0.95431998  -0.26566229      1728000    2831.4846       174150       117530 
34840000   0.97120701  -0.26214383      1728000    2832.2884       174200       117564 
34850000   0.96491822  -0.25548073      1728000    2833.0922       174250       117600 
34860000   0.97794414  -0.26180665      1728000    2833.8863       174300       117630 
34870000    1.0437501  -0.25204194      1728000    2834.6732       174350       117668 
34880000   0.96751837  -0.26364752      1728000    2835.4642       174400       117702 
34890000     0.943884  -0.26396265      1728000    2836.2703       174450       117734 
34900000   0.99983762  -0.26702716      1728000    2837.1061       174500       117763 
34910000   0.99784904  -0.27896517      1728000    2837.9002       174550       117803 
34920000    1.0272251  -0.27437641      1728000     2838.696       174600       117840 
34930000    0.9721812  -0.26276972      1728000    2839.5075       174650       117881 
34940000    1.0103402  -0.29040502      1728000    2840.3163       174700       117912 
34950000    1.0045717  -0.26594795      1728000     2841.122       174750       117949 
34960000    1.0174827  -0.28107083      1728000    2841.9281       174800       117982 
34970000    1.0064457  -0.30182314      1728000    2842.7312       174850       118022 
34980000   0.98575831  -0.28596537      1728000    2843.5413       174900       118059 
34990000   0.96653995  -0.29228555      1728000    2844.3501       174950       118088 
35000000   0.99736395  -0.28350724      1728000    2845.1722       175000       118125 
35010000    1.0119288  -0.26399253      1728000    2845.9761       175050       118156 
35020000   0.91652493  -0.28093124      1728000    2846.7752       175100       118192 
35030000   0.96807413  -0.27727646      1728000    2847.5802       175150       118226 
35040000    1.0117018  -0.28020279      1728000    2848.3621       175200       118262 
35050000   0.94848759  -0.27680246      1728000    2849.1503       175250       118297 
35060000    1.0681843  -0.26112604      1728000    2849.9323       175300       118324 
35070000   0.98066753  -0.26228734      1728000    2850.7131       175350       118359 
35080000    1.0053648  -0.24462877      1728000    2851.4993       175400       118388 
35090000    1.0314661  -0.24043871      1728000    2852.2751       175450       118424 
35100000    0.9945463  -0.23756345      1728000    2853.0619       175500       118460 
35110000    1.0399729  -0.24177835      1728000    2853.8423       175550       118500 
35120000   0.98828268  -0.26135206      1728000    2854.6352       175600       118544 
35130000    1.0494864  -0.25382787      1728000    2855.5116       175650       118582 
35140000    1.0127573  -0.25125411      1728000    2856.3577       175700       118621 
35150000    1.0166778   -0.2417509      1728000    2857.1662       175750       118654 
35160000   0.99003899  -0.22775455      1728000    2857.9802       175800       118689 
35170000   0.98385591  -0.23997117      1728000    2858.7742       175850       118721 
35180000    1.0115547  -0.23077482      1728000    2859.5593       175900       118757 
35190000    1.0704364  -0.24038176      1728000    2860.3613       175950       118784 
35200000    1.0549433  -0.23891725      1728000    2861.1533       176000       118816 
35210000    1.0000107  -0.26082474      1728000    2861.9733       176050       118848 
35220000   0.99627771  -0.24840869      1728000    2862.7542       176100       118884 
35230000   0.93959282  -0.23198608      1728000    2863.5342       176150       118922 
35240000    0.9963959  -0.23137083      1728000    2864.3092       176200       118961 
35250000    1.0282549  -0.25460239      1728000    2865.0883       176250       119000 
35260000    1.0027014  -0.27462661      1728000    2865.9003       176300       119033 
35270000    1.0397184  -0.27233764      1728000    2866.7113       176350       119064 
35280000   0.95667856  -0.28281085      1728000    2867.5261       176400       119091 
35290000   0.93547693  -0.27170186      1728000    2868.3377       176450       119125 
35300000   0.99054694  -0.29161419      1728000      2869.16       176500       119162 
35310000    1.0228105  -0.29812017      1728000    2870.0995       176550       119188 
35320000    1.0350928  -0.29084442      1728000     2870.896       176600       119218 
35330000   0.95081434  -0.30052946      1728000    2871.6823       176650       119259 
35340000    1.0072883  -0.30124125      1728000    2872.4817       176700       119297 
35350000    1.0640906   -0.2816209      1728000    2873.2731       176750       119331 
35360000   0.96823691  -0.25744731      1728000    2874.0823       176800       119364 
35370000   0.96041112  -0.27998788      1728000    2874.8872       176850       119393 
35380000    1.0497359  -0.29772184      1728000    2875.7113       176900       119426 
35390000   0.99714064   -0.3040202      1728000    2876.5303       176950       119455 
35400000    1.0234043  -0.28832316      1728000    2877.3661       177000       119487 
35410000    1.0480598  -0.28759237      1728000     2878.155       177050       119522 
35420000    0.9869262  -0.28994735      1728000    2878.9685       177100       119552 
35430000    1.0109381  -0.29777955      1728000    2879.7934       177150       119591 
35440000    1.0053145  -0.28791253      1728000    2880.6303       177200       119619 
35450000    1.0364208  -0.27508823      1728000    2881.4552       177250       119652 
35460000   0.94577036  -0.27839523      1728000    2882.2663       177300       119689 
35470000    1.0463958  -0.27303521      1728000    2883.0742       177350       119726 
35480000   0.97955762  -0.27241769      1728000    2883.8904       177400       119759 
35490000    1.1016748  -0.29180867      1728000    2884.7327       177450       119790 
35500000   0.93864246  -0.28720816      1728000    2885.5618       177500       119820 
35510000   0.98546537  -0.28469261      1728000    2886.3826       177550       119850 
35520000    0.9916847  -0.27923111      1728000    2887.1963       177600       119888 
35530000    1.0673651  -0.28348269      1728000    2888.0274       177650       119921 
35540000   0.98338314  -0.30358845      1728000    2888.8463       177700       119951 
35550000   0.96901422  -0.29972216      1728000    2889.6673       177750       119984 
35560000    1.0211512  -0.30720331      1728000    2890.4934       177800       120009 
35570000    1.0186489  -0.29941334      1728000    2891.3082       177850       120044 
35580000    1.0028661  -0.30954434      1728000     2892.129       177900       120076 
35590000   0.95933251  -0.30635939      1728000    2892.9482       177950       120108 
35600000   0.99087656  -0.28920021      1728000    2893.7672       178000       120142 
35610000    0.9790012  -0.30095177      1728000    2894.5773       178050       120173 
35620000   0.98128372  -0.28284383      1728000    2895.3913       178100       120206 
35630000     1.003415  -0.26930657      1728000    2896.2102       178150       120244 
35640000    1.0803384  -0.27683393      1728000    2897.0273       178200       120278 
35650000   0.95787096  -0.26424226      1728000    2897.8522       178250       120314 
35660000    0.9384436  -0.26525085      1728000    2898.6791       178300       120345 
35670000   0.91613818  -0.27090214      1728000    2899.4983       178350       120376 
35680000    1.0138876   -0.2669934      1728000    2900.3122       178400       120411 
35690000    1.0570874  -0.29997479      1728000    2901.1237       178450       120442 
35700000    1.0479536  -0.27284017      1728000    2901.9539       178500       120477 
35710000   0.99466255  -0.27701102      1728000    2902.7844       178550       120506 
35720000   0.99277591  -0.28732137      1728000    2903.6008       178600       120540 
35730000   0.96387529  -0.25252135      1728000    2904.4176       178650       120574 
35740000    1.0189149  -0.25843476      1728000    2905.2368       178700       120608 
35750000   0.99039668  -0.29155564      1728000    2906.0606       178750       120645 
35760000    1.0560804  -0.28608734      1728000    2906.8769       178800       120678 
35770000    1.0216715   -0.2835132      1728000    2907.7212       178850       120712 
35780000    1.0440697  -0.27669871      1728000    2908.5404       178900       120746 
35790000   0.96275481  -0.27564695      1728000    2909.3672       178950       120778 
35800000    1.0087807  -0.28186521      1728000    2910.1963       179000       120806 
35810000    1.0401752  -0.27376732      1728000    2911.0203       179050       120841 
35820000   0.97092304  -0.30753396      1728000    2911.8454       179100       120873 
35830000    1.0360464  -0.30701528      1728000    2912.6673       179150       120902 
35840000   0.94113421  -0.31344907      1728000    2913.4873       179200       120933 
35850000   0.95439395   -0.3287956      1728000    2914.3483       179250       120964 
35860000    1.0008341   -0.3120182      1728000    2915.1771       179300       120993 
35870000    1.0168053  -0.30997334      1728000    2916.0014       179350       121019 
35880000    1.0591513   -0.3168393      1728000    2916.8239       179400       121050 
35890000    1.0031785  -0.32836513      1728000    2917.6733       179450       121081 
35900000   0.91482534  -0.29577898      1728000    2918.4963       179500       121113 
35910000   0.97751726  -0.31056403      1728000    2919.3174       179550       121141 
35920000   0.96358967  -0.31912611      1728000    2920.1552       179600       121173 
35930000   0.97715624  -0.27804333      1728000    2920.9824       179650       121206 
35940000   0.99116843  -0.30220828      1728000    2921.7994       179700       121239 
35950000    1.0930767  -0.30525075      1728000    2922.6202       179750       121268 
35960000   0.97930229  -0.30578869      1728000    2923.4423       179800       121308 
35970000    1.0725154  -0.29463948      1728000    2924.2613       179850       121338 
35980000   0.99095976  -0.28607268      1728000    2925.0814       179900       121375 
35990000   0.99381422  -0.26868793      1728000    2925.9154       179950       121405 
36000000   0.97435324  -0.26863179      1728000    2926.7473       180000       121440 
36010000      1.04537   -0.2635758      1728000    2927.5684       180050       121479 
36020000    0.9655875  -0.24990966      1728000    2928.3794       180100       121508 
36030000   0.97047323  -0.25141982      1728000    2929.1924       180150       121537 
36040000    1.0095575  -0.23220968      1728000    2930.0072       180200       121575 
36050000   0.98003907  -0.22864346      1728000    2930.8152       180250       121608 
36060000   0.94116636  -0.24230621      1728000    2931.6173       180300       121653 
36070000   0.97727161  -0.25207541      1728000    2932.4333       180350       121684 
36080000   0.99492791  -0.25313851      1728000    2933.2444       180400       121718 
36090000   0.95863652  -0.25742327      1728000    2934.0604       180450       121751 
36100000    1.0031882  -0.24583873      1728000    2934.8854       180500       121780 
36110000     1.027673  -0.27132957      1728000    2935.7044       180550       121814 
36120000    1.0000553  -0.25818756      1728000    2936.5073       180600       121851 
36130000    1.0519526  -0.24903567      1728000    2937.3195       180650       121885 
36140000    1.0150265  -0.26101777      1728000    2938.1305       180700       121917 
36150000   0.94906382  -0.25415598      1728000    2938.9384       180750       121955 
36160000   0.96959208  -0.28497812      1728000    2939.7663       180800       121991 
36170000    1.0587052  -0.28741727      1728000    2940.5845       180850       122025 
36180000   0.94449796  -0.27573449      1728000    2941.4003       180900       122059 
36190000    1.0237574  -0.27335327      1728000    2942.2162       180950       122092 
36200000   0.94589908  -0.27505836      1728000    2943.0382       181000       122128 
36210000    1.0347968  -0.26829634      1728000    2943.8604       181050       122157 
36220000    1.1317628  -0.26239088      1728000    2944.6816       181100       122196 
36230000   0.97320407  -0.27421327      1728000    2945.5047       181150       122229 
36240000   0.98219682  -0.26408219      1728000    2946.3221       181200       122268 
36250000    1.0409984  -0.26238214      1728000    2947.1353       181250       122304 
36260000   0.97138189  -0.28075135      1728000    2947.9784       181300       122337 
36270000   0.98873251  -0.26541209      1728000    2948.7865       181350       122369 
36280000   0.98810959  -0.27512625      1728000    2949.6029       181400       122402 
36290000    1.0037911  -0.28569816      1728000    2950.4062       181450       122434 
36300000   0.96144417  -0.28213254      1728000    2951.2127       181500       122472 
36310000   0.95971006  -0.26361606      1728000    2952.0244       181550       122502 
36320000    1.0191944  -0.29212654      1728000    2952.8313       181600       122539 
36330000    0.9600787  -0.27742896      1728000    2953.6493       181650       122573 
36340000   0.98045677  -0.27194785      1728000    2954.4593       181700       122608 
36350000    1.0009783  -0.26623907      1728000    2955.2692       181750       122643 
36360000    1.0044146  -0.26947877      1728000    2956.0754       181800       122681 
36370000   0.91939109  -0.25801857      1728000    2956.9093       181850       122714 
36380000    1.0624392  -0.26585476      1728000    2957.7442       181900       122749 
36390000   0.95334615  -0.27042802      1728000    2958.5573       181950       122780 
36400000    1.0199733  -0.27789905      1728000    2959.3945       182000       122810 
36410000   0.99997534  -0.26807732      1728000    2960.2143       182050       122848 
36420000    1.0082411  -0.27558025      1728000    2961.0285       182100       122886 
36430000   0.97882551  -0.26287948      1728000    2961.8463       182150       122917 
36440000    1.0067659  -0.25656641      1728000    2962.6592       182200       122947 
36450000   0.92874073  -0.27571409      1728000    2963.4733       182250       122978 
36460000   0.93785935  -0.27949657      1728000    2964.2823       182300       123008 
36470000    1.0129362  -0.26536052      1728000    2965.0953       182350       123042 
36480000   0.99692603  -0.28734845      1728000    2965.9195       182400       123071 
36490000   0.95841657  -0.28203379      1728000    2966.7484       182450       123104 
36500000   0.99039443  -0.28147981      1728000    2967.5743       182500       123139 
36510000     1.005949  -0.26385041      1728000    2968.3895       182550       123168 
36520000    1.0112647  -0.28165419      1728000    2969.2205       182600       123199 
36530000   0.95974106  -0.28249652      1728000    2970.0443       182650       123236 
36540000      1.00674  -0.27116871      1728000    2970.8653       182700       123272 
36550000   0.97352357  -0.25167759      1728000    2971.6823       182750       123304 
36560000    0.9952093  -0.25187101      1728000    2972.5085       182800       123335 
36570000    1.0221651  -0.24467417      1728000    2973.3155       182850       123369 
36580000    1.0216443  -0.23512676      1728000    2974.1305       182900       123409 
36590000   0.97860285  -0.22273829      1728000    2974.9934       182950       123446 
36600000    1.0228022  -0.24769182      1728000    2975.8154       183000       123484 
36610000    0.9808562  -0.26361508      1728000    2976.6413       183050       123520 
36620000   0.98662826  -0.24632227      1728000     2977.465       183100       123554 
36630000   0.94942063  -0.24850283      1728000    2978.2805       183150       123591 
36640000   0.97389363  -0.25211568      1728000    2979.0947       183200       123619 
36650000    1.0291759  -0.25986455      1728000    2979.8988       183250       123661 
36660000    1.0218734   -0.2760673      1728000     2980.717       183300       123690 
36670000    1.0250207  -0.26430417      1728000    2981.5162       183350       123724 
36680000     0.990084  -0.28411398      1728000    2982.3454       183400       123755 
36690000    1.0128658  -0.28410439      1728000    2983.1848       183450       123785 
36700000    1.0441076  -0.27517731      1728000    2984.0089       183500       123823 
36710000   0.97765601  -0.26466568      1728000    2984.8225       183550       123858 
36720000   0.99209749  -0.25551418      1728000    2985.6353       183600       123898 
36730000   0.94874313  -0.25829624      1728000    2986.4545       183650       123932 
36740000   0.98736708  -0.27024945      1728000    2987.2653       183700       123968 
36750000    1.0027613  -0.26059165      1728000    2988.0974       183750       124002 
36760000    1.0159051  -0.27935427      1728000    2988.9295       183800       124030 
36770000    1.0816515   -0.2667443      1728000    2989.7515       183850       124064 
36780000   0.95175733  -0.27183762      1728000    2990.5595       183900       124098 
36790000    1.0519783  -0.27521154      1728000    2991.3715       183950       124133 
36800000    1.0107644  -0.29013648      1728000    2992.2094       184000       124170 
36810000    1.0042814  -0.28265727      1728000    2993.0265       184050       124202 
36820000   0.99201499   -0.2882782      1728000    2993.8474       184100       124235 
36830000   0.97862225  -0.27865149      1728000    2994.6583       184150       124267 
36840000    1.0719812  -0.29706039      1728000    2995.4734       184200       124296 
36850000    0.9763763  -0.26761438      1728000    2996.2955       184250       124331 
36860000   0.99007235  -0.26679142      1728000    2997.1074       184300       124366 
36870000   0.99357297  -0.27364319      1728000    2997.9155       184350       124396 
36880000    1.0757445  -0.26951229      1728000    2998.7235       184400       124432 
36890000    1.0336806  -0.25277061      1728000    2999.5283       184450       124468 
36900000    1.0012272    -0.284769      1728000    3000.3363       184500       124504 
36910000    1.0001726  -0.25579048      1728000    3001.1722       184550       124543 
36920000   0.95748358  -0.26177406      1728000    3001.9784       184600       124577 
36930000   0.95414521  -0.27195936      1728000    3002.7854       184650       124611 
36940000    1.0382437  -0.28125762      1728000    3003.5924       184700       124645 
36950000    1.0355659  -0.28417094      1728000    3004.4184       184750       124674 
36960000   0.99292136  -0.28847889      1728000    3005.2304       184800       124707 
36970000    1.0515012  -0.27336641      1728000    3006.0474       184850       124737 
36980000   0.95930636  -0.29340412      1728000    3006.8674       184900       124766 
36990000    1.0116817  -0.28591842      1728000    3007.6783       184950       124800 
37000000   0.96132628  -0.28581343      1728000    3008.5102       185000       124836 
37010000    1.0039411  -0.27497825      1728000    3009.3353       185050       124865 
37020000   0.95683792  -0.28935394      1728000    3010.1485       185100       124896 
37030000   0.93326144  -0.27800016      1728000    3010.9692       185150       124928 
37040000   0.99777064   -0.2963935      1728000    3011.7803       185200       124956 
37050000    1.0378634  -0.26812539      1728000    3012.5903       185250       124992 
37060000   0.99220381   -0.2571166      1728000    3013.4215       185300       125024 
37070000   0.94423483  -0.29173081      1728000    3014.2433       185350       125052 
37080000     1.003387  -0.26588206      1728000    3015.0594       185400       125082 
37090000   0.90644713  -0.26718764      1728000    3015.8664       185450       125108 
37100000   0.93873755  -0.28114884      1728000    3016.6954       185500       125135 
37110000    1.0088824   -0.2745692      1728000    3017.5164       185550       125158 
37120000   0.97477591  -0.30519638      1728000    3018.3343       185600       125187 
37130000    1.0000684  -0.30157202      1728000    3019.1505       185650       125218 
37140000    1.0548743   -0.3264735      1728000    3019.9645       185700       125253 
37150000   0.94331403  -0.31360968      1728000    3020.7917       185750       125282 
37160000   0.96055109  -0.30319181      1728000    3021.6185       185800       125307 
37170000   0.99250603  -0.31005268      1728000    3022.4323       185850       125343 
37180000   0.98587507  -0.29443443      1728000    3023.2606       185900       125374 
37190000    0.9379894   -0.3127147      1728000    3024.0925       185950       125410 
37200000    1.0396789  -0.30682955      1728000    3024.9345       186000       125437 
37210000    1.0227928  -0.32782132      1728000    3025.7555       186050       125473 
37220000   0.95739085  -0.30852005      1728000    3026.6012       186100       125503 
37230000   0.96409965  -0.31312745      1728000    3027.4255       186150       125534 
37240000    1.0078701  -0.30947364      1728000    3028.2463       186200       125573 
37250000    1.0046489  -0.28940255      1728000    3029.0653       186250       125611 
37260000    1.0038321  -0.30060902      1728000    3029.8895       186300       125648 
37270000   0.96921904  -0.29774289      1728000    3030.7035       186350       125681 
37280000     1.060544  -0.28484335      1728000    3031.5245       186400       125715 
37290000    1.0741534  -0.26752839      1728000    3032.3564       186450       125752 
37300000    0.9816125  -0.27795532      1728000    3033.1762       186500       125785 
37310000    1.0245036  -0.26597389      1728000    3033.9954       186550       125820 
37320000    1.0012767  -0.27305177      1728000    3034.8156       186600       125848 
37330000    0.9923001  -0.28019856      1728000    3035.6457       186650       125874 
37340000    1.0014652  -0.28607181      1728000    3036.4539       186700       125904 
37350000   0.96161519  -0.28709528      1728000    3037.2702       186750       125933 
37360000     1.023646  -0.27887298      1728000    3038.0846       186800       125971 
37370000    1.0285347  -0.27760304      1728000    3038.9148       186850       126002 
37380000   0.99513172  -0.30180453      1728000      3039.73       186900       126035 
37390000    1.0078716   -0.2981558      1728000    3040.5484       186950       126068 
37400000    1.0017481  -0.29005265      1728000    3041.3784       187000       126105 
37410000    1.0008463  -0.30092071      1728000    3042.1915       187050       126139 
37420000    1.0506102  -0.29565453      1728000    3043.0106       187100       126167 
37430000   0.98439771  -0.29373783      1728000    3043.8215       187150       126198 
37440000    1.0084151  -0.29103541      1728000    3044.6424       187200       126240 
37450000   0.98947369  -0.30480796      1728000    3045.4595       187250       126273 
37460000    1.0218655  -0.31032352      1728000    3046.2865       187300       126302 
37470000    1.0185358  -0.30039058      1728000    3047.1095       187350       126333 
37480000   0.95870062  -0.27199812      1728000    3047.9224       187400       126364 
37490000   0.97857136  -0.29675011      1728000    3048.7362       187450       126397 
37500000   0.98806325  -0.27192996      1728000    3049.5605       187500       126431 
37510000       1.0183  -0.26540867      1728000    3050.3875       187550       126468 
37520000   0.97408934  -0.27691531      1728000    3051.1962       187600       126503 
37530000   0.98899136  -0.26223588      1728000    3052.0105       187650       126539 
37540000    1.0482664  -0.27004938      1728000    3052.8197       187700       126568 
37550000    0.9950846  -0.28814216      1728000    3053.6456       187750       126604 
37560000    1.0326354  -0.28240711      1728000    3054.4515       187800       126636 
37570000   0.99951914  -0.27529008      1728000    3055.2623       187850       126668 
37580000   0.93726889  -0.28342768      1728000    3056.0965       187900       126698 
37590000   0.97564895  -0.27387887      1728000    3056.9073       187950       126735 
37600000    1.0493223  -0.27631993      1728000    3057.7302       188000       126770 
37610000    1.0662191  -0.26011128      1728000    3058.5335       188050       126809 
37620000    1.0326087  -0.24697309      1728000    3059.3474       188100       126842 
37630000    1.0624272  -0.26925975      1728000    3060.1616       188150       126873 
37640000    1.0612993  -0.25997016      1728000    3060.9801       188200       126905 
37650000   0.95886413  -0.26025686      1728000    3061.7985       188250       126942 
37660000    1.0107535  -0.24412889      1728000    3062.6124       188300       126979 
37670000    0.9804509  -0.24027613      1728000    3063.4356       188350       127006 
37680000    0.9865381  -0.23855971      1728000    3064.2423       188400       127041 
37690000   0.98576638  -0.25737745      1728000    3065.0604       188450       127073 
37700000   0.98919849  -0.25713594      1728000    3065.8935       188500       127111 
37710000   0.97646817   -0.2505271      1728000    3066.7095       188550       127149 
37720000    1.0243904  -0.24470314      1728000    3067.5374       188600       127186 
37730000   0.97832197  -0.26082566      1728000    3068.3594       188650       127222 
37740000   0.96494917  -0.25963572      1728000    3069.1705       188700       127263 
37750000    1.0238531  -0.25926226      1728000    3069.9833       188750       127299 
37760000   0.94236634  -0.27631779      1728000    3070.8185       188800       127331 
37770000    1.0067905  -0.25855144      1728000    3071.6523       188850       127366 
37780000    1.0675145  -0.27387486      1728000    3072.4609       188900       127396 
37790000   0.98909339  -0.25498139      1728000    3073.2711       188950       127435 
37800000   0.97349335  -0.24336029      1728000    3074.0845       189000       127474 
37810000   0.97374367  -0.23983482      1728000     3074.933       189050       127515 
37820000   0.97767014   -0.2430012      1728000    3075.7615       189100       127554 
37830000   0.99841666  -0.26382147      1728000    3076.6803       189150       127587 
37840000   0.97241382  -0.25465384      1728000    3077.5015       189200       127622 
37850000    1.0454922  -0.26348947      1728000    3078.3282       189250       127655 
37860000    1.0337699  -0.26634273      1728000    3079.1455       189300       127687 
37870000    1.0137012  -0.26231776      1728000    3079.9445       189350       127727 
37880000   0.98155012  -0.24201103      1728000    3080.7524       189400       127769 
37890000    1.0038244  -0.24598467      1728000    3081.5724       189450       127806 
37900000    1.0225864  -0.23959539      1728000    3082.3898       189500       127840 
37910000    1.0205209  -0.23906106      1728000    3083.2023       189550       127873 
37920000    1.0517846  -0.23334997      1728000    3084.0173       189600       127909 
37930000   0.98280226  -0.24090929      1728000    3084.8345       189650       127949 
37940000    1.1106559  -0.24520813      1728000    3085.6532       189700       127988 
37950000    1.1027495   -0.2574084      1728000    3086.4704       189750       128021 
37960000   0.96785611  -0.23626911      1728000    3087.2855       189800       128058 
37970000   0.90825638  -0.24398807      1728000    3088.0995       189850       128094 
37980000    1.0096705  -0.23493995      1728000    3088.9115       189900       128135 
37990000    1.0754993  -0.24141311      1728000    3089.7256       189950       128165 
38000000   0.95042556  -0.25467044      1728000    3090.5444       190000       128201 
38010000     1.073328  -0.25529397      1728000    3091.3665       190050       128236 
38020000    0.9642678  -0.27895838      1728000    3092.2004       190100       128267 
38030000    1.0080364  -0.27141974      1728000    3093.0645       190150       128299 
38040000    1.0083214   -0.2690275      1728000    3093.9226       190200       128326 
38050000   0.99306977  -0.29479815      1728000    3094.7577       190250       128359 
38060000     1.092986  -0.27741602      1728000    3095.6099       190300       128389 
38070000     1.033336  -0.29140923      1728000     3096.454       190350       128417 
38080000    1.0644067  -0.27420736      1728000    3097.2643       190400       128455 
38090000   0.99813866  -0.27444921      1728000    3098.0734       190450       128486 
38100000    0.9723628  -0.28089517      1728000     3098.911       190500       128516 
38110000   0.98262162  -0.27765252      1728000    3099.7531       190550       128547 
38120000    1.0541835  -0.28536335      1728000    3100.5813       190600       128578 
38130000   0.98815121  -0.27797761      1728000    3101.4254       190650       128609 
38140000    1.0109145  -0.28888592      1728000    3102.2326       190700       128641 
38150000    1.0551213  -0.29038638      1728000    3103.0594       190750       128669 
38160000    1.0072482  -0.28315666      1728000    3103.8716       190800       128702 
38170000    1.0454538   -0.2863007      1728000    3104.6877       190850       128736 
38180000   0.99943496  -0.28844407      1728000    3105.5039       190900       128769 
38190000    1.0369981  -0.27559278      1728000      3106.34       190950       128803 
38200000   0.99119546  -0.28607944      1728000    3107.1632       191000       128839 
38210000    1.0006066  -0.28769882      1728000    3107.9794       191050       128870 
38220000   0.96812566  -0.27424193      1728000    3108.8095       191100       128903 
38230000   0.98022412  -0.28684475      1728000    3109.6517       191150       128939 
38240000    1.0010336  -0.30527483      1728000    3110.4678       191200       128969 
38250000   0.99621082  -0.28701894      1728000      3111.28       191250       129005 
38260000    1.0400092  -0.28698626      1728000    3112.1041       191300       129037 
38270000   0.98779507  -0.29784267      1728000    3112.9065       191350       129066 
38280000    1.0393679  -0.29758681      1728000    3113.7166       191400       129099 
38290000    1.0326953  -0.30866716      1728000    3114.5206       191450       129133 
38300000    1.0251085  -0.31830288      1728000    3115.3476       191500       129159 
38310000   0.97000666  -0.34190075      1728000    3116.1855       191550       129187 
38320000    1.0071021   -0.3347958      1728000    3117.0028       191600       129212 
38330000    1.0948523  -0.33182611      1728000    3117.8248       191650       129243 
38340000   0.96501487  -0.33223281      1728000    3118.6375       191700       129275 
38350000   0.93287129  -0.31238742      1728000    3119.4483       191750       129312 
38360000    1.0178535  -0.29883509      1728000    3120.2555       191800       129344 
38370000    1.0734009  -0.27153093      1728000    3121.0666       191850       129385 
38380000    1.0375408  -0.29793038      1728000    3121.8937       191900       129421 
38390000    1.0333258  -0.27338509      1728000    3122.7025       191950       129457 
38400000   0.98834964  -0.27711663      1728000    3123.5135       192000       129496 
38410000     1.028349  -0.29892339      1728000    3124.3247       192050       129530 
38420000    1.0016362  -0.28872913      1728000    3125.1389       192100       129560 
38430000    1.0163027  -0.28137106      1728000    3125.9501       192150       129592 
38440000    1.0237848  -0.27555906      1728000    3126.7625       192200       129621 
38450000   0.98552221   -0.2744914      1728000    3127.5704       192250       129656 
38460000   0.96678758  -0.26864145      1728000    3128.3767       192300       129688 
38470000   0.93952421  -0.27748016      1728000    3129.1886       192350       129724 
38480000   0.99301118  -0.26714728      1728000    3130.0235       192400       129758 
38490000   0.96359708  -0.27668915      1728000    3130.8665       192450       129795 
38500000   0.95061768  -0.27337847      1728000    3131.6858       192500       129822 
38510000    1.0128285  -0.27128575      1728000    3132.4843       192550       129856 
38520000   0.98352458  -0.27157957      1728000    3133.2773       192600       129889 
38530000   0.95211138  -0.25699565      1728000    3134.1087       192650       129917 
38540000   0.99089665  -0.25273414      1728000    3134.9467       192700       129950 
38550000   0.95899291  -0.26323933      1728000    3135.7682       192750       129988 
38560000    1.0470078  -0.27358645      1728000    3136.6024       192800       130023 
38570000   0.98011301  -0.26415145      1728000     3137.423       192850       130057 
38580000     1.022554  -0.27449615      1728000    3138.2391       192900       130089 
38590000    1.0125613  -0.27128658      1728000    3139.0432       192950       130126 
38600000   0.96066108   -0.2640717      1728000    3139.8566       193000       130165 
38610000    0.9815882  -0.28466065      1728000    3140.6631       193050       130203 
38620000   0.97541749  -0.28110642      1728000    3141.4785       193100       130232 
38630000   0.94961355  -0.30312476      1728000    3142.2885       193150       130269 
38640000    0.9659526  -0.27971681      1728000    3143.0996       193200       130298 
38650000   0.99361899  -0.26153647      1728000    3143.9146       193250       130332 
38660000   0.99908505  -0.26111756      1728000     3144.708       193300       130371 
38670000    1.0157316  -0.27011897      1728000    3145.5066       193350       130400 
38680000   0.95865247  -0.27959663      1728000    3146.3498       193400       130439 
38690000    1.0212298  -0.27719198      1728000    3147.1769       193450       130474 
38700000    1.0607969  -0.28677265      1728000    3148.0047       193500       130506 
38710000    0.9220885  -0.28400874      1728000    3148.8084       193550       130543 
38720000   0.98329049   -0.2719769      1728000    3149.6056       193600       130577 
38730000   0.99119151   -0.2723883      1728000    3150.4125       193650       130614 
38740000    1.0076678  -0.27198394      1728000    3151.2159       193700       130648 
38750000    1.0265857  -0.27493694      1728000    3152.0166       193750       130683 
38760000   0.96641763  -0.27009678      1728000    3152.8125       193800       130712 
38770000   0.99477411  -0.26299116      1728000    3153.6217       193850       130745 
38780000   0.97983325  -0.25146538      1728000    3154.4287       193900       130780 
38790000    1.0097228  -0.26715039      1728000    3155.2527       193950       130819 
38800000   0.99329266  -0.25841855      1728000    3156.0627       194000       130848 
38810000    1.0032385  -0.26622886      1728000    3156.8607       194050       130877 
38820000    1.0159426   -0.2528326      1728000    3157.6783       194100       130920 
38830000     1.031627  -0.27701312      1728000    3158.4915       194150       130952 
38840000    1.0505298  -0.26989457      1728000    3159.2935       194200       130988 
38850000   0.95142613  -0.26409906      1728000    3160.1046       194250       131014 
38860000   0.92531043  -0.25142213      1728000     3160.912       194300       131049 
38870000    1.0664075  -0.26621101      1728000    3161.7093       194350       131084 
38880000    1.0541248  -0.26465181      1728000    3162.5215       194400       131118 
38890000    1.0169445  -0.25610453      1728000    3163.3277       194450       131149 
38900000    1.0006989  -0.25165952      1728000    3164.1377       194500       131185 
38910000     1.056408   -0.2507744      1728000    3164.9366       194550       131222 
38920000      1.00842  -0.25021414      1728000    3165.7275       194600       131257 
38930000    1.0661088  -0.26599641      1728000     3166.521       194650       131292 
38940000   0.98647857   -0.2470063      1728000    3167.3284       194700       131326 
38950000   0.96609636  -0.24500051      1728000    3168.1236       194750       131357 
38960000    1.0182436  -0.22497831      1728000    3168.9088       194800       131398 
38970000     1.011088  -0.24738414      1728000    3169.6966       194850       131435 
38980000   0.97174843  -0.25017394      1728000    3170.5007       194900       131466 
38990000     1.028722   -0.2669006      1728000    3171.2986       194950       131498 
39000000   0.98861189  -0.25589702      1728000    3172.1166       195000       131537 
39010000    1.0023259  -0.26315022      1728000    3172.9127       195050       131573 
39020000   0.95150534  -0.27564921      1728000    3173.7136       195100       131606 
39030000    1.0625748  -0.26230939      1728000    3174.5103       195150       131642 
39040000   0.97298927  -0.26627228      1728000    3175.3041       195200       131674 
39050000   0.98055235  -0.25791519      1728000    3176.0995       195250       131707 
39060000   0.94262712   -0.2638336      1728000    3176.9004       195300       131739 
39070000     1.031417  -0.28541882      1728000    3177.7176       195350       131777 
39080000   0.96894967  -0.28538635      1728000    3178.5206       195400       131818 
39090000   0.95283993  -0.29063513      1728000    3179.3185       195450       131855 
39100000    1.0644194  -0.29424634      1728000    3180.1298       195500       131889 
39110000    1.0314758  -0.30160908      1728000    3180.9383       195550       131922 
39120000    1.0488709  -0.28988019      1728000    3181.7447       195600       131960 
39130000   0.98484857  -0.30163755      1728000    3182.5436       195650       131995 
39140000   0.95354014  -0.27444289      1728000    3183.3505       195700       132030 
39150000   0.98300432  -0.30062721      1728000    3184.1546       195750       132060 
39160000   0.99624814  -0.29690783      1728000    3184.9663       195800       132094 
39170000   0.99350115  -0.30132348      1728000    3185.7716       195850       132126 
39180000    1.0099115  -0.29253469      1728000    3186.5657       195900       132156 
39190000     1.015576  -0.29800021      1728000    3187.3477       195950       132188 
39200000   0.99320161  -0.29003624      1728000    3188.1368       196000       132223 
39210000   0.96668101   -0.2877526      1728000    3188.9268       196050       132252 
39220000   0.97559218  -0.30754474      1728000    3189.7135       196100       132282 
39230000   0.96458866  -0.27772405      1728000    3190.4966       196150       132312 
39240000    1.0637546  -0.28958461      1728000    3191.2905       196200       132343 
39250000   0.95935163  -0.26583408      1728000    3192.0956       196250       132378 
39260000    1.0253418  -0.28095866      1728000    3192.8948       196300       132413 
39270000   0.97884134  -0.28348424      1728000    3193.6716       196350       132445 
39280000     0.968529  -0.27434916      1728000    3194.4517       196400       132479 
39290000    1.0527448  -0.28243677      1728000    3195.2757       196450       132510 
39300000    0.9997135  -0.28687022      1728000    3196.0887       196500       132543 
39310000   0.99737205  -0.26468793      1728000    3196.8835       196550       132570 
39320000    1.0109663  -0.27303001      1728000    3197.6867       196600       132597 
39330000    1.0295287   -0.2688734      1728000    3198.4796       196650       132637 
39340000   0.98203538  -0.26267624      1728000    3199.2636       196700       132676 
39350000    1.0241987  -0.27068843      1728000    3200.0535       196750       132715 
39360000   0.98232101  -0.26746327      1728000    3200.8523       196800       132752 
39370000    1.0070789  -0.27095299      1728000    3201.6469       196850       132784 
39380000    1.0461968  -0.25207588      1728000    3202.4437       196900       132820 
39390000    1.0424535  -0.24688972      1728000    3203.2405       196950       132852 
39400000    1.0441494  -0.25518925      1728000    3204.0437       197000       132890 
39410000   0.98375105  -0.25823967      1728000    3204.8374       197050       132927 
39420000    1.0062091  -0.25241638      1728000    3205.6405       197100       132953 
39430000   0.96513297   -0.2603384      1728000    3206.4665       197150       132993 
39440000    1.0019416  -0.26116654      1728000    3207.2748       197200       133035 
39450000    1.0237485  -0.25079774      1728000    3208.1241       197250       133068 
39460000   0.98422299  -0.25410668      1728000    3209.0062       197300       133098 
39470000   0.99572329  -0.28472702      1728000    3209.8682       197350       133132 
39480000     1.004303  -0.26732154      1728000    3210.7483       197400       133163 
39490000   0.99047612  -0.26513032      1728000    3211.6434       197450       133193 
39500000   0.96011664  -0.25450459      1728000    3212.5606       197500       133227 
39510000    1.0151002  -0.26781467      1728000    3213.3826       197550       133261 
39520000    1.0828434  -0.26812653      1728000    3214.2596       197600       133299 
39530000   0.97948006  -0.26928008      1728000    3215.1046       197650       133333 
39540000   0.98949104  -0.26399088      1728000    3215.9407       197700       133365 
39550000    1.0390608  -0.26129733      1728000    3216.7666       197750       133396 
39560000    1.0473578  -0.27508585      1728000    3217.6077       197800       133435 
39570000    1.0059697  -0.27926746      1728000    3218.4977       197850       133474 
39580000   0.90952458  -0.28036756      1728000    3219.3026       197900       133505 
39590000    1.0047426    -0.281371      1728000    3220.1065       197950       133537 
39600000   0.93876558  -0.27543138      1728000    3220.9527       198000       133570 
39610000    1.0353078  -0.27234493      1728000    3221.7555       198050       133601 
39620000    1.0114608  -0.27864529      1728000    3222.5436       198100       133638 
39630000   0.98481017  -0.26617317      1728000    3223.3409       198150       133675 
39640000    0.9918989  -0.27651728      1728000    3224.1625       198200       133712 
39650000   0.96622105  -0.28062196      1728000    3224.9662       198250       133751 
39660000    1.0016294  -0.29133401      1728000    3225.7673       198300       133778 
39670000    1.0268465  -0.29051311      1728000    3226.5857       198350       133811 
39680000    1.0242273  -0.29432739      1728000    3227.3935       198400       133844 
39690000     0.988255  -0.28419987      1728000    3228.2055       198450       133885 
39700000    1.0114521  -0.29179078      1728000    3229.0277       198500       133915 
39710000   0.94089153  -0.27819851      1728000    3229.8357       198550       133949 
39720000   0.99201737  -0.28201873      1728000    3230.6456       198600       133988 
39730000    1.0570645  -0.27625523      1728000    3231.4408       198650       134025 
39740000    1.0248674  -0.27708275      1728000    3232.2424       198700       134058 
39750000   0.95899117  -0.27553506      1728000    3233.0536       198750       134093 
39760000   0.99158595  -0.25904581      1728000    3233.8648       198800       134126 
39770000   0.96835956   -0.2631777      1728000    3234.6697       198850       134164 
39780000    1.0385361  -0.26160136      1728000    3235.4687       198900       134198 
39790000   0.99069191  -0.25907271      1728000    3236.2985       198950       134232 
39800000    1.0137173  -0.27933198      1728000    3237.1085       199000       134264 
39810000    1.0452488  -0.28156159      1728000    3237.9114       199050       134294 
39820000    1.0291368  -0.29063195      1728000    3238.7177       199100       134325 
39830000   0.95407967  -0.27328554      1728000    3239.5126       199150       134364 
39840000   0.99335458  -0.27375134      1728000    3240.3076       199200       134401 
39850000    0.9764187  -0.26004842      1728000    3241.1456       199250       134435 
39860000    1.0002548  -0.25135966      1728000    3241.9316       199300       134469 
39870000   0.97539147  -0.23452951      1728000    3242.7139       199350       134503 
39880000   0.97151453  -0.27389423      1728000    3243.5076       199400       134538 
39890000    1.0522338  -0.27499154      1728000    3244.2998       199450       134573 
39900000    1.0594533  -0.27617818      1728000    3245.1076       199500       134608 
39910000    1.0238465  -0.27084787      1728000    3245.9514       199550       134639 
39920000    1.0119767  -0.26693095      1728000    3246.7496       199600       134672 
39930000   0.97765742  -0.26823492      1728000    3247.5528       199650       134708 
39940000   0.96312932  -0.26847321      1728000    3248.3557       199700       134739 
39950000    1.0109964   -0.2547998      1728000    3249.1707       199750       134773 
39960000   0.99819206  -0.25360776      1728000    3249.9718       199800       134799 
39970000    1.0616646  -0.27006124      1728000    3250.7727       199850       134833 
39980000    1.0439461   -0.2513835      1728000    3251.5768       199900       134867 
39990000   0.99743636  -0.26438173      1728000    3252.3705       199950       134908 
40000000    1.0274619  -0.26087171      1728000    3253.2063       200000       134943 
40010000    1.0128556  -0.25526636      1728000    3254.0106       200050       134973 
40020000    1.0059579  -0.25123657      1728000    3254.8097       200100       135003 
40030000    1.0067121  -0.26199376      1728000    3255.6205       200150       135037 
40040000    1.0243784  -0.26726445      1728000    3256.4246       200200       135070 
40050000    1.0065562  -0.27093875      1728000    3257.2187       200250       135103 
40060000    1.0004173  -0.25392918      1728000    3258.0055       200300       135134 
40070000   0.92932554  -0.26214373      1728000    3258.7938       200350       135162 
40080000    1.0446662  -0.26128804      1728000    3259.5896       200400       135195 
40090000    1.0007567  -0.27610369      1728000    3260.3826       200450       135233 
40100000   0.99979991  -0.29985253      1728000    3261.1945       200500       135264 
40110000   0.94766173   -0.2913698      1728000     3261.996       200550       135301 
40120000   0.97000172   -0.3093794      1728000      3262.82       200600       135333 
40130000    1.0361413  -0.30303057      1728000    3263.6247       200650       135370 
40140000     1.002513  -0.30927556      1728000    3264.4247       200700       135406 
40150000   0.99577436  -0.31798469      1728000    3265.2378       200750       135434 
40160000   0.99996813  -0.31657286      1728000    3266.0506       200800       135463 
40170000    1.0460838  -0.32275135      1728000    3266.8657       200850       135498 
40180000    1.0083886  -0.30938138      1728000    3267.6687       200900       135532 
40190000    1.0507189  -0.29200202      1728000    3268.4657       200950       135570 
40200000   0.94587933  -0.28834557      1728000    3269.2955       201000       135604 
40210000    1.0495456  -0.28227253      1728000    3270.1027       201050       135637 
40220000     1.002769  -0.27817499      1728000    3270.9205       201100       135670 
40230000   0.93559728  -0.29309029      1728000    3271.7457       201150       135704 
40240000   0.96075876  -0.29961569      1728000    3272.5558       201200       135739 
40250000    1.0280456  -0.28753478      1728000    3273.3677       201250       135769 
40260000    1.0149634  -0.28957227      1728000    3274.1875       201300       135803 
40270000    1.0117137  -0.26752713      1728000    3275.0221       201350       135831 
40280000    1.0281522  -0.29108342      1728000    3275.8365       201400       135868 
40290000    1.0514669  -0.28669731      1728000    3276.6377       201450       135903 
40300000   0.97457147  -0.29851834      1728000    3277.4357       201500       135936 
40310000     1.049669  -0.29842291      1728000    3278.2247       201550       135973 
40320000    1.0095957  -0.29790862      1728000    3279.0127       201600       136007 
40330000    1.0728551  -0.28426456      1728000    3279.8192       201650       136036 
40340000    1.0062571  -0.26370519      1728000    3280.6356       201700       136070 
40350000   0.97339654  -0.27816316      1728000    3281.4328       201750       136104 
40360000   0.92374699  -0.26299008      1728000    3282.2348       201800       136133 
40370000   0.98573993   -0.2741009      1728000    3283.0516       201850       136167 
40380000   0.98351079    -0.290484      1728000    3283.8404       201900       136198 
40390000    1.0404516  -0.26173396      1728000      3284.63       201950       136237 
40400000   0.98350788  -0.27768777      1728000    3285.4393       202000       136271 
40410000    1.0238618  -0.27591334      1728000    3286.2424       202050       136301 
40420000     1.102914  -0.27410196      1728000    3287.0367       202100       136331 
40430000   0.98880956  -0.27985762      1728000    3287.8415       202150       136366 
40440000   0.94821222  -0.30274506      1728000    3288.6427       202200       136400 
40450000    1.0021131   -0.3022541      1728000    3289.4467       202250       136434 
40460000    1.0294498  -0.26924903      1728000    3290.2397       202300       136472 
40470000    1.0461702  -0.26354749      1728000    3291.0467       202350       136499 
40480000    1.0390958   -0.2643542      1728000    3291.8576       202400       136534 
40490000     1.017666  -0.27826072      1728000    3292.6657       202450       136568 
40500000    1.0381916   -0.2766131      1728000    3293.4927       202500       136597 
40510000   0.96907347   -0.2730102      1728000    3294.3078       202550       136633 
40520000    1.0475968  -0.28352986      1728000    3295.1275       202600       136665 
40530000   0.98558196  -0.26373319      1728000    3295.9346       202650       136698 
40540000    1.0570495  -0.25269509      1728000    3296.7356       202700       136733 
40550000     1.053438  -0.25148086      1728000    3297.5449       202750       136765 
40560000    1.0039339  -0.24174371      1728000    3298.3425       202800       136794 
40570000   0.89937588   -0.2468668      1728000    3299.1386       202850       136829 
40580000   0.94016689  -0.24532873      1728000    3299.9464       202900       136862 
40590000   0.96383272  -0.24649108      1728000    3300.7426       202950       136896 
40600000    1.0536352  -0.26001888      1728000    3301.5367       203000       136935 
40610000   0.94705826  -0.25720994      1728000    3302.3178       203050       136974 
40620000    1.0276312  -0.24115267      1728000    3303.1065       203100       137009 
40630000    0.9693859  -0.25425074      1728000    3303.9328       203150       137040 
40640000    1.0046483  -0.24831162      1728000    3304.7401       203200       137074 
40650000   0.94010492  -0.26190452      1728000    3305.5648       203250       137109 
40660000    0.9859809  -0.27073118      1728000    3306.3717       203300       137141 
40670000   0.96351335  -0.25678891      1728000    3307.1608       203350       137175 
40680000   0.99068713  -0.25742125      1728000    3307.9526       203400       137207 
40690000    1.0006383  -0.25757363      1728000    3308.7617       203450       137246 
40700000    1.0066278  -0.26870739      1728000    3309.5737       203500       137283 
40710000   0.99868908  -0.25508161      1728000    3310.3738       203550       137312 
40720000    1.0383658  -0.25883496      1728000    3311.2061       203600       137346 
40730000     1.002587  -0.24440754      1728000     3312.002       203650       137382 
40740000   0.99087551  -0.26381556      1728000    3312.7977       203700       137415 
40750000   0.98324183  -0.26221514      1728000    3313.5807       203750       137446 
40760000    1.0098668  -0.27007397      1728000    3314.3645       203800       137485 
40770000    0.9621116  -0.24106225      1728000    3315.1578       203850       137521 
40780000   0.96288878  -0.26248574      1728000    3315.9477       203900       137554 
40790000   0.93491862  -0.26214414      1728000    3316.8157       203950       137584 
40800000    1.0231191  -0.24033805      1728000    3317.6037       204000       137617 
40810000   0.95023195    -0.254818      1728000    3318.3961       204050       137645 
40820000    0.9956689  -0.26800228      1728000    3319.1866       204100       137680 
40830000    1.0289352  -0.26220235      1728000    3319.9808       204150       137718 
40840000   0.98172071  -0.25172233      1728000    3320.8023       204200       137752 
40850000   0.94296185  -0.25662241      1728000    3321.6027       204250       137793 
40860000   0.97585402  -0.23712573      1728000      3322.39       204300       137830 
40870000   0.99925722  -0.22121092      1728000    3323.1717       204350       137868 
40880000    1.0709246  -0.22496233      1728000    3323.9725       204400       137899 
40890000    1.0382429  -0.22791309      1728000    3324.8371       204450       137928 
40900000    1.1030123  -0.23634886      1728000     3325.678       204500       137965 
40910000    0.9487272  -0.22380579      1728000    3326.4676       204550       137999 
40920000    1.0301979  -0.23527201      1728000    3327.2538       204600       138036 
40930000    1.0256939  -0.23193456      1728000    3328.0432       204650       138069 
40940000    1.0285098   -0.2398344      1728000    3328.8358       204700       138105 
40950000    1.0204137  -0.26212445      1728000     3329.659       204750       138136 
40960000   0.98474201   -0.2647971      1728000    3330.4658       204800       138172 
40970000   0.95826339  -0.26060415      1728000    3331.2739       204850       138204 
40980000    1.0137414    -0.253376      1728000    3332.0908       204900       138237 
40990000    1.0238852  -0.25131952      1728000    3332.8847       204950       138268 
41000000    1.0180035  -0.24909591      1728000    3333.6968       205000       138300 
41010000   0.99064397  -0.25109629      1728000    3334.5078       205050       138327 
41020000   0.95521306  -0.24209829      1728000    3335.3187       205100       138366 
41030000    1.0005546  -0.23516585      1728000    3336.1198       205150       138404 
41040000   0.99989278  -0.22231173      1728000    3336.9356       205200       138440 
41050000    1.0490454  -0.24701913      1728000    3337.7317       205250       138480 
41060000   0.97546378   -0.2429837      1728000    3338.5215       205300       138515 
41070000    1.0482169  -0.24749882      1728000    3339.3177       205350       138550 
41080000   0.94926236  -0.23663002      1728000    3340.1348       205400       138585 
41090000    1.0224409  -0.23963084      1728000    3340.9277       205450       138624 
41100000   0.99430188  -0.23701053      1728000    3341.7327       205500       138655 
41110000   0.98793119  -0.24090018      1728000    3342.5428       205550       138688 
41120000    1.0577236  -0.20928546      1728000    3343.3347       205600       138720 
41130000    1.0666318  -0.25566264      1728000    3344.1268       205650       138756 
41140000    1.0007302  -0.24604133      1728000    3344.9378       205700       138795 
41150000   0.98638515   -0.2665076      1728000    3345.7278       205750       138831 
41160000   0.97465652  -0.24980723      1728000    3346.5158       205800       138870 
41170000    1.0216839  -0.24015255      1728000    3347.2957       205850       138903 
41180000    0.9531827  -0.21967988      1728000    3348.1001       205900       138942 
41190000   0.97661635  -0.22756642      1728000    3348.8903       205950       138970 
41200000   0.95961495  -0.22674309      1728000    3349.6815       206000       139003 
41210000   0.95782754  -0.23220096      1728000     3350.454       206050       139037 
41220000    1.0088207  -0.23582693      1728000    3351.2396       206100       139074 
41230000   0.99813151  -0.23754319      1728000    3352.0257       206150       139106 
41240000    1.0213846   -0.2578238      1728000    3352.8218       206200       139148 
41250000    1.0068433  -0.26493758      1728000    3353.6128       206250       139184 
41260000    1.0166403  -0.25583329      1728000    3354.3962       206300       139217 
41270000   0.96636748  -0.24882166      1728000    3355.2038       206350       139250 
41280000    1.0626714  -0.27286642      1728000    3355.9888       206400       139283 
41290000    1.0543104   -0.2599816      1728000    3356.7708       206450       139314 
41300000    1.0295495  -0.25356365      1728000    3357.5798       206500       139347 
41310000   0.98231622  -0.26032826      1728000    3358.3758       206550       139383 
41320000    1.0060803  -0.25287537      1728000    3359.1686       206600       139416 
41330000    1.0101188   -0.2383282      1728000    3359.9578       206650       139447 
41340000    1.0086888  -0.24559908      1728000    3360.7538       206700       139479 
41350000   0.96144622   -0.2506187      1728000    3361.5458       206750       139508 
41360000   0.96479874  -0.27522614      1728000    3362.3357       206800       139549 
41370000   0.95058006  -0.28275237      1728000    3363.1279       206850       139581 
41380000   0.96247264  -0.28340792      1728000    3363.9088       206900       139613 
41390000   0.94910186  -0.26452346      1728000    3364.7027       206950       139647 
41400000    1.0102297  -0.27873254      1728000    3365.4928       207000       139683 
41410000   0.92005181    -0.274324      1728000     3366.311       207050       139716 
41420000     1.019793  -0.29236965      1728000    3367.0937       207100       139747 
41430000    1.0168005  -0.28397144      1728000    3367.8788       207150       139782 
41440000   0.98931953  -0.27792766      1728000    3368.6646       207200       139812 
41450000    1.0695877    -0.265942      1728000    3369.4548       207250       139844 
41460000   0.93939478  -0.28311054      1728000    3370.2429       207300       139886 
41470000   0.96722095  -0.29166412      1728000    3371.0497       207350       139917 
41480000   0.99417017  -0.27802862      1728000    3371.8398       207400       139947 
41490000   0.95099796  -0.30655618      1728000    3372.6258       207450       139981 
41500000   0.95664824  -0.29471982      1728000    3373.4267       207500       140017 
41510000   0.99603207  -0.27018158      1728000    3374.2178       207550       140045 
41520000     1.042939   -0.2892561      1728000    3375.0106       207600       140078 
41530000    1.0181478  -0.28573955      1728000    3375.8018       207650       140109 
41540000    1.0043847  -0.27880431      1728000    3376.5968       207700       140147 
41550000     1.012856  -0.26249693      1728000    3377.3948       207750       140183 
41560000    1.0740005  -0.27284739      1728000    3378.1969       207800       140221 
41570000    1.0147965  -0.26966597      1728000    3378.9936       207850       140255 
41580000   0.98857717  -0.25170837      1728000    3379.7947       207900       140285 
41590000    1.0208866  -0.26180382      1728000    3380.5848       207950       140320 
41600000    1.0594064  -0.26227862      1728000    3381.3959       208000       140349 
41610000    1.0739473  -0.27561564      1728000    3382.2057       208050       140392 
41620000    1.0504506  -0.28329638      1728000    3383.0128       208100       140425 
41630000    1.0213949  -0.28154752      1728000    3383.8449       208150       140464 
41640000   0.91496164  -0.26684039      1728000    3384.6525       208200       140493 
41650000   0.98666052  -0.28273712      1728000     3385.448       208250       140525 
41660000    1.0063561  -0.29219887      1728000    3386.2556       208300       140561 
41670000    1.0073316  -0.30076348      1728000    3387.0858       208350       140593 
41680000    1.0212287  -0.27817015      1728000    3387.9067       208400       140627 
41690000    1.0133807  -0.29184502      1728000    3388.7283       208450       140657 
41700000    1.0171878  -0.27956132      1728000    3389.5519       208500       140689 
41710000    1.0190511  -0.28294913      1728000    3390.3681       208550       140723 
41720000    1.0350787  -0.26181639      1728000    3391.1725       208600       140747 
41730000   0.94142864  -0.28506502      1728000    3391.9959       208650       140784 
41740000     1.001645  -0.27751909      1728000    3392.8036       208700       140806 
41750000   0.95755675  -0.29680081      1728000    3393.6196       208750       140838 
41760000    1.0912242  -0.27549404      1728000    3394.4416       208800       140872 
41770000    1.0427149   -0.2596964      1728000    3395.2771       208850       140908 
41780000    1.0733877   -0.2712099      1728000    3396.0991       208900       140938 
41790000   0.99280281  -0.25744608      1728000    3396.9607       208950       140973 
41800000   0.99036362  -0.28075275      1728000    3397.7789       209000       141010 
41810000    1.0393884  -0.27515035      1728000    3398.5813       209050       141048 
41820000    1.0444902  -0.29011001      1728000    3399.4006       209100       141076 
41830000    1.0326145  -0.31385639      1728000    3400.2139       209150       141104 
41840000    1.0049105  -0.30094272      1728000    3401.0136       209200       141136 
41850000   0.93941854  -0.29876612      1728000    3401.8111       209250       141163 
41860000    1.0329136  -0.30171882      1728000    3402.6133       209300       141192 
41870000    1.0553636  -0.29376104      1728000    3403.4277       209350       141223 
41880000    1.0106295  -0.26874947      1728000    3404.2249       209400       141249 
41890000   0.90821656  -0.26283656      1728000    3405.0198       209450       141282 
41900000    1.0524499  -0.28549556      1728000    3405.8167       209500       141320 
41910000    1.0238359  -0.28240666      1728000    3406.6258       209550       141353 
41920000    1.0229055  -0.29183722      1728000    3407.4595       209600       141381 
41930000    1.0663538   -0.2885213      1728000    3408.3116       209650       141411 
41940000    1.0439953  -0.28548102      1728000    3409.1319       209700       141445 
41950000    1.0142771  -0.28104241      1728000    3409.9381       209750       141480 
41960000    0.9775735  -0.28236238      1728000    3410.7398       209800       141508 
41970000    1.0369421  -0.29373979      1728000    3411.5395       209850       141543 
41980000    1.1189627  -0.30830323      1728000    3412.3731       209900       141576 
41990000    0.9979826  -0.30752481      1728000    3413.1858       209950       141612 
42000000    1.0256147  -0.29239847      1728000    3413.9914       210000       141649 
42010000    1.0035939  -0.30547656      1728000    3414.7859       210050       141680 
42020000   0.95684061  -0.29431532      1728000    3415.5808       210100       141708 
42030000   0.97389113  -0.29853081      1728000    3416.3779       210150       141739 
42040000    1.0220375  -0.28160941      1728000     3417.169       210200       141772 
42050000    1.0291491  -0.28926425      1728000    3417.9748       210250       141803 
42060000    1.0397987  -0.27365463      1728000    3418.7868       210300       141836 
42070000   0.95641537  -0.27062207      1728000    3419.5968       210350       141875 
42080000    0.9997174  -0.30628393      1728000    3420.4268       210400       141915 
42090000   0.98362295  -0.27838568      1728000    3421.2549       210450       141949 
42100000    0.9514347  -0.27543176      1728000    3422.0458       210500       141985 
42110000   0.99256346  -0.27880938      1728000    3422.8318       210550       142021 
42120000   0.99788061  -0.26820359      1728000    3423.6208       210600       142057 
42130000   0.97808593  -0.28526617      1728000    3424.4149       210650       142092 
42140000    0.9847136  -0.29853536      1728000    3425.2019       210700       142131 
42150000    1.0032432  -0.27562232      1728000    3425.9938       210750       142163 
42160000   0.98751367  -0.27114101      1728000    3426.7889       210800       142199 
42170000   0.99657616  -0.28558008      1728000    3427.5738       210850       142237 
42180000   0.92816334  -0.30020295      1728000    3428.3629       210900       142279 
42190000     1.004868   -0.2916965      1728000    3429.1609       210950       142309 
42200000    1.0492406  -0.27780306      1728000    3429.9628       211000       142337 
42210000    1.0327984  -0.28550343      1728000    3430.7779       211050       142380 
42220000   0.97883034  -0.29251525      1728000    3431.5938       211100       142407 
42230000    1.0239749  -0.27436474      1728000    3432.4089       211150       142438 
42240000    1.0532061  -0.27723197      1728000    3433.2037       211200       142471 
42250000    0.9232929  -0.25969584      1728000    3434.0019       211250       142507 
42260000    1.0067275  -0.25548898      1728000    3434.8009       211300       142538 
42270000    0.9342473  -0.27481099      1728000    3435.6467       211350       142577 
42280000    1.0550265  -0.27088976      1728000    3436.4507       211400       142609 
42290000   0.96835304  -0.27320361      1728000    3437.2585       211450       142648 
42300000     1.073997  -0.26881501      1728000    3438.0697       211500       142679 
42310000   0.99603005  -0.26650366      1728000    3438.8769       211550       142714 
42320000    1.0977921   -0.2733833      1728000    3439.6818       211600       142749 
42330000   0.96563301  -0.28172912      1728000    3440.4816       211650       142785 
42340000   0.98403927  -0.29801904      1728000     3441.285       211700       142821 
42350000    1.0392019  -0.29005543      1728000    3442.1028       211750       142856 
42360000    1.0143741  -0.29741809      1728000     3442.895       211800       142888 
42370000    1.0400804  -0.28588834      1728000    3443.7152       211850       142917 
42380000    1.0402585  -0.27937771      1728000    3444.5193       211900       142953 
42390000   0.91892341  -0.29354704      1728000    3445.3197       211950       142990 
42400000   0.97532768  -0.27858442      1728000    3446.1248       212000       143021 
42410000    1.0307015  -0.28290166      1728000    3446.9169       212050       143055 
42420000   0.96380675  -0.27921633      1728000    3447.7207       212100       143095 
42430000    1.0152341  -0.29381266      1728000    3448.5176       212150       143132 
42440000   0.97028982  -0.28894919      1728000    3449.3028       212200       143159 
42450000   0.98724419  -0.31685953      1728000    3450.0902       212250       143183 
42460000    0.9265534  -0.30062711      1728000    3450.8821       212300       143215 
42470000   0.99148717   -0.3169835      1728000    3451.6965       212350       143248 
42480000     1.008531  -0.30371453      1728000    3452.4919       212400       143278 
42490000   0.90114167  -0.31385362      1728000    3453.2911       212450       143310 
42500000    1.0310914  -0.29406331      1728000     3454.115       212500       143344 
42510000    1.0030747  -0.30361896      1728000    3454.9187       212550       143375 
42520000   0.94791311  -0.29754476      1728000    3455.7199       212600       143409 
42530000   0.91519851  -0.28026097      1728000    3456.5208       212650       143442 
42540000   0.96245158  -0.26919885      1728000    3457.3239       212700       143476 
42550000    1.0294712  -0.28022587      1728000    3458.1269       212750       143510 
42560000    1.0056582  -0.27611256      1728000    3458.9347       212800       143551 
42570000   0.96964194   -0.2723368      1728000    3459.7438       212850       143583 
42580000   0.96240013  -0.27070271      1728000    3460.5539       212900       143614 
42590000   0.97140297  -0.25386249      1728000     3461.346       212950       143651 
42600000    1.0714671  -0.24370354      1728000    3462.1428       213000       143685 
42610000   0.98410581  -0.26718961      1728000    3462.9398       213050       143721 
42620000    1.0798708  -0.28212645      1728000     3463.743       213100       143755 
42630000   0.99114233  -0.25000327      1728000     3464.559       213150       143786 
42640000    1.1026261  -0.24815395      1728000    3465.3608       213200       143824 
42650000    1.0638194  -0.25492677      1728000    3466.1781       213250       143860 
42660000   0.98829356  -0.25735251      1728000    3467.0533       213300       143898 
42670000    1.0377509  -0.25236506      1728000    3467.8419       213350       143932 
42680000   0.99109078  -0.24644206      1728000     3468.655       213400       143967 
42690000   0.99357902  -0.23780875      1728000    3469.4549       213450       144006 
42700000   0.98950561   -0.2317625      1728000      3470.28       213500       144045 
42710000    1.0197608  -0.22091065      1728000     3471.082       213550       144084 
42720000   0.94297273  -0.24393854      1728000    3471.8879       213600       144118 
42730000    1.0152761  -0.21418015      1728000    3472.7109       213650       144146 
42740000     1.013081  -0.24281876      1728000     3473.505       213700       144178 
42750000   0.99527662  -0.24967494      1728000    3474.2908       213750       144213 
42760000   0.96630851  -0.22923593      1728000    3475.0908       213800       144245 
42770000    1.0658068  -0.24290383      1728000    3475.9459       213850       144279 
42780000    1.0018748  -0.26046336      1728000    3476.7757       213900       144320 
42790000   0.97668285  -0.26007544      1728000    3477.5717       213950       144356 
42800000    1.0547306  -0.24703593      1728000    3478.4088       214000       144392 
42810000   0.98723349  -0.25231929      1728000     3479.209       214050       144424 
42820000    1.0272244  -0.26054629      1728000    3480.0037       214100       144461 
42830000     1.067815   -0.2377522      1728000     3480.809       214150       144501 
42840000   0.99802958  -0.27324362      1728000    3481.6149       214200       144540 
42850000   0.97688944  -0.25740989      1728000    3482.4128       214250       144577 
42860000    1.0529876   -0.2556938      1728000    3483.2249       214300       144613 
42870000    1.0312884  -0.25829946      1728000    3484.0328       214350       144643 
42880000    1.0052359  -0.27329994      1728000    3484.8329       214400       144677 
42890000   0.95293928  -0.25092269      1728000     3485.629       214450       144711 
42900000   0.97676318  -0.22256705      1728000    3486.4448       214500       144749 
42910000    1.0025846   -0.2316984      1728000    3487.2777       214550       144789 
42920000    1.0000251   -0.2297164      1728000    3488.0768       214600       144822 
42930000    1.0367159   -0.2344838      1728000    3488.8729       214650       144859 
42940000    1.0028731   -0.2117892      1728000    3489.6789       214700       144888 
42950000    1.0124716  -0.24232121      1728000    3490.4619       214750       144925 
42960000    1.0342011  -0.23446066      1728000    3491.2619       214800       144964 
42970000    1.0505406  -0.23608585      1728000    3492.0561       214850       144995 
42980000    1.0103972  -0.24900413      1728000     3492.838       214900       145027 
42990000    1.0370974   -0.2530397      1728000      3493.62       214950       145062 
43000000   0.99994251  -0.24684958      1728000    3494.4209       215000       145100 
43010000    1.0482937  -0.24284373      1728000     3495.208       215050       145130 
43020000     1.072224  -0.25258439      1728000    3495.9932       215100       145165 
43030000   0.95945156  -0.26500367      1728000    3496.7831       215150       145200 
43040000    1.0666074  -0.27914079      1728000     3497.581       215200       145231 
43050000   0.96949052   -0.2636577      1728000    3498.3718       215250       145269 
43060000    1.0243329  -0.26257108      1728000     3499.157       215300       145303 
43070000   0.93703215  -0.27313033      1728000    3499.9449       215350       145339 
43080000   0.95985047  -0.27275967      1728000    3500.7379       215400       145374 
43090000   0.97556658    -0.266926      1728000     3501.529       215450       145407 
43100000    1.0657614   -0.2713334      1728000    3502.3221       215500       145443 
43110000   0.98049929  -0.25823184      1728000     3503.108       215550       145475 
43120000    1.0174377  -0.26623424      1728000    3503.8971       215600       145513 
43130000   0.99613128  -0.25606528      1728000    3504.6889       215650       145550 
43140000   0.96509491   -0.2683957      1728000    3505.4821       215700       145586 
43150000    1.0284856  -0.25155751      1728000    3506.2779       215750       145618 
43160000   0.99313526  -0.26012771      1728000    3507.0629       215800       145651 
43170000    1.0198689  -0.24667896      1728000    3507.8481       215850       145686 
43180000    1.0097937  -0.25073397      1728000     3508.633       215900       145720 
43190000    1.0272018  -0.25211661      1728000    3509.4201       215950       145749 
43200000   0.98919939  -0.24772697      1728000    3510.2121       216000       145789 
43210000     0.984218  -0.26695282      1728000     3511.011       216050       145828 
43220000   0.98920911   -0.2616718      1728000    3511.8171       216100       145864 
43230000   0.96396755  -0.26964286      1728000    3512.6158       216150       145897 
43240000   0.99692402  -0.25811035      1728000    3513.4311       216200       145925 
43250000   0.96844514   -0.2545267      1728000      3514.25       216250       145957 
43260000    1.0139651  -0.24052067      1728000    3515.0639       216300       145995 
43270000    1.0047947  -0.24651948      1728000    3515.8667       216350       146031 
43280000    1.0781608  -0.25085087      1728000    3516.6864       216400       146067 
43290000    1.0220539  -0.25684749      1728000    3517.5568       216450       146103 
43300000     1.020481  -0.23957415      1728000    3518.3832       216500       146140 
43310000    1.0129354  -0.24014804      1728000    3519.2077       216550       146177 
43320000    1.0471761  -0.23929351      1728000    3520.0161       216600       146208 
43330000    1.0521681  -0.27052928      1728000    3520.8743       216650       146241 
43340000    1.0126538  -0.27319863      1728000    3521.7064       216700       146277 
43350000    1.0592962   -0.2415228      1728000    3522.5209       216750       146315 
43360000    1.0487581  -0.25160184      1728000    3523.3311       216800       146348 
43370000   0.97892439  -0.26169331      1728000    3524.1427       216850       146387 
43380000   0.98272387  -0.24577078      1728000     3524.953       216900       146427 
43390000     1.042984  -0.26664221      1728000    3525.7556       216950       146466 
43400000   0.95610445  -0.26683282      1728000      3526.58       217000       146500 
43410000    1.0536367  -0.24406787      1728000    3527.4018       217050       146534 
43420000    1.0447449   -0.2608703      1728000    3528.2128       217100       146566 
43430000   0.97762526  -0.25118766      1728000    3529.0302       217150       146598 
43440000    1.0063494  -0.24685871      1728000    3529.8349       217200       146627 
43450000    1.0072081  -0.25748564      1728000    3530.6431       217250       146664 
43460000   0.99073121  -0.24074469      1728000    3531.4585       217300       146703 
43470000    0.9949815  -0.26783142      1728000    3532.2919       217350       146735 
43480000    1.0029299  -0.24460015      1728000    3533.1131       217400       146771 
43490000    1.0038437  -0.25323566      1728000    3533.9184       217450       146801 
43500000    1.0088556   -0.2792226      1728000    3534.7495       217500       146840 
43510000   0.97943927  -0.26648081      1728000     3535.568       217550       146873 
43520000    1.0214463  -0.27279822      1728000    3536.3782       217600       146905 
43530000    1.0403895    -0.280806      1728000    3537.1877       217650       146937 
43540000    1.0011901  -0.26642364      1728000    3538.0011       217700       146966 
43550000    1.0138308  -0.26448684      1728000    3538.8153       217750       147000 
43560000    1.0867868  -0.26120019      1728000    3539.6152       217800       147037 
43570000    1.0507628   -0.2716356      1728000    3540.4313       217850       147073 
43580000    1.0290204  -0.28153524      1728000    3541.2505       217900       147111 
43590000   0.98329125  -0.27642136      1728000     3542.062       217950       147141 
43600000   0.97803636   -0.2838274      1728000    3542.9029       218000       147175 
43610000    1.0537856  -0.29530603      1728000    3543.7189       218050       147212 
43620000   0.92201088  -0.28391823      1728000    3544.5419       218100       147242 
43630000   0.96018857  -0.26623353      1728000    3545.3801       218150       147277 
43640000     1.006091  -0.28455051      1728000     3546.193       218200       147313 
43650000   0.97642841  -0.27142252      1728000    3547.0108       218250       147344 
43660000    1.0735677  -0.28580667      1728000    3547.8278       218300       147378 
43670000    1.0461611   -0.2770381      1728000     3548.638       218350       147412 
43680000    1.0337936  -0.27820461      1728000     3549.454       218400       147444 
43690000    1.0063129  -0.27343921      1728000    3550.2839       218450       147478 
43700000   0.98792629  -0.30124483      1728000    3551.1009       218500       147511 
43710000    1.0584283  -0.28249486      1728000     3551.911       218550       147546 
43720000   0.96415327  -0.29748958      1728000      3552.72       218600       147579 
43730000    1.0738338  -0.29558381      1728000    3553.5242       218650       147608 
43740000    1.0383559  -0.29515443      1728000     3554.327       218700       147639 
43750000    0.9761541  -0.29480689      1728000    3555.1439       218750       147666 
43760000   0.98394331  -0.30196165      1728000    3555.9481       218800       147698 
43770000    1.0750716  -0.30772448      1728000     3556.769       218850       147730 
43780000   0.99302111  -0.29327996      1728000    3557.5813       218900       147757 
43790000    1.0292442  -0.31196602      1728000    3558.3951       218950       147788 
43800000   0.98175629  -0.31886083      1728000    3559.2219       219000       147825 
43810000   0.97026639  -0.31919688      1728000    3560.0391       219050       147858 
43820000    1.0439605  -0.30152197      1728000     3560.851       219100       147892 
43830000    0.9893611  -0.28458922      1728000    3561.6609       219150       147924 
43840000     1.051966   -0.2777033      1728000     3562.466       219200       147951 
43850000    1.0235954  -0.27623684      1728000    3563.2758       219250       147989 
43860000    1.0169239  -0.26721246      1728000     3564.087       219300       148021 
43870000     1.046084  -0.28024661      1728000    3564.9102       219350       148055 
43880000   0.96182466  -0.28043641      1728000    3565.7251       219400       148084 
43890000    1.0408354  -0.28735627      1728000      3566.54       219450       148120 
43900000   0.97468424  -0.27820122      1728000     3567.384       219500       148155 
43910000    1.0194582  -0.29226446      1728000     3568.194       219550       148184 
43920000    0.9758274  -0.28440025      1728000     3569.002       219600       148211 
43930000    1.0501355   -0.3090258      1728000     3569.822       219650       148241 
43940000    1.0661624  -0.29912742      1728000    3570.6788       219700       148270 
43950000   0.93419862  -0.30901466      1728000    3571.5252       219750       148302 
43960000    1.0231916  -0.29458294      1728000    3572.3389       219800       148339 
43970000   0.96688177  -0.30190857      1728000    3573.1561       219850       148373 
43980000     1.053054  -0.29413325      1728000    3573.9873       219900       148406 
43990000    1.0399033  -0.29443251      1728000    3574.8028       219950       148431 
44000000    1.0642068  -0.29527764      1728000     3575.624       220000       148465 
44010000    1.0044398  -0.30861187      1728000    3576.4353       220050       148492 
44020000    1.0266562  -0.31784415      1728000    3577.2478       220100       148524 
44030000    1.0874544  -0.29472896      1728000    3578.0859       220150       148559 
44040000    0.9798013  -0.28931843      1728000      3578.96       220200       148593 
44050000    1.0012261  -0.29810949      1728000    3579.7831       220250       148624 
44060000     1.055336  -0.30751405      1728000    3580.6152       220300       148659 
44070000    1.1085629  -0.30199987      1728000     3581.453       220350       148701 
44080000   0.98991238  -0.30177742      1728000     3582.306       220400       148730 
44090000    1.0050582  -0.29016477      1728000    3583.1379       220450       148761 
44100000   0.98671466  -0.29220768      1728000    3583.9708       220500       148792 
44110000   0.98161858  -0.29079963      1728000    3584.7951       220550       148825 
44120000   0.99462093   -0.2697869      1728000    3585.6104       220600       148857 
44130000   0.94439102  -0.25896432      1728000     3586.441       220650       148890 
44140000   0.99280184  -0.24463394      1728000    3587.2884       220700       148921 
44150000   0.92528336  -0.27498872      1728000    3588.1166       220750       148961 
44160000   0.91855002  -0.28169633      1728000    3588.9437       220800       148994 
44170000    1.0338957   -0.2725747      1728000    3589.7649       220850       149030 
44180000    1.0318347    -0.263564      1728000    3590.5891       220900       149070 
44190000    1.0077428  -0.25376875      1728000    3591.4153       220950       149105 
44200000    1.0343106  -0.27071444      1728000    3592.2415       221000       149140 
44210000    1.0230972  -0.25998871      1728000     3593.064       221050       149175 
44220000    1.0133886  -0.23738394      1728000     3593.902       221100       149212 
44230000    1.0125747  -0.27124913      1728000     3594.708       221150       149248 
44240000   0.95439943   -0.2568576      1728000     3595.531       221200       149277 
44250000    1.0564043  -0.27643079      1728000    3596.3551       221250       149310 
44260000    1.0658112  -0.27978086      1728000     3597.181       221300       149341 
44270000   0.96447891  -0.26649565      1728000      3598.02       221350       149375 
44280000    1.0925086  -0.26941961      1728000     3598.848       221400       149411 
44290000     1.010781  -0.26261713      1728000    3599.6619       221450       149447 
44300000    1.0247898  -0.27647822      1728000    3600.5268       221500       149484 
44310000    1.0013959  -0.28780296      1728000    3601.3591       221550       149522 
44320000    1.0227908  -0.29253978      1728000    3602.1811       221600       149556 
44330000    1.0087777   -0.2745825      1728000    3602.9971       221650       149591 
44340000    1.0069662  -0.25810604      1728000     3603.804       221700       149628 
44350000   0.95869522   -0.2636518      1728000    3604.6201       221750       149660 
44360000   0.96501391  -0.26347619      1728000     3605.456       221800       149691 
44370000    0.9490123  -0.25266394      1728000    3606.2711       221850       149723 
44380000   0.99421757  -0.25904894      1728000       3607.1       221900       149753 
44390000    0.9773295  -0.25368975      1728000     3607.916       221950       149786 
44400000    1.0130711  -0.26189052      1728000     3608.773       222000       149819 
44410000    1.0776181  -0.26271002      1728000    3609.5849       222050       149851 
44420000   0.99807716  -0.26590275      1728000     3610.392       222100       149885 
44430000   0.96728856   -0.2707925      1728000     3611.223       222150       149918 
44440000    1.0575177  -0.27770404      1728000    3612.0481       222200       149952 
44450000    1.0741296   -0.2667338      1728000    3612.8731       222250       149988 
44460000    1.0447203  -0.27843355      1728000     3613.688       222300       150020 
44470000    1.0215455  -0.27167255      1728000     3614.506       222350       150055 
44480000     1.014663  -0.26354851      1728000     3615.318       222400       150091 
44490000   0.99015579  -0.28469984      1728000    3616.1469       222450       150133 
44500000    1.0016127  -0.27657111      1728000    3616.9781       222500       150164 
44510000   0.98615488  -0.28110796      1728000    3617.7971       222550       150199 
44520000    1.0408906  -0.27539315      1728000    3618.6149       222600       150235 
44530000    1.0782619  -0.30443847      1728000    3619.4309       222650       150270 
44540000    1.0013907  -0.29801105      1728000    3620.2629       222700       150298 
44550000   0.99628976  -0.27709755      1728000    3621.0769       222750       150335 
44560000   0.99212137  -0.27720757      1728000    3621.9438       222800       150372 
44570000    1.0290563  -0.28811065      1728000     3622.774       222850       150407 
44580000    1.0386399  -0.28409723      1728000     3623.587       222900       150442 
44590000   0.96913771  -0.28139504      1728000    3624.4041       222950       150466 
44600000    1.0966665  -0.27700378      1728000    3625.2271       223000       150508 
44610000   0.96958034  -0.26797539      1728000    3626.0761       223050       150545 
44620000   0.98829855   -0.2601314      1728000    3626.8929       223100       150584 
44630000    1.0700452  -0.28188872      1728000     3627.727       223150       150615 
44640000    1.0074526  -0.28472165      1728000     3628.544       223200       150654 
44650000    1.0712898  -0.29337391      1728000    3629.3589       223250       150683 
44660000    1.0368266  -0.28412099      1728000    3630.1681       223300       150709 
44670000    1.0189608  -0.28065353      1728000     3630.987       223350       150736 
44680000     1.020153  -0.30539661      1728000    3631.8071       223400       150766 
44690000     1.031719  -0.29313914      1728000     3632.626       223450       150797 
44700000    1.0265492  -0.30275818      1728000     3633.455       223500       150829 
44710000    1.0376266  -0.29883133      1728000    3634.2737       223550       150855 
44720000    0.9861889  -0.29845707      1728000    3635.0959       223600       150887 
44730000   0.96905272  -0.28772242      1728000    3635.9139       223650       150924 
44740000    1.0020121   -0.2671044      1728000     3636.739       223700       150958 
44750000    1.0328594  -0.26680604      1728000      3637.57       223750       150997 
44760000    1.0279215  -0.26134061      1728000    3638.3896       223800       151033 
44770000    1.0531924  -0.25723899      1728000    3639.2058       223850       151065 
44780000    1.0095563  -0.27684597      1728000    3640.0201       223900       151098 
44790000    1.0634373  -0.26382208      1728000    3640.8481       223950       151137 
44800000    1.0162733  -0.25027051      1728000    3641.6731       224000       151171 
44810000     1.003576  -0.24742909      1728000     3642.488       224050       151208 
44820000   0.96101798  -0.26244931      1728000    3643.3138       224100       151242 
44830000    1.0028371  -0.24930296      1728000    3644.1411       224150       151278 
44840000    0.9799212  -0.25338785      1728000    3644.9948       224200       151316 
44850000   0.94843461  -0.24940716      1728000     3645.816       224250       151344 
44860000    1.0157587  -0.26185532      1728000    3646.6341       224300       151378 
44870000    1.0230227  -0.25061473      1728000    3647.4521       224350       151413 
44880000   0.95443148  -0.26514397      1728000    3648.2669       224400       151444 
44890000    1.0356588  -0.28783322      1728000    3649.0821       224450       151480 
44900000   0.98899604  -0.27170806      1728000    3649.9129       224500       151517 
44910000    1.0540998  -0.30416897      1728000     3650.735       224550       151547 
44920000    1.0396793  -0.27913473      1728000    3651.5612       224600       151573 
44930000     1.015764  -0.25620759      1728000    3652.3711       224650       151610 
44940000    1.0015128  -0.26614783      1728000    3653.1839       224700       151648 
44950000    1.0042439   -0.2642252      1728000    3653.9998       224750       151684 
44960000   0.95759377  -0.26121531      1728000    3654.8201       224800       151720 
44970000    1.0033185   -0.2762837      1728000    3655.6461       224850       151750 
44980000   0.97763254  -0.25705994      1728000    3656.4639       224900       151789 
44990000    1.0368509  -0.25641054      1728000    3657.2732       224950       151827 
45000000   0.98413507  -0.25433792      1728000    3658.1218       225000       151864 
45010000    1.0110912  -0.24654368      1728000     3658.944       225050       151898 
45020000    1.0616764  -0.24826439      1728000    3659.7632       225100       151933 
45030000    1.0342825  -0.26388393      1728000    3660.5756       225150       151965 
45040000   0.96877714  -0.25655187      1728000    3661.3929       225200       151998 
45050000    1.0105794  -0.27884727      1728000    3662.2113       225250       152034 
45060000    1.0363284  -0.29009246      1728000    3663.0245       225300       152068 
45070000   0.96562934  -0.28045317      1728000     3663.838       225350       152103 
45080000    1.0331282  -0.27858601      1728000    3664.6641       225400       152133 
45090000   0.97531342  -0.26676574      1728000    3665.4921       225450       152163 
45100000    1.0252822  -0.28482136      1728000    3666.3311       225500       152197 
45110000   0.97283352  -0.28033869      1728000    3667.1759       225550       152232 
45120000    1.0075414  -0.25926777      1728000     3667.998       225600       152267 
45130000    1.0152404  -0.27647575      1728000    3668.8101       225650       152298 
45140000   0.98915524  -0.28866517      1728000    3669.6342       225700       152332 
45150000   0.96420771  -0.25177913      1728000     3670.463       225750       152362 
45160000   0.99190225  -0.26723378      1728000     3671.286       225800       152396 
45170000    0.9469099  -0.26618313      1728000     3672.105       225850       152433 
45180000   0.93360768  -0.27503287      1728000    3672.9219       225900       152469 
45190000   0.98314285  -0.27011068      1728000    3673.7639       225950       152505 
45200000    1.0390245  -0.26623508      1728000    3674.6029       226000       152534 
45210000   0.96138158  -0.26512116      1728000     3675.429       226050       152569 
45220000     1.068106  -0.29013104      1728000    3676.2528       226100       152605 
45230000    1.0098197  -0.25579038      1728000    3677.0769       226150       152636 
45240000      1.08291   -0.2699682      1728000    3677.8981       226200       152667 
45250000    1.0440265  -0.27892254      1728000    3678.7211       226250       152697 
45260000    1.0259433  -0.28750076      1728000    3679.5421       226300       152733 
45270000    1.0088656  -0.30571179      1728000     3680.369       226350       152761 
45280000   0.98467175  -0.29273316      1728000    3681.1912       226400       152787 
45290000    1.0395649   -0.2974754      1728000    3682.0132       226450       152822 
45300000   0.94379395  -0.27173981      1728000     3682.845       226500       152858 
45310000   0.97987593  -0.26495576      1728000     3683.661       226550       152888 
45320000      1.01282  -0.27582452      1728000    3684.5273       226600       152922 
45330000    1.0450812  -0.27509544      1728000    3685.3451       226650       152955 
45340000    1.0116799  -0.27068568      1728000    3686.1621       226700       152994 
45350000   0.93829864  -0.26936757      1728000    3686.9913       226750       153026 
45360000   0.94322602  -0.25076677      1728000    3687.8228       226800       153058 
45370000    1.0110938  -0.27086006      1728000    3688.6384       226850       153097 
45380000   0.99387217  -0.26970804      1728000    3689.4516       226900       153135 
45390000    1.0009885  -0.25469389      1728000    3690.2721       226950       153171 
45400000    1.0146293   -0.2731515      1728000    3691.0993       227000       153203 
45410000     1.003695  -0.26738571      1728000    3691.9124       227050       153245 
45420000   0.99164532  -0.27335935      1728000    3692.7237       227100       153278 
45430000    1.0076788  -0.26810503      1728000    3693.5397       227150       153307 
45440000    1.0486453  -0.28200064      1728000    3694.3652       227200       153344 
45450000    1.0197917  -0.26951068      1728000     3695.192       227250       153372 
45460000   0.93483822  -0.27352916      1728000    3696.0203       227300       153408 
45470000   0.97444799  -0.24385159      1728000    3696.8381       227350       153441 
45480000   0.97518174  -0.25143889      1728000    3697.6659       227400       153478 
45490000    1.0367942  -0.25687033      1728000    3698.4763       227450       153514 
45500000    1.0164534  -0.25241834      1728000    3699.2961       227500       153541 
45510000    1.0166887  -0.26729299      1728000    3700.1082       227550       153574 
45520000   0.95324839  -0.28358047      1728000    3700.9249       227600       153603 
45530000   0.97084084  -0.28617285      1728000    3701.7441       227650       153634 
45540000   0.99664764  -0.28399054      1728000    3702.5513       227700       153665 
45550000     1.020436  -0.25703904      1728000    3703.3621       227750       153695 
45560000    1.0140845  -0.28274352      1728000    3704.1782       227800       153726 
45570000    1.0148124  -0.27285097      1728000    3705.0091       227850       153756 
45580000   0.96634261  -0.27553382      1728000    3705.8281       227900       153787 
45590000    1.0670924  -0.30320297      1728000    3706.6411       227950       153818 
45600000   0.99428477  -0.29413789      1728000    3707.4682       228000       153852 
45610000   0.96144395  -0.27190214      1728000    3708.2812       228050       153883 
45620000   0.95325968  -0.27875419      1728000    3709.0911       228100       153918 
45630000   0.98978312  -0.25262129      1728000    3709.9002       228150       153954 
45640000   0.97463357  -0.26592772      1728000    3710.7342       228200       153989 
45650000       1.0418  -0.26408268      1728000    3711.5421       228250       154022 
45660000   0.96844469  -0.25359827      1728000    3712.3873       228300       154056 
45670000    1.0925613  -0.28938395      1728000    3713.1945       228350       154097 
45680000    1.0147092  -0.28672435      1728000    3714.0065       228400       154126 
45690000    1.0238395  -0.27202223      1728000    3714.8198       228450       154161 
45700000   0.98488591  -0.28434255      1728000    3715.6551       228500       154196 
45710000    1.0173779  -0.29403505      1728000    3716.4722       228550       154225 
45720000   0.97252164  -0.28124306      1728000     3717.281       228600       154262 
45730000   0.98930455  -0.27511123      1728000    3718.0959       228650       154291 
45740000   0.99485748  -0.27572372      1728000    3718.9261       228700       154324 
45750000   0.97026881  -0.28340425      1728000    3719.7364       228750       154361 
45760000   0.99777878  -0.26701293      1728000    3720.5563       228800       154397 
45770000   0.99531208  -0.26628618      1728000    3721.3859       228850       154433 
45780000   0.97513243    -0.279829      1728000    3722.1981       228900       154471 
45790000   0.99191851  -0.25215106      1728000     3723.011       228950       154500 
45800000    1.0739419   -0.2781295      1728000    3723.8322       229000       154524 
45810000    1.0157069  -0.26975665      1728000    3724.6481       229050       154560 
45820000   0.97286562   -0.2696139      1728000    3725.4702       229100       154593 
45830000    0.9899483  -0.27376329      1728000    3726.2822       229150       154624 
45840000    1.0599644  -0.27866575      1728000    3727.0963       229200       154652 
45850000    1.0374095  -0.27087397      1728000    3727.9051       229250       154682 
45860000    1.0359625  -0.27063752      1728000    3728.7242       229300       154717 
45870000   0.98124419    -0.245271      1728000    3729.5451       229350       154752 
45880000   0.95599953  -0.26138911      1728000    3730.3614       229400       154784 
45890000   0.99466641  -0.26101162      1728000     3731.209       229450       154813 
45900000    0.9167072  -0.26893653      1728000    3732.0455       229500       154849 
45910000    1.0389557    -0.254821      1728000    3732.8616       229550       154885 
45920000    1.0016935  -0.26077638      1728000    3733.6709       229600       154917 
45930000   0.99543344  -0.25083401      1728000    3734.4762       229650       154952 
45940000   0.99326214  -0.24340499      1728000    3735.2814       229700       154986 
45950000    1.0022949   -0.2655063      1728000     3736.094       229750       155018 
45960000   0.96953646    -0.252175      1728000    3736.9064       229800       155049 
45970000   0.94982366  -0.25344641      1728000    3737.7144       229850       155088 
45980000   0.99307522  -0.23763697      1728000    3738.5196       229900       155122 
45990000   0.95852435   -0.2457992      1728000    3739.3318       229950       155153 
46000000    1.0514618  -0.24926358      1728000    3740.1641       230000       155186 
46010000    1.0205003  -0.24632748      1728000    3740.9763       230050       155221 
46020000    1.0273073  -0.24967567      1728000    3741.8052       230100       155255 
46030000    1.0681896  -0.26176649      1728000    3742.6202       230150       155287 
46040000    1.0534349  -0.25219049      1728000    3743.4502       230200       155322 
46050000    1.0569658  -0.27186161      1728000    3744.3262       230250       155357 
46060000    1.0198494   -0.2566394      1728000    3745.1454       230300       155393 
46070000    1.0021217  -0.24158858      1728000    3745.9641       230350       155422 
46080000    1.0765825  -0.24322769      1728000    3746.8031       230400       155458 
46090000    1.0136112  -0.22146042      1728000     3747.604       230450       155500 
46100000    1.0126873  -0.24031098      1728000    3748.4202       230500       155540 
46110000    0.9917506  -0.22610241      1728000    3749.2294       230550       155574 
46120000    1.0078348  -0.22159665      1728000     3750.033       230600       155613 
46130000   0.97870991  -0.22704471      1728000     3750.833       230650       155651 
46140000    1.0313922  -0.22091767      1728000    3751.6432       230700       155688 
46150000    1.0111484    -0.222975      1728000     3752.454       230750       155724 
46160000    1.0137159  -0.22539896      1728000    3753.2726       230800       155761 
46170000    1.0645107   -0.2271044      1728000    3754.0828       230850       155798 
46180000   0.99415994  -0.22146682      1728000      3754.89       230900       155835 
46190000    1.0225683  -0.22929157      1728000    3755.7092       230950       155868 
46200000    0.9052051  -0.25058278      1728000    3756.5283       231000       155904 
46210000    1.0305085  -0.25912156      1728000    3757.3365       231050       155940 
46220000     1.010508  -0.25322859      1728000    3758.1526       231100       155974 
46230000   0.93385519  -0.25080108      1728000    3758.9661       231150       156007 
46240000    1.0401038  -0.25741174      1728000    3759.7812       231200       156039 
46250000    1.0039717  -0.24561788      1728000    3760.5852       231250       156077 
46260000   0.98554692  -0.24001302      1728000    3761.4002       231300       156112 
46270000    1.0074988   -0.2504594      1728000    3762.2094       231350       156142 
46280000    1.0204433  -0.25606587      1728000    3763.0173       231400       156176 
46290000   0.98856705  -0.24217487      1728000    3763.8291       231450       156207 
46300000    1.0310207  -0.25782962      1728000    3764.6501       231500       156242 
46310000   0.94841695  -0.23219593      1728000    3765.4572       231550       156278 
46320000    0.9564548  -0.24882548      1728000     3766.258       231600       156312 
46330000    1.0347364  -0.23683341      1728000    3767.0557       231650       156345 
46340000   0.97438774  -0.24152588      1728000    3767.8593       231700       156378 
46350000    1.0361509   -0.2718779      1728000    3768.6624       231750       156412 
46360000     1.037662  -0.26939128      1728000    3769.5315       231800       156448 
46370000    1.0342422  -0.26897755      1728000    3770.3454       231850       156483 
46380000    1.0475287  -0.28281237      1728000    3771.1552       231900       156518 
46390000    1.0600876  -0.28833336      1728000    3771.9771       231950       156551 
46400000   0.97246087   -0.2692867      1728000    3772.7991       232000       156585 
46410000    1.0325916  -0.27530314      1728000    3773.6141       232050       156619 
46420000    1.0666539  -0.27038116      1728000    3774.4492       232100       156657 
46430000    1.0448711  -0.25963981      1728000    3775.2883       232150       156687 
46440000    1.0329755  -0.26753325      1728000    3776.1183       232200       156714 
46450000    1.0152751  -0.27648587      1728000    3776.9422       232250       156750 
46460000    1.0094634  -0.26648838      1728000    3777.7903       232300       156778 
46470000    1.0086242  -0.26330266      1728000    3778.6142       232350       156808 
46480000    1.0025504  -0.25244378      1728000    3779.4243       232400       156841 
46490000   0.98822291   -0.2684916      1728000    3780.2332       232450       156876 
46500000    1.1202537  -0.27350632      1728000    3781.0541       232500       156908 
46510000   0.96019773  -0.26034828      1728000    3781.8672       232550       156937 
46520000    1.0729345  -0.25982891      1728000    3782.6791       232600       156974 
46530000    1.0253109  -0.25478882      1728000     3783.484       232650       157011 
46540000    0.9787851  -0.25739477      1728000    3784.2921       232700       157049 
46550000   0.93981366  -0.27414809      1728000    3785.1233       232750       157083 
46560000    0.9613312   -0.2818725      1728000     3785.941       232800       157113 
46570000    1.0188889  -0.27777517      1728000    3786.7503       232850       157148 
46580000    1.0327754  -0.27261884      1728000    3787.5622       232900       157181 
46590000    1.0209141  -0.24516962      1728000    3788.3653       232950       157214 
46600000    0.9898316  -0.26664596      1728000    3789.1859       233000       157246 
46610000   0.97849164  -0.25629088      1728000    3790.0081       233050       157282 
46620000    1.0766242  -0.26125098      1728000    3790.8239       233100       157319 
46630000    1.0454205  -0.26708537      1728000    3791.6431       233150       157354 
46640000   0.93873994  -0.27029841      1728000    3792.4413       233200       157396 
46650000   0.96013255  -0.25274655      1728000    3793.2425       233250       157437 
46660000    1.0220425  -0.24373539      1728000     3794.052       233300       157474 
46670000    1.0293658   -0.2450694      1728000    3794.8841       233350       157504 
46680000   0.95000785  -0.27124727      1728000    3795.6933       233400       157539 
46690000   0.98690439   -0.2797744      1728000    3796.5065       233450       157576 
46700000   0.99219908  -0.26745405      1728000    3797.3206       233500       157613 
46710000    1.0334216   -0.2836508      1728000    3798.1327       233550       157645 
46720000    1.0315908  -0.26409146      1728000    3798.9788       233600       157684 
46730000    1.0023103  -0.26332444      1728000     3799.811       233650       157719 
46740000    1.0208292  -0.26684918      1728000    3800.6386       233700       157749 
46750000    1.0546864  -0.26798474      1728000    3801.4678       233750       157785 
46760000   0.99677092  -0.28208479      1728000    3802.2821       233800       157818 
46770000    1.0405262  -0.28980154      1728000    3803.1512       233850       157851 
46780000    1.0453822  -0.26850995      1728000    3803.9933       233900       157884 
46790000   0.97354328  -0.25413826      1728000    3804.8145       233950       157919 
46800000   0.96158932  -0.26880979      1728000    3805.6325       234000       157955 
46810000   0.95083471  -0.25002032      1728000    3806.4404       234050       157990 
46820000    1.0171061  -0.24534546      1728000    3807.2464       234100       158029 
46830000      1.00753  -0.25609284      1728000    3808.0581       234150       158068 
46840000   0.94516688  -0.26589784      1728000    3808.8613       234200       158104 
46850000   0.97167571  -0.25745667      1728000    3809.6863       234250       158138 
46860000   0.98285578  -0.27159203      1728000     3810.486       234300       158176 
46870000    1.0144513  -0.26993513      1728000    3811.2981       234350       158211 
46880000    1.0362361  -0.25958473      1728000    3812.0935       234400       158252 
46890000   0.94349713  -0.25337903      1728000    3812.9031       234450       158287 
46900000   0.98361573  -0.28534501      1728000     3813.704       234500       158320 
46910000    1.0198467  -0.28505137      1728000    3814.5073       234550       158350 
46920000   0.99194256  -0.30169039      1728000     3815.323       234600       158385 
46930000    1.0004124  -0.28344623      1728000    3816.1188       234650       158419 
46940000   0.95399803  -0.27207423      1728000    3816.9193       234700       158457 
46950000   0.97959056  -0.28426326      1728000    3817.7143       234750       158486 
46960000    1.0100543  -0.29921614      1728000    3818.5191       234800       158515 
46970000   0.93872935  -0.29645752      1728000    3819.3092       234850       158549 
46980000   0.94442705  -0.30091184      1728000    3820.1143       234900       158585 
46990000   0.99614236  -0.30208961      1728000    3820.9292       234950       158615 
47000000    1.0373237  -0.30552234      1728000    3821.7553       235000       158644 
47010000    0.9552147  -0.28991809      1728000    3822.5501       235050       158678 
47020000    1.0029564  -0.29183253      1728000    3823.3572       235100       158712 
47030000   0.97157811  -0.29763027      1728000    3824.2171       235150       158740 
47040000   0.96016689  -0.29381766      1728000    3825.0172       235200       158772 
47050000    1.0637911  -0.27084439      1728000    3825.8311       235250       158804 
47060000   0.95433164  -0.29828124      1728000    3826.6273       235300       158834 
47070000   0.99114252  -0.28137767      1728000    3827.5013       235350       158864 
47080000    1.0269266  -0.28228813      1728000    3828.2972       235400       158892 
47090000   0.97304905   -0.2966385      1728000    3829.1425       235450       158927 
47100000     1.007905  -0.28656479      1728000    3829.9391       235500       158960 
47110000   0.98416777  -0.29021946      1728000    3830.7811       235550       158992 
47120000    1.0053172  -0.29664602      1728000    3831.6223       235600       159026 
47130000   0.99367739  -0.28469459      1728000    3832.4062       235650       159061 
47140000    1.0273918  -0.28627422      1728000     3833.237       235700       159092 
47150000   0.96668853  -0.28183884      1728000    3834.0234       235750       159124 
47160000    1.0098307   -0.2665775      1728000    3834.8743       235800       159165 
47170000    1.0111218  -0.28263894      1728000    3835.7173       235850       159200 
47180000   0.98757094  -0.27426576      1728000    3836.5087       235900       159231 
47190000    1.0181507  -0.24143541      1728000    3837.3753       235950       159269 
47200000    1.0216362  -0.25126667      1728000    3838.2161       236000       159302 
47210000    1.0421521  -0.24786472      1728000    3839.0466       236050       159338 
47220000   0.98293957  -0.25672812      1728000    3839.9088       236100       159375 
47230000    1.0208006  -0.24983978      1728000    3840.7441       236150       159403 
47240000   0.99500073  -0.24997373      1728000    3841.5337       236200       159439 
47250000   0.94041002  -0.23917819      1728000    3842.3386       236250       159471 
47260000    1.0018173  -0.25985066      1728000    3843.1628       236300       159504 
47270000    1.0439359  -0.26212297      1728000    3844.0179       236350       159537 
47280000    1.0047074  -0.25533666      1728000    3844.8455       236400       159576 
47290000    1.0165946  -0.26059778      1728000    3845.6766       236450       159610 
47300000    0.9761435   -0.2401147      1728000    3846.5178       236500       159642 
47310000     1.012731  -0.24447899      1728000    3847.3203       236550       159674 
47320000   0.92796778  -0.23714979      1728000    3848.1215       236600       159707 
47330000    1.0371678  -0.22535794      1728000    3848.9316       236650       159742 
47340000    1.0276335   -0.2454465      1728000    3849.7264       236700       159775 
47350000   0.99989129  -0.23549664      1728000    3850.5438       236750       159817 
47360000   0.99635463  -0.24243678      1728000    3851.3387       236800       159855 
47370000   0.99174524  -0.25277585      1728000    3852.1369       236850       159891 
47380000   0.98330654  -0.26053823      1728000     3852.944       236900       159922 
47390000    0.9996872    -0.263312      1728000    3853.7418       236950       159958 
47400000    1.0179794  -0.26988357      1728000    3854.5512       237000       159988 
47410000   0.99033437  -0.26248418      1728000    3855.3457       237050       160025 
47420000    1.0033507  -0.26236471      1728000    3856.1609       237100       160065 
47430000    1.0741241  -0.23526245      1728000    3856.9543       237150       160098 
47440000    1.0093442   -0.2433142      1728000    3857.7642       237200       160133 
47450000   0.98107077  -0.22112343      1728000    3858.5632       237250       160171 
47460000    1.0000554  -0.24724729      1728000    3859.3714       237300       160202 
47470000    1.0201726  -0.25788836      1728000    3860.1861       237350       160240 
47480000   0.99310724  -0.25968059      1728000    3861.0083       237400       160269 
47490000   0.96322696  -0.26333517      1728000    3861.8163       237450       160307 
47500000    1.0260178   -0.2652507      1728000    3862.6579       237500       160345 
47510000   0.98224333  -0.25849504      1728000    3863.4873       237550       160384 
47520000    1.0189958  -0.29415212      1728000    3864.3302       237600       160416 
47530000    1.0008422  -0.27906511      1728000    3865.1384       237650       160449 
47540000    1.0307483  -0.29293631      1728000    3865.9553       237700       160482 
47550000    1.0351835  -0.27666293      1728000    3866.7666       237750       160518 
47560000   0.99393048  -0.32024975      1728000      3867.59       237800       160554 
47570000   0.96874842  -0.30287109      1728000    3868.4004       237850       160593 
47580000   0.93785358  -0.29198485      1728000    3869.2147       237900       160630 
47590000     1.016589  -0.29592684      1728000    3870.0455       237950       160660 
47600000   0.98287694  -0.28953908      1728000    3870.8607       238000       160693 
47610000   0.99958678   -0.2728694      1728000    3871.6782       238050       160729 
47620000    1.0043844  -0.25967348      1728000    3872.4858       238100       160764 
47630000    1.0048408  -0.25191855      1728000    3873.2885       238150       160800 
47640000    1.1046024  -0.25751116      1728000    3874.1032       238200       160830 
47650000    1.0203495    -0.280634      1728000    3874.9304       238250       160862 
47660000    1.0036951  -0.25804573      1728000    3875.7302       238300       160901 
47670000   0.99950653   -0.2893726      1728000    3876.5185       238350       160935 
47680000   0.99685844  -0.26895468      1728000    3877.3154       238400       160965 
47690000   0.99907899  -0.26598103      1728000    3878.1087       238450       160997 
47700000   0.91192814  -0.27671858      1728000    3878.9053       238500       161033 
47710000    1.0157026  -0.26970699      1728000    3879.7061       238550       161064 
47720000   0.97392981  -0.27450182      1728000    3880.5004       238600       161096 
47730000   0.96771262  -0.27531622      1728000    3881.2893       238650       161131 
47740000    1.0220327  -0.27736619      1728000    3882.0784       238700       161163 
47750000    0.9794384  -0.27984941      1728000    3882.8724       238750       161196 
47760000    1.0311521  -0.27729372      1728000    3883.6651       238800       161228 
47770000   0.99088318  -0.25997494      1728000    3884.4524       238850       161258 
47780000    1.0209645  -0.27234268      1728000     3885.238       238900       161293 
47790000     1.010536  -0.28425937      1728000    3886.0207       238950       161329 
47800000    1.0297264  -0.27115056      1728000    3886.8143       239000       161363 
47810000   0.97891492  -0.25297438      1728000    3887.5982       239050       161400 
47820000    1.0114034  -0.26653324      1728000    3888.3971       239100       161436 
47830000   0.98935926  -0.26190286      1728000    3889.1952       239150       161470 
47840000    1.0194699  -0.26934472      1728000     3890.002       239200       161507 
47850000   0.96316938  -0.26942098      1728000    3890.8152       239250       161540 
47860000   0.95711549  -0.28665896      1728000    3891.6769       239300       161573 
47870000    1.0533241   -0.2796089      1728000     3892.537       239350       161603 
47880000   0.96439492  -0.25433899      1728000    3893.3703       239400       161637 
47890000    0.9512906  -0.25642344      1728000    3894.1985       239450       161673 
47900000    1.0195208   -0.2403545      1728000    3895.0118       239500       161706 
47910000    1.0327027  -0.23960181      1728000    3895.8203       239550       161744 
47920000    1.0231641  -0.23780849      1728000    3896.6276       239600       161784 
47930000    0.9584476  -0.25498256      1728000    3897.4432       239650       161818 
47940000     1.035646  -0.27418086      1728000    3898.2564       239700       161852 
47950000    1.0664646  -0.25706091      1728000    3899.0751       239750       161884 
47960000    1.0039662  -0.28916643      1728000    3899.8753       239800       161918 
47970000   0.97743943  -0.26792931      1728000    3900.7013       239850       161955 
47980000    1.0069173  -0.26421234      1728000    3901.5335       239900       161987 
47990000    1.1030618  -0.22761084      1728000    3902.3488       239950       162020 
48000000   0.99293888   -0.2459917      1728000    3903.1722       240000       162052 
48010000   0.96617079  -0.23902038      1728000    3903.9832       240050       162086 
48020000    1.0288075  -0.27158223      1728000    3904.7925       240100       162117 
48030000    1.0101994  -0.28746604      1728000    3905.6146       240150       162155 
48040000     1.009313  -0.29708154      1728000    3906.4282       240200       162187 
48050000     1.004108  -0.26614739      1728000    3907.2543       240250       162215 
48060000   0.95844021  -0.25276095      1728000    3908.0666       240300       162246 
48070000    1.0587139   -0.2544509      1728000    3908.9022       240350       162273 
48080000    1.0327057  -0.25716044      1728000    3909.7592       240400       162309 
48090000     1.003454  -0.25879815      1728000    3910.5774       240450       162345 
48100000   0.95880795  -0.25792422      1728000    3911.3932       240500       162381 
48110000    1.0247446  -0.26124188      1728000    3912.2003       240550       162413 
48120000    1.0168926  -0.26321279      1728000    3913.0052       240600       162446 
48130000   0.97809004  -0.26663962      1728000    3913.8113       240650       162475 
48140000    1.0387077  -0.25783267      1728000    3914.6163       240700       162508 
48150000   0.95030778  -0.24020851      1728000    3915.4277       240750       162544 
48160000    1.0100874  -0.27031864      1728000    3916.2294       240800       162583 
48170000   0.99278171  -0.27151965      1728000    3917.0581       240850       162615 
48180000   0.95982272   -0.2522496      1728000    3917.8844       240900       162641 
48190000   0.95013203  -0.26331371      1728000    3918.7067       240950       162676 
48200000    1.0345127  -0.24494921      1728000    3919.5246       241000       162707 
48210000   0.96407536  -0.25587636      1728000    3920.3308       241050       162738 
48220000   0.95557773  -0.27051876      1728000    3921.1356       241100       162773 
48230000     1.012797  -0.26430399      1728000    3921.9336       241150       162804 
48240000   0.97434949  -0.24760907      1728000    3922.7324       241200       162836 
48250000    1.0151411  -0.25990722      1728000    3923.5272       241250       162874 
48260000   0.98943492  -0.25298376      1728000    3924.3263       241300       162911 
48270000     1.016306  -0.24935746      1728000    3925.1283       241350       162949 
48280000    0.9705826   -0.2522991      1728000    3925.9214       241400       162979 
48290000    1.0056276  -0.26901839      1728000    3926.7093       241450       163012 
48300000   0.97485389  -0.24971267      1728000    3927.5027       241500       163047 
48310000    1.0468708  -0.26576086      1728000    3928.2993       241550       163079 
48320000     1.011563  -0.25667266      1728000    3929.1045       241600       163115 
48330000   0.97033935  -0.28516633      1728000    3929.9037       241650       163150 
48340000   0.96814455  -0.26767988      1728000    3930.7004       241700       163186 
48350000   0.92075175  -0.24510708      1728000    3931.4924       241750       163219 
48360000   0.96031327  -0.24340119      1728000    3932.2801       241800       163251 
48370000   0.99921591  -0.23796742      1728000    3933.0722       241850       163284 
48380000   0.96197503   -0.2425658      1728000    3933.8652       241900       163320 
48390000   0.96225597  -0.23628562      1728000    3934.6723       241950       163357 
48400000   0.98568668  -0.27076893      1728000    3935.4964       242000       163392 
48410000    1.0106869  -0.25110928      1728000    3936.3289       242050       163432 
48420000    1.0876465  -0.24910317      1728000    3937.1297       242100       163466 
48430000   0.99670423  -0.23885254      1728000    3937.9581       242150       163502 
48440000    1.0118677   -0.2612121      1728000    3938.7874       242200       163540 
48450000   0.98869142  -0.25776616      1728000    3939.6091       242250       163578 
48460000   0.95204852  -0.26444819      1728000    3940.4242       242300       163612 
48470000     1.034246  -0.28405165      1728000    3941.2352       242350       163641 
48480000   0.96367726  -0.30020742      1728000    3942.0392       242400       163680 
48490000   0.97196026  -0.28995017      1728000    3942.8378       242450       163710 
48500000   0.97355736  -0.31850278      1728000    3943.6613       242500       163749 
48510000   0.96442382  -0.30826435      1728000    3944.4713       242550       163779 
48520000    1.0294579    -0.290086      1728000    3945.2793       242600       163812 
48530000   0.97912582  -0.26415772      1728000    3946.0939       242650       163849 
48540000    1.0083143  -0.25883031      1728000    3946.9094       242700       163886 
48550000    1.0193709  -0.28284751      1728000    3947.7263       242750       163921 
48560000   0.99414558  -0.28042135      1728000    3948.5352       242800       163957 
48570000    1.0196724  -0.29877762      1728000    3949.3522       242850       163993 
48580000    1.0372968  -0.29869779      1728000    3950.1733       242900       164026 
48590000     0.931959  -0.30946618      1728000    3950.9884       242950       164059 
48600000    1.0087862  -0.30509939      1728000    3951.8314       243000       164099 
48610000    1.0835127  -0.31645388      1728000    3952.6474       243050       164126 
48620000   0.99661355  -0.30767361      1728000    3953.4634       243100       164169 
48630000    1.0367495  -0.30269615      1728000    3954.2654       243150       164209 
48640000    1.0233919  -0.30570396      1728000    3955.0954       243200       164237 
48650000    0.9737275   -0.2912333      1728000    3955.9083       243250       164270 
48660000    1.0195455  -0.28832251      1728000    3956.7283       243300       164299 
48670000    1.0525085  -0.28179026      1728000    3957.5366       243350       164330 
48680000   0.96837629  -0.25672447      1728000    3958.3287       243400       164365 
48690000    1.0214289  -0.27433402      1728000    3959.1267       243450       164396 
48700000   0.99388998  -0.27387621      1728000     3959.939       243500       164429 
48710000   0.96019584  -0.27731091      1728000    3960.7386       243550       164462 
48720000    0.9822762  -0.29274924      1728000    3961.5504       243600       164495 
48730000    1.0279942  -0.26876123      1728000    3962.3474       243650       164526 
48740000   0.98848735  -0.25259205      1728000    3963.1464       243700       164565 
48750000    0.9392898  -0.25100799      1728000    3963.9294       243750       164601 
48760000    1.0008499  -0.26002516      1728000    3964.7165       243800       164634 
48770000     1.005291  -0.24271005      1728000    3965.5084       243850       164672 
48780000   0.96593866  -0.25771256      1728000    3966.3035       243900       164706 
48790000      0.94095  -0.23925862      1728000    3967.0852       243950       164743 
48800000   0.94338042  -0.24544335      1728000     3967.902       244000       164779 
48810000   0.97012878  -0.25693975      1728000    3968.7232       244050       164816 
48820000    1.0082248  -0.26047032      1728000    3969.5354       244100       164853 
48830000    1.0770026  -0.25904727      1728000    3970.3463       244150       164889 
48840000     1.002004  -0.25581351      1728000    3971.1444       244200       164928 
48850000   0.95084745  -0.25019034      1728000    3971.9721       244250       164963 
48860000    1.0290467  -0.25260197      1728000    3972.7904       244300       164993 
48870000    1.0425024  -0.23158267      1728000    3973.5917       244350       165035 
48880000    1.0055901  -0.26903573      1728000    3974.4173       244400       165071 
48890000   0.98938433  -0.25017494      1728000    3975.2245       244450       165103 
48900000   0.96128573  -0.23277254      1728000    3976.0224       244500       165143 
48910000   0.98435898  -0.26072056      1728000    3976.8352       244550       165184 
48920000    1.0279431  -0.26821235      1728000    3977.6394       244600       165216 
48930000    1.0536115  -0.29187583      1728000    3978.4327       244650       165249 
48940000     1.000229  -0.28891979      1728000     3979.229       244700       165280 
48950000   0.97590546   -0.2905058      1728000    3980.0386       244750       165310 
48960000   0.97517041  -0.29554822      1728000    3980.8445       244800       165346 
48970000   0.94789035  -0.26822567      1728000    3981.6445       244850       165382 
48980000    1.0196626  -0.27220009      1728000    3982.4424       244900       165414 
48990000   0.96214077  -0.26577143      1728000    3983.2444       244950       165439 
49000000    1.0221368  -0.26846849      1728000    3984.1042       245000       165470 
49010000   0.97865065   -0.2621985      1728000    3984.9065       245050       165506 
49020000    1.0394304  -0.26880793      1728000    3985.7053       245100       165544 
49030000    1.0056228  -0.28067589      1728000    3986.5104       245150       165571 
49040000    1.0070857  -0.28061326      1728000    3987.3095       245200       165602 
49050000   0.96569654  -0.28190001      1728000    3988.1195       245250       165636 
49060000    1.0358271  -0.27113086      1728000    3988.9076       245300       165670 
49070000   0.93650744  -0.27318554      1728000    3989.6904       245350       165709 
49080000    1.0591023  -0.26808821      1728000    3990.4688       245400       165741 
49090000    1.0145261  -0.27115974      1728000    3991.2504       245450       165774 
49100000    1.0300135  -0.26414049      1728000    3992.0474       245500       165805 
49110000   0.97248111  -0.27354806      1728000    3992.8373       245550       165845 
49120000   0.96408862  -0.28238506      1728000    3993.6535       245600       165878 
49130000    1.0108159  -0.28058047      1728000    3994.4735       245650       165908 
49140000   0.91970196  -0.27118731      1728000    3995.2944       245700       165945 
49150000    1.0151884  -0.28740422      1728000    3996.1234       245750       165981 
49160000    0.9453842  -0.26654429      1728000    3996.9387       245800       166013 
49170000    1.0666126   -0.2809914      1728000    3997.7437       245850       166050 
49180000   0.99056781  -0.27101213      1728000    3998.5412       245900       166082 
49190000   0.89519782   -0.2523353      1728000    3999.3656       245950       166117 
49200000    1.0171367  -0.25123989      1728000    4000.1804       246000       166144 
49210000   0.97180582  -0.27120686      1728000    4000.9766       246050       166178 
49220000    1.0134218  -0.26501983      1728000    4001.7844       246100       166211 
49230000    1.0147116  -0.25411993      1728000    4002.6156       246150       166247 
49240000   0.98595082  -0.25319601      1728000    4003.4144       246200       166284 
49250000    1.0551164  -0.27575493      1728000    4004.2216       246250       166326 
49260000   0.95915967  -0.27018714      1728000    4005.0238       246300       166359 
49270000    1.0261971  -0.25908188      1728000    4005.8104       246350       166394 
49280000    1.0603548  -0.26863943      1728000    4006.6125       246400       166423 
49290000    0.9902504  -0.26485578      1728000    4007.4083       246450       166453 
49300000    1.0594791  -0.27232358      1728000    4008.2215       246500       166485 
49310000    1.0353135  -0.28558322      1728000    4009.0204       246550       166524 
49320000     1.041076  -0.28187843      1728000    4009.8263       246600       166556 
49330000    1.0240415  -0.27898682      1728000    4010.6464       246650       166590 
49340000    1.0106728  -0.26388108      1728000    4011.4655       246700       166624 
49350000     1.069311  -0.24908591      1728000    4012.2694       246750       166659 
49360000   0.97868923   -0.2666104      1728000    4013.0596       246800       166692 
49370000   0.97522815  -0.25486235      1728000    4013.8518       246850       166721 
49380000   0.97363125  -0.25244492      1728000    4014.6375       246900       166757 
49390000    1.0174386   -0.2484915      1728000    4015.4344       246950       166794 
49400000   0.99313913   -0.2664103      1728000    4016.2344       247000       166832 
49410000    1.0477138  -0.25741273      1728000    4017.0253       247050       166866 
49420000   0.99275304  -0.25957162      1728000    4017.8124       247100       166898 
49430000   0.98444552  -0.24842777      1728000    4018.6026       247150       166936 
49440000   0.99644777   -0.2698929      1728000    4019.3943       247200       166967 
49450000   0.97686409  -0.25435434      1728000    4020.1864       247250       167001 
49460000   0.99905428  -0.25698251      1728000    4020.9745       247300       167038 
49470000    1.0340215  -0.27210868      1728000    4021.7615       247350       167074 
49480000    1.0141403  -0.28383362      1728000    4022.5464       247400       167110 
49490000   0.91723087  -0.26846093      1728000    4023.3405       247450       167143 
49500000    1.0304228   -0.2554606      1728000    4024.1383       247500       167177 
49510000     1.058801  -0.26271175      1728000    4024.9254       247550       167207 
49520000    0.9889291  -0.26143652      1728000    4025.7105       247600       167244 
49530000   0.97103208  -0.25430806      1728000    4026.5079       247650       167279 
49540000    1.0242339  -0.27759026      1728000    4027.2957       247700       167319 
49550000    1.0167031  -0.26489051      1728000    4028.0907       247750       167355 
49560000    1.0433067  -0.23526285      1728000    4028.8834       247800       167381 
49570000    1.0415956  -0.26398721      1728000    4029.6774       247850       167416 
49580000     1.041499  -0.27493137      1728000    4030.4614       247900       167453 
49590000    0.9886668  -0.27744252      1728000    4031.2588       247950       167488 
49600000   0.95333543  -0.28753701      1728000    4032.0615       248000       167525 
49610000   0.97955923  -0.27907334      1728000    4032.8755       248050       167563 
49620000     1.031533  -0.26245117      1728000    4033.6812       248100       167594 
49630000   0.97209555  -0.26709342      1728000    4034.4964       248150       167629 
49640000   0.96003058   -0.2604783      1728000    4035.2985       248200       167663 
49650000   0.99794943  -0.26966867      1728000    4036.1034       248250       167694 
49660000    1.0385716  -0.27065995      1728000    4036.9124       248300       167729 
49670000    1.0056864  -0.26629813      1728000    4037.7094       248350       167756 
49680000    1.0011825  -0.27607496      1728000    4038.5015       248400       167784 
49690000   0.98584304  -0.25544758      1728000    4039.2865       248450       167818 
49700000   0.94327493  -0.27225017      1728000    4040.1092       248500       167854 
49710000    1.0499479  -0.28451186      1728000    4040.9014       248550       167880 
49720000    1.0275089  -0.28475192      1728000    4041.7004       248600       167915 
49730000   0.97533983  -0.26094991      1728000    4042.4876       248650       167948 
49740000    1.0054841  -0.26445176      1728000    4043.2725       248700       167974 
49750000   0.99689972  -0.28068351      1728000    4044.0606       248750       168013 
49760000    1.0283111   -0.2729134      1728000    4044.8566       248800       168049 
49770000    0.9567758  -0.26186069      1728000    4045.6584       248850       168078 
49780000    1.0018767  -0.27750618      1728000    4046.4536       248900       168112 
49790000    1.0562416  -0.29736689      1728000    4047.2514       248950       168145 
49800000    0.9915561  -0.31220205      1728000    4048.0765       249000       168174 
49810000    1.0176457  -0.32118762      1728000    4048.8934       249050       168204 
49820000   0.98620744  -0.32739598      1728000    4049.7064       249100       168238 
49830000    1.0541209  -0.29096015      1728000    4050.5501       249150       168273 
49840000    1.0350526  -0.33324299      1728000    4051.3913       249200       168303 
49850000   0.92279429  -0.31690092      1728000     4052.234       249250       168336 
49860000   0.97938824  -0.31778324      1728000    4053.0472       249300       168372 
49870000    1.0475833  -0.29879828      1728000    4053.8647       249350       168406 
49880000    1.0128437  -0.30568135      1728000    4054.6862       249400       168439 
49890000   0.99499294    -0.327356      1728000    4055.5206       249450       168471 
49900000    1.0391553  -0.31194973      1728000    4056.3704       249500       168506 
49910000   0.96948741  -0.29008882      1728000    4057.1834       249550       168537 
49920000    0.9249392  -0.28885638      1728000    4057.9914       249600       168570 
49930000     1.080268  -0.29266366      1728000    4058.7965       249650       168604 
49940000    1.0158034  -0.29047791      1728000    4059.6114       249700       168642 
49950000     1.045162  -0.28906948      1728000    4060.4391       249750       168673 
49960000     1.017583  -0.30853291      1728000    4061.2844       249800       168703 
49970000    1.0185359   -0.2857049      1728000     4062.099       249850       168738 
49980000   0.99692547  -0.29503869      1728000    4062.9154       249900       168769 
49990000    1.0083982  -0.31818095      1728000    4063.7481       249950       168804 
50000000   0.98379611  -0.27768165      1728000    4064.5813       250000       168840 
Loop time of 4064.58 on 1 procs for 50000000 steps with 500 atoms

Performance: 10628395.910 tau/day, 12301.384 timesteps/s
99.2% CPU use with 1 MPI tasks x 1 OpenMP threads

MPI task timing breakdown:
Section |  min time  |  avg time  |  max time  |%varavg| %total
---------------------------------------------------------------
Pair    | 684.71     | 684.71     | 684.71     |   0.0 | 16.85
Bond    | 1060.4     | 1060.4     | 1060.4     |   0.0 | 26.09
Neigh   | 799.11     | 799.11     | 799.11     |   0.0 | 19.66
Comm    | 33.209     | 33.209     | 33.209     |   0.0 |  0.82
Output  | 14.924     | 14.924     | 14.924     |   0.0 |  0.37
Modify  | 1419.1     | 1419.1     | 1419.1     |   0.0 | 34.91
Other   |            | 53.1       |            |       |  1.31

Nlocal:    500 ave 500 max 500 min
Histogram: 1 0 0 0 0 0 0 0 0 0
Nghost:    0 ave 0 max 0 min
Histogram: 1 0 0 0 0 0 0 0 0 0
Neighs:    1366 ave 1366 max 1366 min
Histogram: 1 0 0 0 0 0 0 0 0 0

Total # of neighbors = 1366
Ave neighs/atom = 2.732
Ave special neighs/atom = 5.976
Neighbor list builds = 2635464
Dangerous builds = 0

################
## ULOOP    ####
################
clear
OMP_NUM_THREADS environment is not set. Defaulting to 1 thread. (../comm.cpp:87)
  using 1 OpenMP thread(s) per MPI task
variable rname delete
variable simname delete
variable folder delete
variable seed delete
variable E delete
variable RW delete
variable SimOutType delete
variable SimInType delete
variable jn delete
variable jf delete

next jbn
Increment via next: value 2 on partition 0
jump SELF #last line!!!

### If e.g. I run this on 10 partitions of 1 processor,
### and initialise the variable with 'uloop N'
### it will run 10 simulations with 'jobnumber' taking
### values 1-10. Then when a particular simulation finishes, the
### script will be run again with the next value of jobnumber,
### until N simulations have been run.
## SO ULOOP IS "SERIAL" BUT FOR SURE 10x1 PROCs ARE ALWAYS BUSY
Total wall time: 1:07:54
