LAMMPS (1 Feb 2019)
OMP_NUM_THREADS environment is not set. Defaulting to 1 thread. (../comm.cpp:87)
  using 1 OpenMP thread(s) per MPI task
####################################
####	ULOOP			####
####################################
variable jbn uloop 1  # run n simulations
variable startfrom equal 0
variable jn equal ${jbn}+${startfrom}
variable jn equal 1+${startfrom}
variable jn equal 1+0
print ${jn}
print 1
1
variable seed equal (${jn}+4)*51-2*${jbn}
variable seed equal (1+4)*51-2*${jbn}
variable seed equal (1+4)*51-2*1
variable seedr equal (${jn}+2)*22
variable seedr equal (1+2)*22

#
variable N equal 2000
timestep 0.01
variable Dt equal 100000
variable Temp equal 1.0
variable Norm equal 0.88585294441338
if "${jn} <= 2" then "variable E equal 0.9"
variable E equal 0.9
if "${jn} > 2 && ${jn} <= 4" then "variable E equal 1.5"
if "${jn} > 4 && ${jn} <= 6" then "variable E equal 2.0"
if "${jn} > 6 && ${jn} <= 8" then "variable E equal 2.5"
if "${jn} > 8 && ${jn} <= 10" then "variable E equal 3.0"
if "${jn} > 10 && ${jn} <= 12" then "variable E equal 3.5"
if "${jn} > 12 && ${jn} <= 14" then "variable E equal 4.0"
if "${jn} > 14 && ${jn} <= 16" then "variable E equal 4.5"
if "${jn} > 16 && ${jn} <= 18" then "variable E equal 5.0"

#
####################################
####	DEFINTIONS 	########
####################################
#
variable N equal 500
variable folder index RW_Dt${Dt}_E${E}
variable folder index RW_Dt100000_E${E}
variable folder index RW_Dt100000_E0.9
shell mkdir ${folder}
shell mkdir RW_Dt100000_E0.9
variable SimOutType index RW${jn}Dt${Dt}E${E}
variable SimOutType index RW1Dt${Dt}E${E}
variable SimOutType index RW1Dt100000E${E}
variable SimOutType index RW1Dt100000E0.9
variable rname index INIT/Poly.N${N}.dat
variable rname index INIT/Poly.N500.dat
variable simname index Poly.N${N}.${SimOutType}
variable simname index Poly.N500.${SimOutType}
variable simname index Poly.N500.RW1Dt100000E0.9
#
units lj
atom_style angle
boundary        p p p
neighbor 1.3 bin
neigh_modify every 5 delay 5 check yes
#
restart 1000000 ${folder}/Restart.neutr.${simname}.
restart 1000000 RW_Dt100000_E0.9/Restart.neutr.${simname}.
restart 1000000 RW_Dt100000_E0.9/Restart.neutr.Poly.N500.RW1Dt100000E0.9.
print ${rname}
print INIT/Poly.N500.dat
INIT/Poly.N500.dat
read_data ${rname}
read_data INIT/Poly.N500.dat
  orthogonal box = (-50 -50 -50) to (50 50 50)
  1 by 1 by 1 MPI processor grid
  reading atoms ...
  500 atoms
  scanning bonds ...
  1 = max bonds/atom
  scanning angles ...
  1 = max angles/atom
  reading bonds ...
  499 bonds
  reading angles ...
  498 angles
  2 = max # of 1-2 neighbors
  2 = max # of 1-3 neighbors
  4 = max # of 1-4 neighbors
  6 = max # of special neighbors

####################################
####	GROUPS	             #######
####################################
group blue type 1
500 atoms in group blue
group red type 2
0 atoms in group red
group grey type 3
0 atoms in group grey

change_box all x final -60 60 y final -60 60 z final -60 60 boundary f f f units box
  orthogonal box = (-60 -50 -50) to (60 50 50)
  orthogonal box = (-60 -60 -50) to (60 60 50)
  orthogonal box = (-60 -60 -60) to (60 60 60)

####################################
####	ANGLE	             #######
####################################
angle_style   cosine
angle_coeff  1 3.0  #20 sigma for realistic DNA (1 bead = 2.5 nm)

####################################
####	PAIRS	             #######
####################################
pair_style  soft 2.5
pair_modify     shift yes
pair_coeff      * * 20 1.12246152962189

variable prefactor equal ramp(0,50)
fix pushapart all adapt 1 pair soft a * * v_prefactor

####################################
####	FENE	             #######
####################################
bond_style   fene
special_bonds fene#<=== I M P O R T A N T (new command)
  2 = max # of 1-2 neighbors
  6 = max # of special neighbors
bond_coeff   1  30.0   1.6  1.0  1.0

####################################
####	FIXES	             #######
####################################
fix 1 all   nve
fix 2 all  langevin   1.0 1.0   1.0   ${seed}
fix 2 all  langevin   1.0 1.0   1.0   253

####################################
####	WALL	             #######
####################################
fix WALL all wall/lj126 xhi EDGE 1.0 1.0 1.122462048 xlo EDGE 1.0 1.0 1.122462048 yhi EDGE 1.0 1.0 1.122462048 ylo EDGE 1.0 1.0 1.122462048 zhi EDGE 1.0 1.0 1.122462048 zlo EDGE 1.0 1.0 1.122462048 units box

####################################
####	RESET TIME             #######
####################################
reset_timestep 0

####################################
####	SWAP - ATOMS         #######
####################################
##HERE I USE fix atom/swap to attempt an atom swap between types
## In theory, I don't need to do a loop as the fix does it every
## N timesteps
##FIRST Dt IS NOT SWAPPING ANYWAY!
group Polymer type 1 2 3
500 atoms in group Polymer
fix Aswap Polymer atom/swap ${Dt} ${N} ${seed} ${Temp} semi-grand yes types 1 2 3 mu 0.0 0.0 0.0
fix Aswap Polymer atom/swap 100000 ${N} ${seed} ${Temp} semi-grand yes types 1 2 3 mu 0.0 0.0 0.0
fix Aswap Polymer atom/swap 100000 500 ${seed} ${Temp} semi-grand yes types 1 2 3 mu 0.0 0.0 0.0
fix Aswap Polymer atom/swap 100000 500 253 ${Temp} semi-grand yes types 1 2 3 mu 0.0 0.0 0.0
fix Aswap Polymer atom/swap 100000 500 253 1 semi-grand yes types 1 2 3 mu 0.0 0.0 0.0
variable Swaps equal f_Aswap[2]/1.0
variable Attempts equal f_Aswap[1]/1.0

####################################
####    THERMO AND INTEGRATION
####################################
timestep 0.01
thermo 10000
thermo_style   custom   step  temp  epair vol cpu v_Attempts v_Swaps

####################################
####	EQUILIBRATION        #######
####################################
#THIS IS TO TEST
#PUT LARGER NUMBER WHEN DOING ACTUAL SIMULATIONS
run 100000
Neighbor list info ...
  update every 5 steps, delay 5 steps, check yes
  max neighbors/atom: 2000, page size: 100000
  master list distance cutoff = 2.42246
  ghost atom cutoff = 2.42246
  binsize = 1.21123, bins = 100 100 100
  1 neighbor lists, perpetual/occasional/extra = 1 0 0
  (1) pair soft, perpetual
      attributes: half, newton on
      pair build: half/bin/newton
      stencil: half/bin/3d/newton
      bin: standard
Per MPI rank memory allocation (min/avg/max) = 9.234 | 9.234 | 9.234 Mbytes
Step Temp E_pair Volume CPU v_Attempts v_Swaps 
       0            0            0      1728000            0            0            0 
   10000    1.0294079 0.0064934185      1728000    1.1042969          500          500 
   20000    0.9987672   0.01265543      1728000    1.9490891          500          500 
   30000    1.0377049 0.0053002516      1728000    2.7949619          500          500 
   40000   0.96298537   0.00420477      1728000    3.6510301          500          500 
   50000   0.95514074 4.5880284e-05      1728000    4.5040839          500          500 
   60000   0.97827728 4.9670865e-05      1728000     5.354028          500          500 
   70000   0.96772811 0.00068691548      1728000     6.257916          500          500 
   80000    1.0272917 0.0015087736      1728000      7.10395          500          500 
   90000    1.0539828 0.0015163033      1728000     7.926863          500          500 
  100000   0.98519253 0.0023363482      1728000    8.7599061          500          500 
Loop time of 8.7619 on 1 procs for 100000 steps with 500 atoms

Performance: 9860870.421 tau/day, 11413.044 timesteps/s
99.3% CPU use with 1 MPI tasks x 1 OpenMP threads

MPI task timing breakdown:
Section |  min time  |  avg time  |  max time  |%varavg| %total
---------------------------------------------------------------
Pair    | 0.59118    | 0.59118    | 0.59118    |   0.0 |  6.75
Bond    | 2.5019     | 2.5019     | 2.5019     |   0.0 | 28.55
Neigh   | 2.5228     | 2.5228     | 2.5228     |   0.0 | 28.79
Comm    | 0.12794    | 0.12794    | 0.12794    |   0.0 |  1.46
Output  | 0.019929   | 0.019929   | 0.019929   |   0.0 |  0.23
Modify  | 2.8982     | 2.8982     | 2.8982     |   0.0 | 33.08
Other   |            | 0.1        |            |       |  1.14

Nlocal:    500 ave 500 max 500 min
Histogram: 1 0 0 0 0 0 0 0 0 0
Nghost:    0 ave 0 max 0 min
Histogram: 1 0 0 0 0 0 0 0 0 0
Neighs:    847 ave 847 max 847 min
Histogram: 1 0 0 0 0 0 0 0 0 0

Total # of neighbors = 847
Ave neighs/atom = 1.694
Ave special neighs/atom = 1.996
Neighbor list builds = 4475
Dangerous builds = 0


unfix pushapart
unfix Aswap
reset_timestep 0

#######################################################
####	PAIRS -- REPULSIVE + REDS FERROMAGN 	#######
#######################################################
#ENERGYSCALE
variable Et equal ${E}/${Norm}
variable Et equal 0.9/${Norm}
variable Et equal 0.9/0.88585294441338

pair_style  lj/cut 1.8
pair_modify     shift yes
pair_coeff      * *  1.0 1.0 1.12246152962189

pair_coeff      1 1  ${Et} 1.0 1.8
pair_coeff      1 1  1.01596998201094 1.0 1.8
pair_coeff      1 2  1.0 1.0 1.12246152962189
pair_coeff      1 3  1.0 1.0 1.12246152962189

pair_coeff      2 2  ${Et} 1.0 1.8
pair_coeff      2 2  1.01596998201094 1.0 1.8
pair_coeff      2 3  1.0 1.0 1.12246152962189

pair_coeff      3 3  1.0 1.0 1.12246152962189
#######################################################


########################
## PER PRIMI VICINI   ##
########################
bond_style harmonic
special_bonds lj 1 1 1
  2 = max # of 1-2 neighbors
  2 = max # of 1-3 neighbors
  4 = max # of 1-4 neighbors
  6 = max # of special neighbors
bond_coeff 1 200 1.12246
#bond_style fene
#special_bonds fene
#bond_coeff 1 30 1.6 1.0 1.0

########################
## RECOLOR #############
########################
group Polymer type 1 2 3
500 atoms in group Polymer
variable smooth equal 10
variable dtsmooth equal ${Dt}/${smooth}
variable dtsmooth equal 100000/${smooth}
variable dtsmooth equal 100000/10
variable Nsmooth equal ${N}/${smooth}
variable Nsmooth equal 500/${smooth}
variable Nsmooth equal 500/10
fix Aswap Polymer atom/swap ${dtsmooth} ${Nsmooth} ${seedr} ${Temp} semi-grand yes types 1 2 3 mu 0.0 0.0 0.0
fix Aswap Polymer atom/swap 10000 ${Nsmooth} ${seedr} ${Temp} semi-grand yes types 1 2 3 mu 0.0 0.0 0.0
fix Aswap Polymer atom/swap 10000 50 ${seedr} ${Temp} semi-grand yes types 1 2 3 mu 0.0 0.0 0.0
fix Aswap Polymer atom/swap 10000 50 66 ${Temp} semi-grand yes types 1 2 3 mu 0.0 0.0 0.0
fix Aswap Polymer atom/swap 10000 50 66 1 semi-grand yes types 1 2 3 mu 0.0 0.0 0.0
variable Swaps equal f_Aswap[2]/1.0
variable Attempts equal f_Aswap[1]/1.0

####################################
####    DUMPS                 #######
####################################
##VMD
#dump 1 all custom 1000 ${folder}/${simname}.lammpstrj id mol type x y z
#dump_modify  1   format "%d %d %d %.5f %.5f %.5f"

##DAT
dump 2 all custom 100000 ${folder}/${simname}.* id type x y z ix iy iz
dump 2 all custom 100000 RW_Dt100000_E0.9/${simname}.* id type x y z ix iy iz
dump 2 all custom 100000 RW_Dt100000_E0.9/Poly.N500.RW1Dt100000E0.9.* id type x y z ix iy iz
#dump_modify   2   format "%d %d %.5f %.5f %.5f %d %d %d"

##CFG
#dump 3 all cfg 1000 ${folder}/CFG/${simname}.tot.*.cfg mass type xs ys zs id mol type
#dump_modify 3 element N C O Ca Xe

##XYZ
dump 4 all xyz 100000 XYZ_${simname}.xyz
dump 4 all xyz 100000 XYZ_Poly.N500.RW1Dt100000E0.9.xyz
dump_modify 4 element C O N Xe

###########################
thermo 10000
thermo_style   custom   step  temp  epair vol cpu v_Attempts v_Swaps
run 50000000
Neighbor list info ...
  update every 5 steps, delay 5 steps, check yes
  max neighbors/atom: 2000, page size: 100000
  master list distance cutoff = 3.1
  ghost atom cutoff = 3.1
  binsize = 1.55, bins = 78 78 78
  1 neighbor lists, perpetual/occasional/extra = 1 0 0
  (1) pair lj/cut, perpetual
      attributes: half, newton on
      pair build: half/bin/newton
      stencil: half/bin/3d/newton
      bin: standard
Per MPI rank memory allocation (min/avg/max) = 9.566 | 9.566 | 9.566 Mbytes
Step Temp E_pair Volume CPU v_Attempts v_Swaps 
       0   0.98519253    1.9938474      1728000            0            0            0 
   10000    0.9423094  -0.30447027      1728000   0.83691716           50           39 
   20000   0.96071171  -0.35069141      1728000    1.6588321          100           77 
   30000    1.0361784  -0.32373342      1728000    2.4695981          150          113 
   40000    1.0307759   -0.3387235      1728000    3.3218501          200          146 
   50000   0.99848319  -0.35766186      1728000    4.1297381          250          181 
   60000    1.0391878  -0.37364536      1728000    4.9410582          300          214 
   70000   0.98599791  -0.36984052      1728000     5.743927          350          251 
   80000   0.97324396  -0.34844673      1728000    6.5626681          400          281 
   90000   0.99266878  -0.37472762      1728000     7.400924          450          311 
  100000    1.0313862  -0.34790787      1728000    8.2420912          500          343 
  110000   0.98452681  -0.40213342      1728000       9.0683          550          377 
  120000   0.97882776  -0.38571391      1728000    9.9058411          600          409 
  130000   0.95646537  -0.40139448      1728000    10.732076          650          437 
  140000    0.9573241  -0.39915714      1728000     11.54886          700          468 
  150000    1.0121835  -0.37763904      1728000    12.378745          750          498 
  160000   0.98828906  -0.40481051      1728000    13.185003          800          526 
  170000    1.0447864  -0.39606978      1728000    14.010699          850          552 
  180000   0.95528908  -0.41247664      1728000    14.874728          900          585 
  190000    1.0526875  -0.41567895      1728000    15.712871          950          618 
  200000    1.0564553  -0.44750306      1728000    16.565034         1000          649 
  210000    1.0339726  -0.46150424      1728000    17.422895         1050          675 
  220000   0.99565052  -0.43671612      1728000    18.263886         1100          695 
  230000    1.0466759  -0.45852796      1728000     19.09892         1150          718 
  240000     1.059596  -0.46680701      1728000    19.933967         1200          744 
  250000    1.0001634  -0.42019265      1728000    20.761959         1250          768 
  260000   0.99159053  -0.43051319      1728000    21.578132         1300          798 
  270000   0.95562299  -0.45177065      1728000    22.391791         1350          830 
  280000   0.93875937  -0.43263679      1728000    23.200875         1400          859 
  290000    1.0034495  -0.43272626      1728000    24.018018         1450          889 
  300000   0.99276178  -0.43425718      1728000    24.851934         1500          914 
  310000      1.03591  -0.42480764      1728000    25.693924         1550          945 
  320000    0.9945567  -0.43876637      1728000    26.520006         1600          973 
  330000   0.98643155  -0.48634195      1728000    27.350883         1650         1005 
  340000    1.0003632  -0.44681597      1728000     28.17606         1700         1033 
  350000    1.0071292  -0.47453963      1728000    29.006829         1750         1059 
  360000    1.0384643  -0.47624364      1728000     29.84954         1800         1089 
  370000   0.96616857  -0.49433442      1728000    30.704803         1850         1117 
  380000    1.0298358  -0.50796903      1728000    31.539971         1900         1146 
  390000   0.96298483  -0.47222046      1728000    32.409591         1950         1181 
  400000    1.0117955  -0.46135354      1728000    33.245725         2000         1208 
  410000     0.994344  -0.44714487      1728000    34.058183         2050         1229 
  420000   0.96405961  -0.44860419      1728000    34.881649         2100         1258 
  430000   0.98946082  -0.46017472      1728000    35.713588         2150         1284 
  440000    1.0170976  -0.46331838      1728000    36.536988         2200         1318 
  450000    1.0264795  -0.48343389      1728000     37.36669         2250         1345 
  460000   0.98502431  -0.44467049      1728000    38.187766         2300         1372 
  470000   0.93875974  -0.44321948      1728000    38.999048         2350         1400 
  480000    0.9385227  -0.49554238      1728000    39.821909         2400         1429 
  490000   0.99212779  -0.48180822      1728000    40.651746         2450         1454 
  500000     1.000931  -0.46431358      1728000    41.477025         2500         1481 
  510000   0.99827555  -0.44381988      1728000    42.324014         2550         1508 
  520000    1.0470038  -0.43550432      1728000    43.144973         2600         1534 
  530000    1.0674009  -0.45436556      1728000    43.946955         2650         1564 
  540000    1.0137025   -0.4688798      1728000    44.764772         2700         1591 
  550000   0.98194337  -0.43632996      1728000    45.574849         2750         1621 
  560000    0.9704588  -0.43920166      1728000    46.393692         2800         1644 
  570000    1.0353652  -0.43009636      1728000    47.232864         2850         1676 
  580000    1.0411015  -0.41531591      1728000    48.077721         2900         1702 
  590000    1.0456384  -0.43094866      1728000    48.910847         2950         1725 
  600000    1.0057402  -0.45356803      1728000    49.749963         3000         1751 
  610000   0.99771164  -0.44007666      1728000     50.57951         3050         1777 
  620000   0.98608718  -0.44012131      1728000    51.404106         3100         1807 
  630000    1.0588973  -0.43059833      1728000    52.244884         3150         1838 
  640000   0.98129984  -0.44785781      1728000    53.071056         3200         1859 
  650000    1.0176965  -0.44132179      1728000    53.890093         3250         1886 
  660000    1.0411954  -0.45792632      1728000    54.723931         3300         1914 
  670000   0.97954472  -0.43093761      1728000    55.550945         3350         1938 
  680000   0.99579811  -0.46399519      1728000    56.376488         3400         1967 
  690000    1.0453912  -0.48347044      1728000    57.210677         3450         1995 
  700000    1.0290376  -0.46642771      1728000    58.037914         3500         2016 
  710000    1.0197329  -0.48373859      1728000     58.83991         3550         2045 
  720000    0.9943143  -0.47743844      1728000    59.652069         3600         2072 
  730000   0.99170504  -0.48100719      1728000    60.489795         3650         2098 
  740000   0.99734506  -0.47627424      1728000    61.309675         3700         2132 
  750000    1.0262804  -0.48821859      1728000     62.12985         3750         2152 
  760000   0.97111054  -0.48266448      1728000    62.947714         3800         2175 
  770000    1.0146166  -0.47820616      1728000    63.769779         3850         2204 
  780000   0.94399639  -0.46948094      1728000    64.591911         3900         2230 
  790000    1.0121682  -0.47514328      1728000    65.417933         3950         2258 
  800000   0.92980469  -0.45578411      1728000    66.255772         4000         2287 
  810000   0.95384897  -0.47238422      1728000    67.085942         4050         2313 
  820000   0.96351937  -0.46739797      1728000    67.918827         4100         2343 
  830000    0.9999557  -0.46389203      1728000    68.757956         4150         2373 
  840000    1.0612781  -0.48377238      1728000    69.590838         4200         2393 
  850000    1.0040474  -0.45830067      1728000    70.405915         4250         2421 
  860000   0.91542777  -0.43593162      1728000      71.2109         4300         2451 
  870000    1.0420915  -0.43712029      1728000    72.017933         4350         2480 
  880000    0.9521176  -0.45360257      1728000    72.827928         4400         2512 
  890000    0.9663827  -0.42779032      1728000    73.639861         4450         2543 
  900000   0.95632685  -0.41489815      1728000      74.4539         4500         2574 
  910000    1.0483291  -0.42049759      1728000    75.259935         4550         2602 
  920000    1.0237597   -0.4491305      1728000    76.072928         4600         2633 
  930000   0.99590055  -0.46306554      1728000    76.887615         4650         2661 
  940000    1.0073926  -0.45496297      1728000    77.695879         4700         2693 
  950000   0.99686568  -0.43783234      1728000    78.505788         4750         2718 
  960000   0.96351251  -0.44992563      1728000     79.31996         4800         2746 
  970000    0.9293166  -0.46460654      1728000    80.133841         4850         2780 
  980000   0.96923434  -0.41163751      1728000    80.940905         4900         2810 
  990000   0.97689471  -0.41820948      1728000    81.756785         4950         2839 
 1000000   0.93402103  -0.40821222      1728000    82.592897         5000         2865 
 1010000     1.052681   -0.4192375      1728000    83.409949         5050         2895 
 1020000    1.0134928  -0.44747975      1728000    84.234841         5100         2922 
 1030000    1.0660476  -0.45223438      1728000     85.05185         5150         2947 
 1040000    1.0567244  -0.44489596      1728000    85.863908         5200         2975 
 1050000     1.063551  -0.44203773      1728000    86.699911         5250         3003 
 1060000    1.0662678  -0.44018657      1728000    87.519774         5300         3027 
 1070000   0.94464682  -0.41209214      1728000    88.352925         5350         3056 
 1080000   0.99311094  -0.43910158      1728000     89.19166         5400         3081 
 1090000     1.007099   -0.4802673      1728000    90.020952         5450         3105 
 1100000     1.016668  -0.47906081      1728000    90.862942         5500         3131 
 1110000   0.93626085  -0.51694051      1728000     91.69596         5550         3157 
 1120000   0.97882157  -0.52698258      1728000    92.595793         5600         3175 
 1130000    1.0158207  -0.49521506      1728000     93.41392         5650         3203 
 1140000   0.94868046  -0.48359918      1728000    94.272731         5700         3228 
 1150000   0.96925712  -0.49945561      1728000    95.108835         5750         3257 
 1160000    1.0609146  -0.45294064      1728000    95.926851         5800         3287 
 1170000   0.98568338  -0.48596585      1728000    96.751948         5850         3306 
 1180000     1.019942  -0.53152764      1728000    97.577711         5900         3331 
 1190000   0.98804651  -0.50021691      1728000    98.409939         5950         3350 
 1200000   0.95846317  -0.48449052      1728000     99.24294         6000         3373 
 1210000    1.0092893  -0.51759089      1728000    100.07599         6050         3404 
 1220000     1.021311   -0.4971542      1728000    100.92693         6100         3430 
 1230000   0.93843807  -0.49914598      1728000    101.79279         6150         3457 
 1240000   0.98293733  -0.47994608      1728000    102.64292         6200         3484 
 1250000    1.0002442  -0.44498337      1728000    103.46583         6250         3513 
 1260000   0.95327749  -0.44775249      1728000    104.28598         6300         3540 
 1270000   0.98467122  -0.41819431      1728000    105.11096         6350         3567 
 1280000   0.98471703  -0.44200454      1728000     105.9269         6400         3597 
 1290000     1.016066  -0.47177331      1728000    106.75679         6450         3625 
 1300000    1.0321821  -0.48149748      1728000    107.59076         6500         3650 
 1310000    1.0244674  -0.45144348      1728000    108.40595         6550         3672 
 1320000    1.0487456   -0.4287724      1728000    109.21982         6600         3696 
 1330000    1.0393125  -0.44746648      1728000    110.03885         6650         3723 
 1340000    0.9583517   -0.4208817      1728000    110.84392         6700         3751 
 1350000    1.0181814  -0.43478946      1728000    111.65191         6750         3776 
 1360000    0.9559703  -0.41315042      1728000    112.46581         6800         3804 
 1370000   0.93532883  -0.41128763      1728000    113.26702         6850         3825 
 1380000   0.97091431  -0.43094767      1728000     114.0888         6900         3852 
 1390000   0.97084649  -0.43536366      1728000    114.89078         6950         3883 
 1400000   0.99992203  -0.45713846      1728000    115.71894         7000         3907 
 1410000    1.0140655  -0.46902959      1728000    116.53286         7050         3933 
 1420000    1.0234857  -0.44005276      1728000    117.35798         7100         3961 
 1430000       1.0431  -0.44257403      1728000    118.18798         7150         3991 
 1440000    1.0061666  -0.44123867      1728000    118.99798         7200         4027 
 1450000   0.97026472  -0.42915408      1728000    119.80593         7250         4057 
 1460000    1.0423081  -0.41244757      1728000    120.60198         7300         4089 
 1470000    1.0298631  -0.43412751      1728000    121.40589         7350         4123 
 1480000   0.94047876   -0.4369834      1728000    122.21982         7400         4147 
 1490000    1.0205841  -0.43448255      1728000    123.02698         7450         4177 
 1500000    1.0123961  -0.40937898      1728000    123.83964         7500         4207 
 1510000    1.0449106  -0.40223221      1728000    124.64278         7550         4238 
 1520000   0.99449349  -0.43335858      1728000    125.45195         7600         4270 
 1530000   0.95994522   -0.4087387      1728000    126.26201         7650         4310 
 1540000   0.98738727  -0.42688667      1728000    127.06902         7700         4339 
 1550000    1.0230147   -0.4393961      1728000    127.86895         7750         4375 
 1560000   0.95851234  -0.43415843      1728000    128.69282         7800         4403 
 1570000   0.98181204  -0.42937946      1728000    129.48688         7850         4427 
 1580000   0.99915117  -0.43205172      1728000    130.28992         7900         4458 
 1590000    0.9549255  -0.44420416      1728000    131.08347         7950         4488 
 1600000    1.0340734  -0.45601099      1728000    131.88515         8000         4523 
 1610000    1.0003814  -0.47376193      1728000    132.70714         8050         4553 
 1620000    1.0268549  -0.46348999      1728000    133.51212         8100         4571 
 1630000   0.99036982  -0.49002785      1728000    134.32801         8150         4605 
 1640000   0.97401973  -0.47413754      1728000    135.13817         8200         4637 
 1650000    1.0246437  -0.45288122      1728000    135.93878         8250         4666 
 1660000    1.0221745  -0.47322027      1728000    136.74511         8300         4695 
 1670000   0.96750958  -0.48279127      1728000    137.54937         8350         4724 
 1680000    1.0397912   -0.4691975      1728000    138.36644         8400         4744 
 1690000   0.96909376  -0.48789938      1728000    139.16787         8450         4764 
 1700000   0.97250771   -0.4659768      1728000    140.00226         8500         4787 
 1710000    1.0745034  -0.46796865      1728000    140.82007         8550         4813 
 1720000    1.0108111  -0.47681601      1728000    141.61789         8600         4835 
 1730000    1.0549521  -0.47897725      1728000    142.41603         8650         4863 
 1740000    1.0003012  -0.48731954      1728000    143.22796         8700         4895 
 1750000   0.92309662  -0.47423181      1728000    144.04312         8750         4923 
 1760000    1.0668748  -0.49516464      1728000    144.85318         8800         4952 
 1770000   0.95309881  -0.47229887      1728000     145.6801         8850         4976 
 1780000     1.032609  -0.50124052      1728000    146.49699         8900         5002 
 1790000    1.0183704  -0.48061891      1728000    147.32195         8950         5027 
 1800000   0.99357524  -0.45287364      1728000    148.14216         9000         5052 
 1810000    1.0163185  -0.46907336      1728000    148.95222         9050         5080 
 1820000    1.0005374   -0.4242229      1728000    149.75717         9100         5109 
 1830000    1.0216362  -0.43480918      1728000    150.55135         9150         5142 
 1840000     1.063493  -0.40073523      1728000    151.36056         9200         5171 
 1850000   0.98426897  -0.41183397      1728000    152.17328         9250         5198 
 1860000    1.0163956  -0.40367109      1728000    152.98269         9300         5229 
 1870000    1.0866764  -0.39445128      1728000    153.77999         9350         5261 
 1880000   0.96022903  -0.40047776      1728000    154.57134         9400         5284 
 1890000    1.0129395  -0.42152653      1728000    155.37206         9450         5313 
 1900000   0.96680628  -0.40579803      1728000    156.17539         9500         5340 
 1910000    1.0101003   -0.3870863      1728000    156.96979         9550         5374 
 1920000   0.98165578  -0.39449532      1728000    157.77163         9600         5403 
 1930000    1.0426874   -0.4198868      1728000    158.57592         9650         5434 
 1940000    1.0019319  -0.39588199      1728000    159.38928         9700         5467 
 1950000   0.97806152  -0.39288524      1728000    160.21344         9750         5494 
 1960000   0.93507073  -0.40781977      1728000    161.03986         9800         5525 
 1970000   0.96726086   -0.4000146      1728000    161.84801         9850         5550 
 1980000   0.99632264  -0.42790889      1728000    162.66813         9900         5581 
 1990000    1.0114506  -0.42508576      1728000    163.47199         9950         5611 
 2000000   0.98520284  -0.38224342      1728000    164.29615        10000         5641 
 2010000   0.96602815  -0.38365083      1728000     165.1091        10050         5671 
 2020000    1.0514268  -0.40473479      1728000    165.91617        10100         5704 
 2030000     1.028408  -0.40270848      1728000    166.74693        10150         5731 
 2040000    1.0113291  -0.40655933      1728000    167.55623        10200         5760 
 2050000    1.0000816  -0.40159396      1728000    168.36685        10250         5787 
 2060000    1.0026799  -0.43069343      1728000     169.1773        10300         5814 
 2070000    1.0064793   -0.4186386      1728000    170.00115        10350         5838 
 2080000     1.003148  -0.42819515      1728000    170.79822        10400         5871 
 2090000   0.92420523  -0.45185872      1728000    171.61788        10450         5897 
 2100000    1.0013683  -0.44145548      1728000    172.45687        10500         5929 
 2110000    1.0490451  -0.42941354      1728000    173.26029        10550         5955 
 2120000    1.0125219  -0.47462821      1728000    174.08394        10600         5984 
 2130000   0.96919399  -0.44687795      1728000     174.9012        10650         6013 
 2140000     1.022247  -0.45226186      1728000    175.71776        10700         6042 
 2150000   0.97866317  -0.42922967      1728000    176.51894        10750         6071 
 2160000    1.0440929  -0.44425804      1728000    177.32822        10800         6100 
 2170000    1.0332823  -0.43106977      1728000    178.14322        10850         6127 
 2180000    1.0001364  -0.43059154      1728000    178.95862        10900         6155 
 2190000    1.0328871  -0.43672612      1728000    179.77691        10950         6179 
 2200000    0.9833812  -0.43435578      1728000    180.60403        11000         6211 
 2210000    1.0051282  -0.42958755      1728000    181.43718        11050         6239 
 2220000   0.98342324  -0.41337176      1728000    182.26529        11100         6266 
 2230000    1.0367774  -0.40506049      1728000    183.07917        11150         6295 
 2240000   0.92981976  -0.41720716      1728000    183.90021        11200         6319 
 2250000   0.99024065  -0.44311545      1728000    184.71938        11250         6339 
 2260000    0.9935474  -0.44705485      1728000    185.54501        11300         6367 
 2270000    1.0573807  -0.44261882      1728000    186.36427        11350         6392 
 2280000    1.0085717  -0.44053769      1728000    187.18397        11400         6423 
 2290000    0.9654822  -0.41573156      1728000     187.9986        11450         6450 
 2300000    1.0188286  -0.46936881      1728000    188.82211        11500         6477 
 2310000    1.0201821  -0.47128617      1728000    189.65387        11550         6500 
 2320000   0.97215941  -0.46684971      1728000    190.47425        11600         6528 
 2330000   0.96770846   -0.4651213      1728000     191.3166        11650         6555 
 2340000   0.93652646  -0.46197991      1728000    192.16307        11700         6581 
 2350000   0.99031983  -0.47109171      1728000    192.98117        11750         6613 
 2360000      1.09201  -0.44569556      1728000     193.7971        11800         6633 
 2370000   0.93834665  -0.46367823      1728000    194.60812        11850         6659 
 2380000   0.99017842  -0.46329542      1728000      195.417        11900         6689 
 2390000    1.0489205  -0.45311433      1728000    196.22339        11950         6720 
 2400000   0.98348147  -0.47166078      1728000    197.04225        12000         6750 
 2410000     1.004536  -0.45876692      1728000    197.85348        12050         6774 
 2420000   0.97615164  -0.48566916      1728000    198.65466        12100         6801 
 2430000    1.0325758  -0.47215299      1728000    199.46125        12150         6825 
 2440000   0.99916932  -0.45164016      1728000    200.26129        12200         6853 
 2450000   0.98819157  -0.49619592      1728000    201.07803        12250         6878 
 2460000    1.0241963  -0.46535619      1728000    201.92209        12300         6907 
 2470000    0.9643256  -0.44371933      1728000    202.74418        12350         6929 
 2480000    1.0806729  -0.48417872      1728000    203.56022        12400         6956 
 2490000    1.0208098  -0.45684829      1728000     204.3721        12450         6985 
 2500000   0.96836497   -0.4151489      1728000    205.21997        12500         7014 
 2510000   0.96687501  -0.40686247      1728000    206.03474        12550         7041 
 2520000   0.96086382  -0.42803314      1728000    206.86012        12600         7064 
 2530000   0.95015914  -0.41408816      1728000    207.66787        12650         7096 
 2540000   0.99280712  -0.40658037      1728000    208.49307        12700         7121 
 2550000   0.98623653  -0.41851893      1728000     209.3179        12750         7148 
 2560000    1.0146598    -0.434338      1728000    210.13904        12800         7175 
 2570000    1.0574116  -0.43556195      1728000    210.95915        12850         7201 
 2580000   0.95548063  -0.43414115      1728000    211.76606        12900         7230 
 2590000   0.97118398  -0.47241771      1728000    212.58515        12950         7260 
 2600000   0.95940771  -0.41911782      1728000     213.4113        13000         7290 
 2610000    1.0289782  -0.43857056      1728000    214.22948        13050         7316 
 2620000   0.98599586  -0.46685436      1728000    215.03833        13100         7348 
 2630000    1.0255599  -0.42013466      1728000    215.84612        13150         7374 
 2640000     1.065941  -0.43080922      1728000     216.6603        13200         7408 
 2650000   0.99365819  -0.47138255      1728000    217.47505        13250         7435 
 2660000    1.0041857  -0.40278978      1728000    218.28329        13300         7465 
 2670000    1.0334222  -0.41916187      1728000    219.08991        13350         7490 
 2680000   0.98163502  -0.37705498      1728000    219.88722        13400         7526 
 2690000   0.98464581  -0.39737551      1728000    220.69905        13450         7553 
 2700000    1.0426028  -0.40375777      1728000    221.51596        13500         7583 
 2710000   0.97082705  -0.40051792      1728000       222.36        13550         7616 
 2720000    0.9485216  -0.45397879      1728000    223.20784        13600         7643 
 2730000    1.0426649  -0.42943316      1728000    224.03611        13650         7670 
 2740000    1.0416685  -0.42738436      1728000    224.84117        13700         7702 
 2750000    1.0247657   -0.4099231      1728000    225.64599        13750         7731 
 2760000   0.95670873  -0.39486137      1728000    226.47007        13800         7759 
 2770000   0.98598136  -0.41621107      1728000    227.29218        13850         7793 
 2780000   0.93319113  -0.43841664      1728000     228.1041        13900         7822 
 2790000    1.0394501  -0.42061095      1728000    228.91111        13950         7845 
 2800000    1.0447796  -0.43506591      1728000    229.74411        14000         7871 
 2810000    1.0225283  -0.41829396      1728000    230.57896        14050         7900 
 2820000   0.97380925  -0.42419804      1728000    231.45704        14100         7929 
 2830000    1.0563599  -0.44530969      1728000    232.28471        14150         7958 
 2840000   0.92720694  -0.44857683      1728000    233.10424        14200         7979 
 2850000    1.0644994  -0.45103058      1728000    233.96494        14250         8010 
 2860000   0.98848046  -0.42765228      1728000    234.85498        14300         8036 
 2870000   0.95329592  -0.43069686      1728000    235.71331        14350         8061 
 2880000   0.94618368  -0.40468333      1728000    236.59395        14400         8086 
 2890000    1.0191986  -0.39989587      1728000    237.42901        14450         8116 
 2900000   0.98501768   -0.3987837      1728000    238.25628        14500         8143 
 2910000    1.0566574  -0.42757414      1728000    239.07301        14550         8176 
 2920000   0.96543366  -0.43388372      1728000     239.9102        14600         8203 
 2930000    1.0491075  -0.40404465      1728000    240.78758        14650         8233 
 2940000    1.0677288  -0.39677221      1728000    241.67075        14700         8264 
 2950000   0.94986413  -0.41791436      1728000     242.5299        14750         8295 
 2960000    1.0366691  -0.49502688      1728000    243.37104        14800         8323 
 2970000    1.0151491  -0.44843033      1728000    244.22121        14850         8351 
 2980000    1.0878613  -0.42991515      1728000    245.04045        14900         8381 
 2990000    1.0086926  -0.42904224      1728000    245.88361        14950         8410 
 3000000    1.0536823  -0.43629824      1728000    246.73173        15000         8439 
 3010000    1.0767723  -0.41357772      1728000    247.56413        15050         8463 
 3020000   0.98849959  -0.41668197      1728000    248.38821        15100         8494 
 3030000    1.0181841  -0.40076459      1728000    249.22231        15150         8523 
 3040000    1.0068534  -0.39264797      1728000    250.04316        15200         8551 
 3050000   0.97587759  -0.41530368      1728000    250.86809        15250         8584 
 3060000    1.0092117  -0.38483019      1728000    251.67114        15300         8613 
 3070000    1.0101405  -0.37297137      1728000    252.46334        15350         8636 
 3080000   0.97282832   -0.3877927      1728000    253.26006        15400         8668 
 3090000   0.94132456  -0.40516837      1728000    254.06931        15450         8698 
 3100000     1.006868  -0.39804451      1728000    254.89705        15500         8729 
 3110000    1.0135609  -0.42553337      1728000    255.70313        15550         8761 
 3120000   0.99080625  -0.41791856      1728000     256.5062        15600         8790 
 3130000     1.023427  -0.38679128      1728000    257.30625        15650         8824 
 3140000    1.0458683   -0.3932861      1728000    258.09902        15700         8847 
 3150000   0.97879537  -0.39864297      1728000    258.88928        15750         8878 
 3160000    1.0443383  -0.39502653      1728000    259.70814        15800         8905 
 3170000     1.004102  -0.39191247      1728000    260.51799        15850         8935 
 3180000   0.95180466  -0.37089546      1728000    261.32191        15900         8964 
 3190000   0.99356825  -0.36618514      1728000    262.13313        15950         8996 
 3200000   0.91672242  -0.39578984      1728000    262.93922        16000         9033 
 3210000    1.0087135  -0.39595597      1728000    263.74707        16050         9060 
 3220000   0.96930711  -0.39300178      1728000    264.56392        16100         9091 
 3230000    1.0692442  -0.38903597      1728000    265.38014        16150         9123 
 3240000   0.96488099   -0.4299603      1728000    266.19632        16200         9157 
 3250000     1.050375  -0.40603735      1728000    267.01947        16250         9190 
 3260000    1.0110639  -0.42975498      1728000    267.83972        16300         9221 
 3270000    1.0302848  -0.40907384      1728000    268.66197        16350         9244 
 3280000   0.93286186  -0.41505963      1728000    269.47388        16400         9273 
 3290000    1.0715002  -0.41007587      1728000    270.29247        16450         9298 
 3300000   0.97843795  -0.40459882      1728000    271.11706        16500         9323 
 3310000    1.0388517  -0.42609023      1728000    271.92823        16550         9353 
 3320000   0.99629367  -0.39995114      1728000     272.7351        16600         9381 
 3330000   0.99247709  -0.42355445      1728000    273.53097        16650         9414 
 3340000   0.98370735  -0.43635831      1728000    274.33843        16700         9448 
 3350000    0.9735039  -0.43322462      1728000    275.16316        16750         9475 
 3360000   0.95089823  -0.39546244      1728000    275.98414        16800         9502 
 3370000   0.95282367  -0.42459441      1728000    276.79408        16850         9526 
 3380000    1.0157468  -0.41710211      1728000    277.62029        16900         9555 
 3390000   0.98034968   -0.4252619      1728000    278.43058        16950         9588 
 3400000    1.0381069  -0.41121446      1728000    279.27225        17000         9613 
 3410000    1.0834749  -0.42039432      1728000    280.10818        17050         9640 
 3420000   0.95819088  -0.43112701      1728000    280.96384        17100         9670 
 3430000    1.0045244  -0.40273407      1728000    281.79015        17150         9699 
 3440000    1.0466029  -0.41868419      1728000    282.62511        17200         9726 
 3450000   0.91904677   -0.4174929      1728000    283.45134        17250         9760 
 3460000    1.0082568   -0.4094402      1728000    284.28415        17300         9789 
 3470000    1.0112011  -0.41525057      1728000     285.1301        17350         9812 
 3480000   0.97969603  -0.40083532      1728000    285.95405        17400         9833 
 3490000   0.96527958  -0.40256331      1728000    286.77423        17450         9867 
 3500000    1.0095145  -0.40695664      1728000    287.59129        17500         9898 
 3510000   0.98650216  -0.41676362      1728000    288.39932        17550         9931 
 3520000    1.0149471  -0.42900795      1728000    289.45994        17600         9961 
 3530000   0.97538597  -0.44852591      1728000    290.33007        17650         9985 
 3540000    1.0278418  -0.41384066      1728000    291.15286        17700        10014 
 3550000    1.0256512  -0.44478076      1728000    291.96809        17750        10045 
 3560000    1.0145445  -0.41641399      1728000    292.78763        17800        10066 
 3570000   0.97530196  -0.40943179      1728000    293.60713        17850        10091 
 3580000    1.0308145  -0.42040095      1728000    294.40331        17900        10129 
 3590000    1.0338562  -0.45760375      1728000    295.21151        17950        10163 
 3600000    1.0609256    -0.425197      1728000    296.03159        18000        10194 
 3610000   0.96475398   -0.4658214      1728000    296.84004        18050        10225 
 3620000     1.004376  -0.43123822      1728000    297.65803        18100        10253 
 3630000   0.98261238  -0.41903917      1728000    298.45914        18150        10286 
 3640000    1.0018827  -0.42464986      1728000    299.25926        18200        10316 
 3650000   0.97479716  -0.45229527      1728000    300.08006        18250        10345 
 3660000   0.98004763  -0.44525759      1728000    300.88717        18300        10377 
 3670000    1.0343665  -0.44062187      1728000    301.69516        18350        10409 
 3680000    1.0452991  -0.47434466      1728000    302.51427        18400        10442 
 3690000   0.95795236  -0.47589928      1728000    303.34136        18450        10466 
 3700000    1.0143258  -0.44079627      1728000    304.15224        18500        10497 
 3710000   0.99578192  -0.44212825      1728000    304.96016        18550        10529 
 3720000    1.0151097  -0.43906484      1728000    305.78813        18600        10563 
 3730000   0.93710951  -0.44310755      1728000    306.59605        18650        10588 
 3740000   0.97892187  -0.44560471      1728000    307.41765        18700        10613 
 3750000    1.0018826  -0.44170419      1728000     308.2272        18750        10641 
 3760000    1.0695633  -0.42605051      1728000    309.07236        18800        10670 
 3770000    1.0259965  -0.40854779      1728000    309.89027        18850        10700 
 3780000   0.95439267  -0.42679107      1728000    310.69836        18900        10724 
 3790000    1.0263824  -0.45227012      1728000    311.51133        18950        10754 
 3800000   0.96089431  -0.45562576      1728000     312.3243        19000        10783 
 3810000   0.97740128  -0.45244366      1728000    313.12113        19050        10811 
 3820000    1.0750555  -0.43671611      1728000    313.95901        19100        10843 
 3830000   0.96776187  -0.43032443      1728000    314.76686        19150        10876 
 3840000   0.97294759  -0.44568719      1728000    315.58031        19200        10898 
 3850000   0.99978247   -0.4166495      1728000    316.39309        19250        10928 
 3860000    1.0572027   -0.4362442      1728000    317.36524        19300        10954 
 3870000   0.98068459   -0.4353887      1728000    318.19099        19350        10981 
 3880000    1.0823623  -0.45315269      1728000     319.0074        19400        11009 
 3890000    1.0435976  -0.45284976      1728000     319.8271        19450        11036 
 3900000   0.96794473  -0.44255268      1728000    320.64225        19500        11069 
 3910000     1.010768  -0.43092555      1728000    321.45231        19550        11099 
 3920000    1.0193669  -0.44917158      1728000    322.26638        19600        11132 
 3930000    1.0590328  -0.42101126      1728000    323.09231        19650        11161 
 3940000   0.98244813  -0.42143773      1728000    323.90924        19700        11189 
 3950000     1.049558  -0.41394953      1728000    324.73217        19750        11217 
 3960000    1.0299874  -0.40305624      1728000     325.5422        19800        11241 
 3970000   0.92145175   -0.4076187      1728000    326.36102        19850        11270 
 3980000    1.0264843   -0.4216278      1728000    327.22552        19900        11298 
 3990000    0.9627203   -0.4129532      1728000    328.06429        19950        11327 
 4000000    1.0560675  -0.39885385      1728000    328.89928        20000        11355 
 4010000   0.97209981  -0.38053329      1728000    329.68901        20050        11392 
 4020000     1.057346  -0.39481305      1728000    330.48837        20100        11416 
 4030000     1.033194  -0.39772678      1728000    331.29626        20150        11448 
 4040000    1.0011995  -0.41566994      1728000    332.09135        20200        11478 
 4050000   0.98272596  -0.41646516      1728000    332.88827        20250        11505 
 4060000   0.97650741   -0.4234741      1728000    333.68659        20300        11532 
 4070000   0.99891483  -0.41742965      1728000     334.4959        20350        11557 
 4080000   0.98383654  -0.42779759      1728000    335.29221        20400        11586 
 4090000    0.9681062  -0.45188286      1728000    336.09616        20450        11612 
 4100000     1.046438  -0.46841109      1728000    336.93702        20500        11645 
 4110000   0.97803176  -0.44397244      1728000    337.74734        20550        11674 
 4120000     1.050806  -0.45318441      1728000    338.57827        20600        11706 
 4130000    1.0982111  -0.44122883      1728000    339.39106        20650        11734 
 4140000   0.98944476  -0.45388331      1728000    340.20617        20700        11761 
 4150000    1.0168411  -0.41057677      1728000    341.02076        20750        11793 
 4160000   0.99799693   -0.4090509      1728000    341.84713        20800        11823 
 4170000    1.0061316  -0.40441383      1728000    342.68194        20850        11847 
 4180000    1.0193505   -0.4243381      1728000    343.50211        20900        11878 
 4190000   0.95236532  -0.41690454      1728000    344.32031        20950        11909 
 4200000   0.99130287  -0.45183389      1728000    345.15975        21000        11937 
 4210000    1.0154449  -0.43382482      1728000    345.98912        21050        11964 
 4220000   0.99201754  -0.43476055      1728000    346.80814        21100        11992 
 4230000    1.0256982  -0.46044974      1728000    347.62645        21150        12017 
 4240000   0.94232721  -0.44929327      1728000    348.43135        21200        12049 
 4250000    1.0003236   -0.4546498      1728000    349.24985        21250        12080 
 4260000   0.93163349  -0.50021929      1728000     350.0861        21300        12108 
 4270000    1.0194149  -0.44697638      1728000    350.92108        21350        12139 
 4280000    1.0579717  -0.43582719      1728000     351.7394        21400        12168 
 4290000    1.0032626   -0.4520449      1728000    352.57207        21450        12201 
 4300000   0.98713928  -0.46955363      1728000    353.41488        21500        12231 
 4310000   0.96005804  -0.51172556      1728000     354.2464        21550        12264 
 4320000    1.0227845  -0.46797702      1728000    355.08699        21600        12288 
 4330000   0.97884145  -0.48584407      1728000    355.90236        21650        12317 
 4340000    1.0117276  -0.47146617      1728000    356.72713        21700        12341 
 4350000    1.0078259  -0.49805996      1728000    357.63314        21750        12362 
 4360000    1.0102389   -0.4689441      1728000    358.49232        21800        12394 
 4370000    1.0001292  -0.48521059      1728000    359.39639        21850        12418 
 4380000   0.96506668  -0.47552133      1728000    360.22522        21900        12448 
 4390000   0.97686803  -0.45990162      1728000    361.05326        21950        12475 
 4400000    1.0414132  -0.46137948      1728000    361.87609        22000        12503 
 4410000   0.97309706  -0.43998752      1728000    362.68041        22050        12531 
 4420000     1.002044  -0.44424306      1728000    363.47926        22100        12556 
 4430000   0.96166578  -0.46475004      1728000    364.27635        22150        12591 
 4440000    1.0207333  -0.47116178      1728000    365.08041        22200        12616 
 4450000     1.018956  -0.49531747      1728000     365.8882        22250        12641 
 4460000    1.0267871  -0.48241803      1728000    366.69225        22300        12667 
 4470000    1.0101319  -0.45748747      1728000    367.49439        22350        12701 
 4480000    1.0379925  -0.47705963      1728000    368.32124        22400        12730 
 4490000   0.99567498  -0.49677795      1728000    369.15112        22450        12753 
 4500000   0.94410387  -0.49899168      1728000    369.97611        22500        12776 
 4510000   0.93448112  -0.46686617      1728000    370.80102        22550        12806 
 4520000   0.99948954  -0.45651794      1728000    371.62632        22600        12836 
 4530000    1.0461319  -0.47903626      1728000    372.43432        22650        12869 
 4540000   0.95631961  -0.47111169      1728000    373.25436        22700        12898 
 4550000    1.0396326  -0.49463349      1728000    374.10312        22750        12928 
 4560000    1.0447079  -0.49469734      1728000    374.94846        22800        12953 
 4570000   0.97418553  -0.48129405      1728000    375.78031        22850        12976 
 4580000     0.997539  -0.46798105      1728000    376.61213        22900        12998 
 4590000    1.0460137  -0.47500496      1728000    377.43544        22950        13025 
 4600000   0.97673265  -0.45632393      1728000     378.2564        23000        13053 
 4610000    1.0193554  -0.47072697      1728000    379.07315        23050        13078 
 4620000   0.98618394  -0.43732327      1728000    379.90337        23100        13110 
 4630000   0.99864343  -0.43879053      1728000    380.72233        23150        13137 
 4640000   0.92863194  -0.43068814      1728000    381.53384        23200        13169 
 4650000    1.0441397  -0.40738557      1728000    382.35594        23250        13192 
 4660000   0.99947336  -0.45596473      1728000    383.18518        23300        13222 
 4670000   0.97862263  -0.43291017      1728000    384.04354        23350        13247 
 4680000     1.016311  -0.46197505      1728000    384.88874        23400        13271 
 4690000    1.0235586  -0.44402323      1728000    385.70186        23450        13297 
 4700000    1.0467977  -0.46960682      1728000    386.50903        23500        13329 
 4710000   0.96113098  -0.45962225      1728000    387.32055        23550        13359 
 4720000   0.99893291  -0.47796987      1728000    388.13666        23600        13385 
 4730000   0.97707778  -0.46998711      1728000    388.94105        23650        13414 
 4740000   0.95948981  -0.44922336      1728000    389.75146        23700        13443 
 4750000     1.040861  -0.45124404      1728000    390.57264        23750        13469 
 4760000      1.02041  -0.42705138      1728000    391.38236        23800        13497 
 4770000    1.0417956  -0.43453081      1728000    392.19119        23850        13524 
 4780000    1.0249358  -0.40952687      1728000    392.98878        23900        13550 
 4790000    1.0350481  -0.40281316      1728000    393.78539        23950        13579 
 4800000   0.95972759  -0.39998256      1728000    394.58912        24000        13605 
 4810000     0.980439  -0.39996658      1728000    395.39777        24050        13628 
 4820000    1.0028392  -0.41036511      1728000    396.20216        24100        13657 
 4830000   0.97537979  -0.44176317      1728000    397.01009        24150        13686 
 4840000    1.0338181  -0.43498431      1728000    397.82516        24200        13716 
 4850000    0.9669057  -0.45386097      1728000    398.63925        24250        13748 
 4860000    0.9895655  -0.47562814      1728000    399.46641        24300        13774 
 4870000    1.0035031  -0.44032292      1728000    400.28369        24350        13806 
 4880000    1.0175531  -0.42611789      1728000    401.09641        24400        13836 
 4890000   0.98347492  -0.42602053      1728000     401.8986        24450        13861 
 4900000   0.96900952  -0.43736101      1728000    402.71644        24500        13890 
 4910000    1.0107351   -0.4390478      1728000    403.53053        24550        13917 
 4920000     1.011941  -0.45912897      1728000     404.3434        24600        13945 
 4930000   0.97197135  -0.44697078      1728000    405.15922        24650        13972 
 4940000   0.94524868  -0.44082584      1728000    405.96747        24700        14006 
 4950000     1.030255  -0.42404217      1728000     406.7755        24750        14038 
 4960000    1.0497884  -0.44896231      1728000    407.58941        24800        14070 
 4970000   0.98014173   -0.4438931      1728000    408.41135        24850        14095 
 4980000     1.051577  -0.43150223      1728000    409.22632        24900        14123 
 4990000    1.0562465  -0.42496125      1728000    410.04026        24950        14152 
 5000000    1.0431745  -0.45012295      1728000    410.86927        25000        14176 
 5010000    1.0161355  -0.46615225      1728000    411.68044        25050        14206 
 5020000    1.0390684   -0.4588824      1728000    412.50597        25100        14238 
 5030000   0.94339629  -0.44623885      1728000    413.33631        25150        14266 
 5040000   0.98497603   -0.4515781      1728000    414.14448        25200        14297 
 5050000    1.0419716   -0.4221157      1728000     414.9627        25250        14325 
 5060000    1.0126712  -0.44741044      1728000    415.77218        25300        14351 
 5070000    1.0185956  -0.42688117      1728000    416.61818        25350        14373 
 5080000    1.0200507  -0.45072619      1728000     417.4342        25400        14398 
 5090000   0.93333997  -0.42136752      1728000    418.25421        25450        14427 
 5100000    1.0521812  -0.49527442      1728000    419.08227        25500        14456 
 5110000   0.92509136  -0.45253609      1728000    419.90394        25550        14480 
 5120000     1.029444  -0.46178291      1728000     420.7171        25600        14514 
 5130000   0.93690972  -0.45508587      1728000    421.53937        25650        14536 
 5140000    1.0312999   -0.4624106      1728000     422.3504        25700        14570 
 5150000    1.0315281   -0.4235255      1728000    423.16148        25750        14601 
 5160000    1.0228778  -0.42546756      1728000    423.97146        25800        14628 
 5170000    1.0162811  -0.40485997      1728000    424.77998        25850        14653 
 5180000    1.0099862  -0.41748664      1728000    425.59231        25900        14687 
 5190000   0.97370628  -0.43524435      1728000    426.42233        25950        14713 
 5200000    1.0371844  -0.44753911      1728000    427.26305        26000        14747 
 5210000   0.98207681  -0.44214541      1728000    428.08218        26050        14773 
 5220000   0.99023553  -0.43415273      1728000    428.91026        26100        14801 
 5230000    1.0202128  -0.42636989      1728000    429.73836        26150        14830 
 5240000    1.0322991  -0.43693701      1728000    430.57021        26200        14854 
 5250000    1.0450269  -0.47237914      1728000    431.40143        26250        14887 
 5260000    1.0347071  -0.46005705      1728000    432.23747        26300        14908 
 5270000   0.99281441  -0.44098819      1728000    433.09683        26350        14927 
 5280000   0.99112427  -0.43967197      1728000    433.90544        26400        14953 
 5290000   0.98834654  -0.45237449      1728000     434.7565        26450        14984 
 5300000    1.0466233  -0.43400423      1728000     435.6072        26500        15010 
 5310000    1.0118246  -0.45464654      1728000     436.4465        26550        15037 
 5320000   0.94526291  -0.41207521      1728000    437.27555        26600        15061 
 5330000    0.9596057  -0.43297311      1728000    438.09454        26650        15089 
 5340000    1.0346198  -0.45356149      1728000    438.92022        26700        15116 
 5350000    1.0093646   -0.4623816      1728000    439.73643        26750        15147 
 5360000    1.0242597  -0.42796718      1728000    440.57815        26800        15169 
 5370000    1.0170201  -0.43550921      1728000    441.41239        26850        15194 
 5380000   0.99985643  -0.45550954      1728000    442.23635        26900        15224 
 5390000   0.91668653  -0.43899022      1728000    443.07529        26950        15245 
 5400000   0.98051467   -0.4091616      1728000    443.89236        27000        15266 
 5410000   0.98575362  -0.45605836      1728000    444.73009        27050        15293 
 5420000   0.98748023  -0.44338809      1728000    445.56849        27100        15322 
 5430000    1.0005971  -0.46276573      1728000    446.41128        27150        15346 
 5440000   0.97978885   -0.5053701      1728000     447.2451        27200        15377 
 5450000   0.99264823  -0.46044926      1728000    448.06126        27250        15413 
 5460000    1.0846724  -0.46715838      1728000    448.87922        27300        15441 
 5470000    1.0194624  -0.46255417      1728000    449.69227        27350        15478 
 5480000    1.0093924  -0.45407475      1728000    450.51247        27400        15506 
 5490000    1.0493688   -0.4857097      1728000    451.32753        27450        15532 
 5500000    1.0430226  -0.47147769      1728000    452.14937        27500        15559 
 5510000   0.97127601  -0.46647274      1728000    452.96142        27550        15585 
 5520000   0.93987737  -0.42761431      1728000    453.76837        27600        15617 
 5530000    0.9443124  -0.45712739      1728000    454.58649        27650        15647 
 5540000   0.98481047  -0.44573987      1728000     455.4063        27700        15676 
 5550000     1.032516  -0.42517282      1728000    456.24942        27750        15705 
 5560000   0.97428299  -0.44085774      1728000     457.0854        27800        15736 
 5570000   0.99055674   -0.4461893      1728000    457.90086        27850        15769 
 5580000    1.0670315  -0.46917252      1728000    458.71931        27900        15793 
 5590000   0.91120413  -0.46874163      1728000    459.54018        27950        15820 
 5600000    1.0007065   -0.4427073      1728000    460.37124        28000        15843 
 5610000    1.0435599  -0.45956762      1728000    461.20735        28050        15870 
 5620000     1.050424   -0.4657114      1728000     462.0571        28100        15899 
 5630000    1.0121004  -0.47548806      1728000    462.89906        28150        15925 
 5640000   0.97508188  -0.47179827      1728000    463.72732        28200        15956 
 5650000    1.0016027  -0.46996318      1728000    464.55229        28250        15991 
 5660000    1.0070271  -0.48107296      1728000    465.39102        28300        16015 
 5670000     1.018029  -0.48278125      1728000    466.24618        28350        16048 
 5680000   0.99930002  -0.49127687      1728000    467.07619        28400        16074 
 5690000    0.9994432  -0.44522618      1728000    467.90521        28450        16100 
 5700000    1.0195227  -0.47413188      1728000     468.7395        28500        16133 
 5710000   0.99324626   -0.4658904      1728000    469.55724        28550        16159 
 5720000   0.99960848  -0.45103393      1728000    470.40836        28600        16190 
 5730000     1.060004  -0.44216932      1728000    471.23114        28650        16215 
 5740000   0.98509742  -0.42894154      1728000    472.15068        28700        16246 
 5750000   0.97667036  -0.49671647      1728000    473.01329        28750        16279 
 5760000    1.0093143  -0.46839149      1728000    473.84528        28800        16313 
 5770000    1.0559793  -0.43337052      1728000    474.64847        28850        16341 
 5780000   0.98756635  -0.44261994      1728000    475.45108        28900        16368 
 5790000    1.0096679  -0.43855123      1728000    476.26656        28950        16398 
 5800000     1.044186  -0.42340569      1728000    477.07231        29000        16432 
 5810000   0.98884085  -0.43757472      1728000    477.87907        29050        16455 
 5820000    1.0701373   -0.4375942      1728000    478.68142        29100        16483 
 5830000    1.0752804  -0.45850425      1728000    479.50223        29150        16514 
 5840000   0.96533923  -0.40364702      1728000    480.33429        29200        16541 
 5850000   0.94680106  -0.42314186      1728000    481.26749        29250        16571 
 5860000   0.98491052  -0.42936025      1728000     482.0935        29300        16596 
 5870000   0.99984718  -0.42543387      1728000    482.91548        29350        16626 
 5880000    1.0346298   -0.4181226      1728000    483.72452        29400        16648 
 5890000   0.97503349  -0.43963547      1728000    484.56751        29450        16676 
 5900000    1.0058234  -0.42610555      1728000    485.39734        29500        16705 
 5910000   0.99994533  -0.43492026      1728000    486.20738        29550        16730 
 5920000    0.9627686  -0.41971189      1728000    487.02978        29600        16769 
 5930000    1.0124629  -0.43475572      1728000    487.84031        29650        16794 
 5940000   0.97785948   -0.4490596      1728000    488.65751        29700        16822 
 5950000   0.96499469  -0.45396494      1728000    489.47559        29750        16856 
 5960000   0.94287823  -0.48312141      1728000    490.32424        29800        16879 
 5970000   0.97048327  -0.46908594      1728000    491.14457        29850        16905 
 5980000   0.93626785  -0.45910632      1728000     491.9665        29900        16937 
 5990000   0.91433581   -0.4830193      1728000    492.78606        29950        16967 
 6000000   0.95481603  -0.45206991      1728000    493.61234        30000        16996 
 6010000   0.98405549   -0.4305625      1728000    494.41755        30050        17032 
 6020000    1.0313661  -0.43363462      1728000    495.22344        30100        17055 
 6030000   0.98655902  -0.45786229      1728000    496.02828        30150        17085 
 6040000    1.0715871  -0.41883353      1728000    496.83228        30200        17114 
 6050000   0.99681601  -0.44475828      1728000     497.6463        30250        17134 
 6060000    1.0296783   -0.4327434      1728000    498.45859        30300        17158 
 6070000    1.0150036   -0.4523097      1728000    499.27349        30350        17186 
 6080000   0.99967082  -0.43576855      1728000    500.09449        30400        17215 
 6090000   0.97915336  -0.41129237      1728000     500.9144        30450        17243 
 6100000    1.0063304  -0.40286678      1728000    501.72545        30500        17273 
 6110000    0.9585069  -0.40537549      1728000    502.53259        30550        17302 
 6120000    1.0168208  -0.41689133      1728000    503.34151        30600        17326 
 6130000    1.0179112  -0.43860537      1728000    504.15184        30650        17351 
 6140000    1.0286596  -0.43047641      1728000    504.95967        30700        17384 
 6150000   0.96018858  -0.46502484      1728000    505.76632        30750        17415 
 6160000    1.0024675  -0.43609729      1728000    506.58232        30800        17448 
 6170000   0.96216982  -0.44700709      1728000    507.39456        30850        17481 
 6180000   0.98728603  -0.42155542      1728000    508.19645        30900        17507 
 6190000   0.98045467  -0.43538917      1728000    508.99962        30950        17537 
 6200000   0.98712541  -0.41455213      1728000    509.81554        31000        17562 
 6210000   0.94168654  -0.40938812      1728000    510.61129        31050        17591 
 6220000    1.0076473  -0.39769247      1728000     511.4074        31100        17625 
 6230000   0.98131382  -0.41694214      1728000    512.20732        31150        17654 
 6240000   0.98059939  -0.39952287      1728000    512.99553        31200        17682 
 6250000    1.0238417  -0.38660967      1728000    513.78952        31250        17712 
 6260000   0.99286613  -0.37993296      1728000    514.59256        31300        17739 
 6270000   0.99623827  -0.39488611      1728000    515.38739        31350        17771 
 6280000    1.0524883  -0.40475305      1728000    516.18747        31400        17801 
 6290000    1.0949532  -0.43547249      1728000    516.99957        31450        17832 
 6300000    1.0239198  -0.41846705      1728000    517.80554        31500        17861 
 6310000   0.98215531  -0.38761118      1728000    518.60629        31550        17893 
 6320000   0.94910083  -0.40343046      1728000    519.40217        31600        17918 
 6330000    1.0377312  -0.39086916      1728000    520.19462        31650        17946 
 6340000   0.97272845  -0.38692972      1728000    520.99124        31700        17973 
 6350000   0.99005405  -0.39172462      1728000    521.78792        31750        17999 
 6360000   0.96631207  -0.41431964      1728000     522.5844        31800        18027 
 6370000   0.99233001  -0.39157403      1728000    523.38152        31850        18055 
 6380000   0.99939822  -0.41103527      1728000    524.18357        31900        18086 
 6390000   0.99897215  -0.42346705      1728000    524.98715        31950        18111 
 6400000    0.9540541  -0.45880066      1728000    525.79834        32000        18137 
 6410000   0.99177735  -0.44177316      1728000    526.60839        32050        18161 
 6420000     1.004002  -0.43634397      1728000    527.42056        32100        18193 
 6430000    1.0128535  -0.42804754      1728000    528.22547        32150        18221 
 6440000    1.0147501  -0.40300918      1728000    529.02432        32200        18254 
 6450000   0.94838606  -0.41572858      1728000    529.84536        32250        18278 
 6460000    1.0045146  -0.42879824      1728000    530.65065        32300        18313 
 6470000    1.0170923  -0.43713331      1728000    531.45463        32350        18343 
 6480000   0.98277005  -0.41833919      1728000    532.27435        32400        18372 
 6490000    1.0248204   -0.4136954      1728000      533.085        32450        18396 
 6500000    1.0484559  -0.38463103      1728000     533.8954        32500        18426 
 6510000    1.0014189  -0.41312116      1728000    534.70144        32550        18457 
 6520000   0.94376532  -0.46516749      1728000    535.52645        32600        18489 
 6530000    1.0065601  -0.42557441      1728000    536.33936        32650        18524 
 6540000   0.99189608  -0.46239594      1728000     537.1524        32700        18550 
 6550000    1.0328576  -0.45633275      1728000    537.97144        32750        18579 
 6560000    1.0280459  -0.43437789      1728000    538.79043        32800        18608 
 6570000   0.95688168  -0.43608691      1728000    539.60522        32850        18636 
 6580000    1.0278752  -0.47535404      1728000    540.42434        32900        18664 
 6590000   0.97325438  -0.45640553      1728000    541.25239        32950        18692 
 6600000    1.0142155  -0.43435171      1728000    542.07639        33000        18721 
 6610000    0.9920186  -0.46883094      1728000    542.89129        33050        18749 
 6620000   0.99605739  -0.48592719      1728000     543.7244        33100        18774 
 6630000   0.96710717  -0.46049598      1728000    544.53933        33150        18799 
 6640000   0.93250453  -0.43105864      1728000    545.36235        33200        18829 
 6650000    1.0168679  -0.42415977      1728000    546.18837        33250        18850 
 6660000    1.0425708  -0.43795689      1728000    546.99928        33300        18885 
 6670000    0.9879509  -0.40773017      1728000    547.81243        33350        18917 
 6680000   0.96905554  -0.43327499      1728000    548.61647        33400        18945 
 6690000    1.0023245  -0.37523499      1728000    549.42225        33450        18976 
 6700000   0.95071471  -0.38485449      1728000     550.2302        33500        19004 
 6710000    1.0087778  -0.39596033      1728000     551.0275        33550        19034 
 6720000   0.99460073  -0.37790576      1728000    551.82541        33600        19065 
 6730000   0.95836374  -0.37208066      1728000    552.61539        33650        19102 
 6740000    1.0345823   -0.3363813      1728000    553.41451        33700        19131 
 6750000    1.0225151  -0.36752231      1728000    554.20937        33750        19160 
 6760000   0.98350976  -0.39375931      1728000     555.0184        33800        19186 
 6770000    1.0066094  -0.39195257      1728000    555.82743        33850        19210 
 6780000    1.0302947  -0.39157793      1728000    556.63434        33900        19240 
 6790000    1.0136276  -0.37303539      1728000    557.43838        33950        19266 
 6800000    1.0295423  -0.41144922      1728000    558.24734        34000        19293 
 6810000   0.98838076  -0.40112676      1728000    559.06344        34050        19316 
 6820000   0.98851114  -0.39149992      1728000     559.8766        34100        19343 
 6830000   0.95676699  -0.38659228      1728000    560.69694        34150        19374 
 6840000   0.94402248  -0.38145881      1728000     561.5062        34200        19402 
 6850000   0.98841316  -0.36498162      1728000    562.31901        34250        19433 
 6860000   0.99941556  -0.39919355      1728000    563.14121        34300        19458 
 6870000    1.0039704  -0.38069546      1728000    563.95744        34350        19492 
 6880000   0.95992238   -0.3764115      1728000    564.76817        34400        19522 
 6890000    1.0257106  -0.39929535      1728000    565.57941        34450        19554 
 6900000    1.0249835  -0.39332276      1728000    566.38039        34500        19589 
 6910000   0.94700708  -0.37073335      1728000    567.20539        34550        19624 
 6920000    1.0612618   -0.3786597      1728000    568.01743        34600        19653 
 6930000    1.0345503  -0.34101023      1728000    568.81739        34650        19683 
 6940000    1.0272346  -0.36656463      1728000     569.6425        34700        19715 
 6950000     1.027578  -0.41490016      1728000    570.44322        34750        19746 
 6960000   0.99478571  -0.42684194      1728000    571.25038        34800        19771 
 6970000    1.0404916   -0.4160807      1728000    572.05757        34850        19800 
 6980000    1.0100964  -0.41819549      1728000    572.86815        34900        19825 
 6990000   0.99988736  -0.43529866      1728000    573.67529        34950        19853 
 7000000     1.060308  -0.42280407      1728000     574.4984        35000        19878 
 7010000   0.96031265  -0.44344196      1728000    575.33513        35050        19902 
 7020000   0.97524728  -0.48031368      1728000    576.15435        35100        19926 
 7030000   0.95336788  -0.43813141      1728000    576.96636        35150        19949 
 7040000    1.0037112  -0.41874162      1728000    577.77834        35200        19976 
 7050000    1.0855977  -0.40726102      1728000    578.58726        35250        20006 
 7060000    1.0044856   -0.3966764      1728000    579.39759        35300        20032 
 7070000   0.99047161   -0.3969156      1728000    580.21441        35350        20064 
 7080000    1.0224104  -0.38249049      1728000    581.02477        35400        20096 
 7090000    1.0018909  -0.37548498      1728000    581.82244        35450        20133 
 7100000   0.92797102  -0.39265785      1728000    582.63042        35500        20160 
 7110000   0.99644023   -0.4202979      1728000    583.43559        35550        20193 
 7120000   0.95835453  -0.38993648      1728000    584.23748        35600        20227 
 7130000    1.0235542  -0.40300263      1728000    585.02855        35650        20262 
 7140000   0.93953784  -0.41127297      1728000    585.83373        35700        20291 
 7150000    1.0502996  -0.42173355      1728000    586.63967        35750        20317 
 7160000    1.0250596  -0.41018444      1728000    587.44509        35800        20348 
 7170000    1.0032784  -0.42445016      1728000    588.24943        35850        20378 
 7180000    1.0156042  -0.42181167      1728000    589.04952        35900        20400 
 7190000   0.95843738   -0.4067128      1728000    589.84647        35950        20427 
 7200000     1.018479  -0.42459992      1728000    590.65549        36000        20455 
 7210000   0.94538811   -0.4157662      1728000     591.4514        36050        20483 
 7220000     1.013017  -0.43947289      1728000    592.25428        36100        20512 
 7230000    1.0039753  -0.40576386      1728000    593.05344        36150        20542 
 7240000   0.96034848  -0.42254757      1728000    593.84435        36200        20572 
 7250000   0.99016611  -0.41071353      1728000    594.63434        36250        20599 
 7260000    0.9529442  -0.41888211      1728000    595.42754        36300        20632 
 7270000   0.97370624  -0.40903905      1728000    596.22227        36350        20663 
 7280000    1.0082371  -0.42142099      1728000    597.02219        36400        20690 
 7290000   0.96290486  -0.43636775      1728000    597.82855        36450        20715 
 7300000    1.0726564   -0.4298743      1728000    598.63838        36500        20749 
 7310000    1.0085916   -0.4053394      1728000    599.45247        36550        20772 
 7320000    1.0691956  -0.41332659      1728000    600.25651        36600        20797 
 7330000   0.97035235  -0.41210116      1728000    601.06451        36650        20824 
 7340000    1.0384098  -0.42690252      1728000    601.86441        36700        20852 
 7350000    1.0411113  -0.45514574      1728000    602.68946        36750        20879 
 7360000    1.0013132  -0.49604451      1728000    603.50613        36800        20899 
 7370000   0.99334989  -0.45089244      1728000    604.32446        36850        20922 
 7380000   0.98608244  -0.45028657      1728000    605.12938        36900        20949 
 7390000    1.0309345  -0.46665245      1728000    605.93744        36950        20982 
 7400000    0.9974593  -0.47088155      1728000    606.76434        37000        21005 
 7410000   0.97083419  -0.47312937      1728000    607.59144        37050        21035 
 7420000    0.9904281  -0.47279412      1728000    608.41752        37100        21061 
 7430000    1.0012906  -0.47388403      1728000    609.23048        37150        21085 
 7440000    0.9370948  -0.46126357      1728000    610.05737        37200        21108 
 7450000    1.0166279  -0.47460463      1728000    610.87444        37250        21135 
 7460000    1.0151493   -0.5137073      1728000    611.69546        37300        21160 
 7470000   0.96171454  -0.47936827      1728000    612.50567        37350        21187 
 7480000    1.0125341  -0.49087403      1728000    613.31555        37400        21218 
 7490000    1.0266623  -0.46580802      1728000    614.12245        37450        21249 
 7500000    1.0047704   -0.4719327      1728000    614.93747        37500        21276 
 7510000    1.0229085  -0.46754883      1728000    615.75251        37550        21303 
 7520000    0.9889197  -0.45399725      1728000    616.56443        37600        21333 
 7530000   0.99765411  -0.41636535      1728000    617.36851        37650        21364 
 7540000    1.0082132  -0.41268799      1728000    618.17249        37700        21393 
 7550000    1.0257382  -0.43219374      1728000    618.97041        37750        21420 
 7560000    1.0251347  -0.42825936      1728000    619.77181        37800        21449 
 7570000    1.0111071  -0.42735669      1728000    620.57634        37850        21482 
 7580000     1.073113  -0.44142335      1728000    621.37753        37900        21513 
 7590000    1.0032726  -0.43340169      1728000    622.18257        37950        21542 
 7600000      1.03282  -0.44117873      1728000     622.9993        38000        21569 
 7610000   0.94145753  -0.45611972      1728000    623.80751        38050        21599 
 7620000    1.0009617  -0.43783288      1728000    624.62239        38100        21629 
 7630000    1.0198443  -0.42840078      1728000    625.42853        38150        21662 
 7640000   0.96896947  -0.42975698      1728000    626.22548        38200        21692 
 7650000     1.022347  -0.43097063      1728000    627.03453        38250        21720 
 7660000   0.94861356  -0.44360933      1728000    627.83291        38300        21748 
 7670000    0.9596652  -0.40695189      1728000    628.62871        38350        21776 
 7680000   0.97107054  -0.39884764      1728000    629.42264        38400        21813 
 7690000   0.99695006  -0.44196305      1728000    630.22095        38450        21840 
 7700000   0.95407831  -0.43549159      1728000    631.03138        38500        21870 
 7710000    1.0299046  -0.41433714      1728000    631.83303        38550        21899 
 7720000    1.0091383  -0.43470248      1728000    632.63245        38600        21928 
 7730000   0.98883729  -0.38836062      1728000    633.42043        38650        21960 
 7740000   0.94826383  -0.39402991      1728000    634.23357        38700        21990 
 7750000    1.0101807  -0.40154494      1728000    635.07347        38750        22019 
 7760000   0.99853495  -0.41919603      1728000     635.8944        38800        22048 
 7770000    1.0207737  -0.39729498      1728000    636.71733        38850        22072 
 7780000    1.0206525  -0.39120077      1728000    637.52117        38900        22103 
 7790000    1.0537487  -0.39387466      1728000    638.31641        38950        22134 
 7800000    0.9720906  -0.40585369      1728000    639.12555        39000        22161 
 7810000   0.97467386  -0.41956371      1728000    639.92042        39050        22190 
 7820000     1.013936  -0.42206423      1728000    640.71645        39100        22220 
 7830000   0.98092624  -0.39569941      1728000    641.50927        39150        22248 
 7840000   0.97907446  -0.42763799      1728000    642.31343        39200        22275 
 7850000    1.0433805  -0.43705314      1728000    643.11941        39250        22305 
 7860000    1.0122339  -0.41238547      1728000    643.91956        39300        22338 
 7870000    1.0045708  -0.40940685      1728000    644.73344        39350        22364 
 7880000   0.97409482  -0.40449146      1728000    645.55946        39400        22387 
 7890000    0.9561562  -0.36749414      1728000    646.39443        39450        22416 
 7900000   0.99593221  -0.41688866      1728000    647.25283        39500        22450 
 7910000    1.0613453  -0.40075523      1728000    648.06539        39550        22479 
 7920000    1.0511425  -0.41151774      1728000    648.90344        39600        22503 
 7930000    1.0137185     -0.40408      1728000    649.73444        39650        22534 
 7940000    1.0273028  -0.39679422      1728000    650.54253        39700        22569 
 7950000    1.0628166  -0.39211094      1728000    651.34241        39750        22600 
 7960000    1.0710707  -0.38966782      1728000     652.1475        39800        22628 
 7970000    1.0062804  -0.40379573      1728000    652.95731        39850        22659 
 7980000   0.98960553  -0.38941764      1728000    653.76951        39900        22687 
 7990000    1.0222621  -0.40122203      1728000     654.5836        39950        22715 
 8000000    1.0350853  -0.39761665      1728000    655.41149        40000        22749 
 8010000   0.98535492  -0.42176089      1728000     656.2254        40050        22777 
 8020000   0.99996447  -0.41119906      1728000    657.03142        40100        22805 
 8030000     0.990536  -0.43827386      1728000     657.8424        40150        22835 
 8040000    1.0204344   -0.4461433      1728000     658.6516        40200        22863 
 8050000   0.98545238  -0.41568774      1728000    659.47453        40250        22897 
 8060000   0.96745878  -0.43706178      1728000    660.28739        40300        22922 
 8070000   0.98447426  -0.42655979      1728000    661.10055        40350        22949 
 8080000    1.0567495  -0.40507232      1728000    661.91347        40400        22976 
 8090000   0.98763779  -0.42306264      1728000    662.71632        40450        23008 
 8100000    1.0530597  -0.40174402      1728000    663.55655        40500        23035 
 8110000   0.98193268   -0.4330865      1728000    664.36641        40550        23067 
 8120000   0.97909451  -0.36753228      1728000    665.17657        40600        23100 
 8130000   0.95743002  -0.39157842      1728000    665.98761        40650        23130 
 8140000    1.0226428  -0.38101188      1728000     666.7924        40700        23159 
 8150000   0.99750328  -0.41395052      1728000    667.60031        40750        23189 
 8160000    1.0596064  -0.41619127      1728000    668.41447        40800        23222 
 8170000   0.98741796  -0.43004989      1728000    669.23347        40850        23252 
 8180000   0.97286684  -0.44084455      1728000    670.04444        40900        23275 
 8190000     1.003059  -0.45837736      1728000    670.86837        40950        23303 
 8200000    1.0528851  -0.45289891      1728000    671.69942        41000        23336 
 8210000    0.9926265  -0.46408942      1728000    672.53037        41050        23359 
 8220000    1.0307257  -0.50618356      1728000    673.38152        41100        23390 
 8230000    1.0176962  -0.53268906      1728000    674.24546        41150        23419 
 8240000   0.98392668  -0.49271813      1728000    675.09162        41200        23439 
 8250000    1.0103823  -0.47429542      1728000    675.92051        41250        23464 
 8260000   0.97500315  -0.47522017      1728000    676.75238        41300        23490 
 8270000    1.0111448  -0.43134334      1728000    677.57437        41350        23515 
 8280000    1.0439049  -0.41000146      1728000    678.39648        41400        23541 
 8290000    1.0198587  -0.41924821      1728000    679.21452        41450        23574 
 8300000   0.95900899  -0.46500609      1728000    680.06321        41500        23601 
 8310000   0.98348959  -0.47803877      1728000     680.8807        41550        23631 
 8320000    1.0392906  -0.46093066      1728000     681.7009        41600        23654 
 8330000    1.1010793  -0.50309551      1728000    682.52818        41650        23680 
 8340000   0.97242505   -0.5376826      1728000    683.37477        41700        23710 
 8350000   0.96871698  -0.51850756      1728000    684.20387        41750        23737 
 8360000    1.0174013  -0.52392409      1728000    685.04167        41800        23760 
 8370000   0.98395175  -0.52490923      1728000    685.88883        41850        23790 
 8380000    1.0475251  -0.47016068      1728000    686.72541        41900        23811 
 8390000   0.99444513  -0.49167552      1728000    687.54549        41950        23843 
 8400000    1.0569653  -0.47726948      1728000    688.37544        42000        23872 
 8410000    1.0160247  -0.45389591      1728000    689.20354        42050        23895 
 8420000   0.94435024  -0.47109999      1728000    690.02811        42100        23918 
 8430000   0.97041936  -0.48792604      1728000    690.85153        42150        23944 
 8440000     1.061578   -0.4623197      1728000    691.66106        42200        23974 
 8450000   0.99387923  -0.48341266      1728000    692.48063        42250        24002 
 8460000   0.98660596  -0.50840742      1728000    693.30629        42300        24036 
 8470000    1.0092559  -0.49882429      1728000    694.13394        42350        24065 
 8480000    1.0321276   -0.4734691      1728000    694.95372        42400        24091 
 8490000    1.0068753  -0.45259484      1728000    695.76974        42450        24116 
 8500000    1.0559101  -0.46866817      1728000      696.618        42500        24141 
 8510000   0.98906535  -0.45946082      1728000    697.44964        42550        24167 
 8520000    1.0170594  -0.48331318      1728000    698.27085        42600        24192 
 8530000    1.0009641  -0.47446665      1728000    699.10064        42650        24216 
 8540000   0.99731422  -0.44716256      1728000    699.93444        42700        24244 
 8550000   0.94721111  -0.51886555      1728000    700.76661        42750        24271 
 8560000     1.029855  -0.47661445      1728000    701.58624        42800        24295 
 8570000   0.95849987  -0.51063376      1728000    702.40916        42850        24322 
 8580000   0.97398897  -0.48161362      1728000    703.24158        42900        24346 
 8590000   0.99828592  -0.46842313      1728000    704.06835        42950        24366 
 8600000   0.98619862  -0.46425693      1728000     704.8986        43000        24394 
 8610000    1.0070392  -0.45474992      1728000     705.7155        43050        24417 
 8620000    1.0456562  -0.46153545      1728000    706.53448        43100        24444 
 8630000    1.0005587   -0.4703052      1728000    707.35653        43150        24472 
 8640000   0.94538975  -0.45090285      1728000     708.1895        43200        24498 
 8650000    1.0144935  -0.44873215      1728000    709.01445        43250        24524 
 8660000   0.97110608  -0.42758227      1728000    709.84464        43300        24557 
 8670000   0.95391567  -0.42307766      1728000    710.66005        43350        24591 
 8680000    1.0441898  -0.46529378      1728000    711.47822        43400        24619 
 8690000    1.0416323  -0.46877914      1728000     712.2965        43450        24648 
 8700000   0.98907946  -0.48015181      1728000    713.14969        43500        24672 
 8710000   0.98644431  -0.46085399      1728000    713.98968        43550        24699 
 8720000    1.0119901   -0.4742399      1728000     714.8386        43600        24724 
 8730000   0.88260136  -0.44918835      1728000    715.67339        43650        24751 
 8740000    1.0934136  -0.46985451      1728000    716.49361        43700        24777 
 8750000   0.97724796   -0.4591564      1728000     717.3074        43750        24798 
 8760000   0.96786588   -0.4348092      1728000    718.12206        43800        24821 
 8770000   0.97020178  -0.45311617      1728000    718.94256        43850        24854 
 8780000    1.0715523  -0.45453129      1728000    719.78854        43900        24879 
 8790000   0.87973463  -0.44909623      1728000    720.63474        43950        24899 
 8800000    0.9504919   -0.4280103      1728000    721.45339        44000        24922 
 8810000    1.0101423  -0.41182436      1728000    722.26672        44050        24951 
 8820000    1.0093992  -0.42802659      1728000    723.07934        44100        24987 
 8830000   0.96715556  -0.44860814      1728000    723.89553        44150        25013 
 8840000     1.046208  -0.42099111      1728000    724.71072        44200        25039 
 8850000    1.0566541   -0.4431893      1728000    725.53013        44250        25068 
 8860000   0.96210617  -0.43344732      1728000    726.35038        44300        25097 
 8870000    0.9887463  -0.40372849      1728000    727.16157        44350        25126 
 8880000   0.95453831  -0.42754075      1728000    727.97584        44400        25149 
 8890000   0.99528986  -0.41611875      1728000    728.80418        44450        25180 
 8900000   0.91798308  -0.41708979      1728000    729.61365        44500        25214 
 8910000    1.0195796  -0.40348641      1728000    730.41635        44550        25242 
 8920000    0.9528688  -0.43623433      1728000    731.22389        44600        25274 
 8930000   0.97566465  -0.40412303      1728000    732.03066        44650        25304 
 8940000    1.0332431  -0.41607212      1728000    732.84267        44700        25342 
 8950000    0.9499706  -0.40984287      1728000    733.65843        44750        25376 
 8960000   0.98774196  -0.38475661      1728000    734.47029        44800        25407 
 8970000    1.0060506  -0.40455213      1728000    735.29043        44850        25434 
 8980000    1.0351893  -0.41057108      1728000     736.1064        44900        25467 
 8990000    1.0306258  -0.40674013      1728000    736.92725        44950        25490 
 9000000    1.0478231  -0.42626616      1728000    737.76742        45000        25524 
 9010000    1.0401977  -0.40749133      1728000    738.59268        45050        25545 
 9020000   0.95286246   -0.4081696      1728000    739.40252        45100        25578 
 9030000   0.98197826  -0.42679844      1728000    740.20946        45150        25610 
 9040000    1.0645557  -0.41809799      1728000    741.03435        45200        25638 
 9050000    1.0068138  -0.40347833      1728000      741.848        45250        25670 
 9060000   0.94743622  -0.44378867      1728000    742.66671        45300        25700 
 9070000   0.99075386  -0.41055116      1728000     743.4751        45350        25724 
 9080000   0.99744855  -0.45272488      1728000    744.30048        45400        25754 
 9090000   0.95432657  -0.41114751      1728000    745.12856        45450        25785 
 9100000    1.0175848  -0.41406971      1728000    745.96555        45500        25812 
 9110000    1.0436403  -0.43192824      1728000    746.79411        45550        25844 
 9120000    1.0081468  -0.42754661      1728000    747.61526        45600        25872 
 9130000     1.007271  -0.44195269      1728000    748.43324        45650        25903 
 9140000   0.98896164  -0.44260764      1728000    749.23533        45700        25934 
 9150000    1.0004187   -0.4519214      1728000    750.06151        45750        25958 
 9160000    0.9301429  -0.48615088      1728000    750.88189        45800        25980 
 9170000    1.0352808  -0.46045621      1728000    751.69868        45850        26006 
 9180000    1.0004714  -0.45731096      1728000    752.50345        45900        26037 
 9190000   0.95351505  -0.44134005      1728000    753.31039        45950        26064 
 9200000   0.96559325  -0.46672692      1728000    754.13483        46000        26089 
 9210000    1.0377399  -0.43879464      1728000    754.94856        46050        26115 
 9220000    1.0338794  -0.42405501      1728000     755.7656        46100        26136 
 9230000   0.94610873  -0.42127284      1728000    756.58527        46150        26168 
 9240000    1.0439496  -0.41514397      1728000     757.3996        46200        26196 
 9250000    1.0269789  -0.41208805      1728000    758.20364        46250        26228 
 9260000    1.0313637  -0.41125915      1728000    759.01519        46300        26257 
 9270000    1.0242941   -0.4063001      1728000    759.81869        46350        26283 
 9280000    1.0017732  -0.39866285      1728000    760.62357        46400        26309 
 9290000   0.97819449  -0.38833504      1728000    761.43545        46450        26338 
 9300000    1.0744666  -0.42116737      1728000    762.25597        46500        26362 
 9310000   0.95528307  -0.42551421      1728000    763.06654        46550        26388 
 9320000   0.97893711  -0.43935284      1728000    763.88944        46600        26420 
 9330000   0.95201367  -0.45044826      1728000    764.70148        46650        26448 
 9340000    1.0277495  -0.44705742      1728000    765.51765        46700        26473 
 9350000    1.0285863  -0.45716604      1728000    766.34356        46750        26500 
 9360000   0.99844301  -0.46610436      1728000     767.1606        46800        26531 
 9370000    1.0578909  -0.46061761      1728000    767.97572        46850        26559 
 9380000    1.0001426  -0.47145747      1728000    768.78364        46900        26591 
 9390000   0.98469839  -0.43362655      1728000    769.59354        46950        26618 
 9400000   0.97719023  -0.42678104      1728000     770.4125        47000        26643 
 9410000    1.0687812  -0.43210574      1728000    771.21366        47050        26674 
 9420000   0.95926076  -0.42555409      1728000    772.02659        47100        26708 
 9430000   0.97373906  -0.42217397      1728000    772.83867        47150        26733 
 9440000   0.99919017  -0.46719759      1728000    773.64151        47200        26764 
 9450000   0.99077283  -0.42325248      1728000    774.44943        47250        26790 
 9460000    1.0554752  -0.44427292      1728000    775.26552        47300        26812 
 9470000   0.99631492  -0.43174175      1728000    776.06967        47350        26844 
 9480000   0.95295222  -0.45150717      1728000    776.89363        47400        26875 
 9490000   0.96283467  -0.44262667      1728000      777.716        47450        26912 
 9500000   0.99357829  -0.43377522      1728000    778.54886        47500        26943 
 9510000   0.98236022  -0.41714671      1728000    779.37257        47550        26971 
 9520000    1.0283944  -0.44878575      1728000    780.19361        47600        26994 
 9530000    0.9586371  -0.44940899      1728000    781.00748        47650        27023 
 9540000    1.0185228  -0.44482089      1728000    781.81769        47700        27058 
 9550000   0.99066097  -0.43711688      1728000    782.62048        47750        27086 
 9560000    0.9306219  -0.46391784      1728000    783.43171        47800        27116 
 9570000    1.0901327  -0.44102187      1728000    784.24352        47850        27145 
 9580000    1.0377423  -0.42182419      1728000     785.0546        47900        27171 
 9590000    1.0201568  -0.43707848      1728000    785.85556        47950        27205 
 9600000    1.0231247  -0.45160151      1728000    786.70824        48000        27235 
 9610000    1.0056598  -0.47312322      1728000    787.52869        48050        27269 
 9620000   0.96374253  -0.43138894      1728000    788.34269        48100        27297 
 9630000    1.0486938  -0.45414949      1728000    789.16241        48150        27322 
 9640000   0.99876133   -0.4733072      1728000    789.98696        48200        27350 
 9650000    1.0286064  -0.46668979      1728000    790.79958        48250        27380 
 9660000   0.94000844  -0.41645576      1728000    791.60587        48300        27406 
 9670000    1.0032113  -0.44674824      1728000    792.42269        48350        27436 
 9680000    1.0033342  -0.43165078      1728000    793.23174        48400        27464 
 9690000    1.0685757  -0.43959247      1728000    794.02845        48450        27497 
 9700000   0.98340229  -0.45394145      1728000    794.83059        48500        27528 
 9710000   0.97644919  -0.43040268      1728000    795.62835        48550        27557 
 9720000    1.0000211  -0.46190306      1728000    796.43999        48600        27586 
 9730000    1.0100816  -0.44309719      1728000    797.26445        48650        27611 
 9740000   0.99292402  -0.46166809      1728000    798.07957        48700        27638 
 9750000    1.0082374  -0.45440121      1728000    798.90872        48750        27662 
 9760000   0.99983858  -0.42447237      1728000    799.71107        48800        27694 
 9770000    1.0165326  -0.41321834      1728000    800.52424        48850        27725 
 9780000   0.99590977   -0.4296587      1728000    801.33648        48900        27756 
 9790000    1.0233043   -0.4431747      1728000    802.15749        48950        27782 
 9800000   0.92563671   -0.4097305      1728000    802.97448        49000        27806 
 9810000   0.98692203  -0.41786489      1728000    803.78911        49050        27838 
 9820000   0.97583053  -0.42421526      1728000    804.59281        49100        27867 
 9830000    1.0210352  -0.42916138      1728000    805.39399        49150        27891 
 9840000    1.0525172  -0.47682354      1728000    806.21179        49200        27917 
 9850000   0.94743613  -0.47382935      1728000    807.03159        49250        27947 
 9860000     1.041043  -0.53385908      1728000    807.87151        49300        27980 
 9870000   0.98991678  -0.49311776      1728000    808.70635        49350        28000 
 9880000    1.0076816  -0.48903255      1728000    809.52538        49400        28028 
 9890000   0.98406352  -0.47736299      1728000    810.33452        49450        28046 
 9900000   0.98491047  -0.48836269      1728000     811.1626        49500        28075 
 9910000    1.0283534  -0.47116445      1728000    811.97633        49550        28107 
 9920000    0.9871762  -0.51287264      1728000    812.78686        49600        28135 
 9930000   0.99976823  -0.47556263      1728000    813.59575        49650        28167 
 9940000   0.97460154  -0.46193578      1728000    814.40148        49700        28189 
 9950000     1.012511  -0.47796666      1728000    815.21712        49750        28214 
 9960000   0.93041481  -0.51338745      1728000    816.03753        49800        28235 
 9970000    1.0399489    -0.483351      1728000    816.84784        49850        28263 
 9980000    1.0376304  -0.49342892      1728000    817.68233        49900        28285 
 9990000     1.056914  -0.45793456      1728000    818.50063        49950        28312 
10000000    1.0370256  -0.46887351      1728000    819.33434        50000        28341 
10010000    0.9835449  -0.48491632      1728000    820.17086        50050        28366 
10020000    1.0073024   -0.4788785      1728000    820.99075        50100        28396 
10030000    1.0865805   -0.4892876      1728000    821.81608        50150        28421 
10040000   0.99611735  -0.43183383      1728000    822.64823        50200        28444 
10050000   0.96906019  -0.42660417      1728000    823.47541        50250        28469 
10060000    1.0179713  -0.45205591      1728000    824.29774        50300        28498 
10070000    1.0371867  -0.43349792      1728000    825.10571        50350        28526 
10080000    0.9918836  -0.44401105      1728000    825.92773        50400        28558 
10090000    1.0212647  -0.44155981      1728000    826.74742        50450        28582 
10100000   0.99297324   -0.4450891      1728000    827.60273        50500        28613 
10110000   0.95640667  -0.45182559      1728000    828.42045        50550        28642 
10120000   0.92498685    -0.452936      1728000     829.2545        50600        28667 
10130000   0.98717419   -0.4371834      1728000    830.09946        50650        28695 
10140000    1.0100091  -0.41755469      1728000    830.91652        50700        28722 
10150000    0.9701708  -0.45795466      1728000    831.73266        50750        28753 
10160000     1.007758  -0.44049686      1728000    832.55441        50800        28784 
10170000    1.0360831  -0.45311202      1728000     833.3877        50850        28813 
10180000   0.98118953  -0.43270905      1728000    834.20527        50900        28843 
10190000    1.0032402  -0.42004816      1728000    835.01664        50950        28874 
10200000   0.98494924  -0.45253841      1728000    835.84866        51000        28901 
10210000   0.94226953  -0.43125392      1728000     836.6588        51050        28922 
10220000    1.0821887  -0.42477013      1728000    837.46487        51100        28955 
10230000     1.029224  -0.43168248      1728000     838.2707        51150        28984 
10240000   0.99375631   -0.4270709      1728000    839.07867        51200        29015 
10250000    1.0104883  -0.43287329      1728000    839.88219        51250        29048 
10260000   0.97383609  -0.48401442      1728000    840.68476        51300        29076 
10270000    1.0045673  -0.44763476      1728000    841.51482        51350        29098 
10280000   0.99095449  -0.44170477      1728000    842.35069        51400        29126 
10290000    1.0581378  -0.46106971      1728000    843.16154        51450        29158 
10300000   0.98673163  -0.45585062      1728000     843.9785        51500        29185 
10310000   0.98544971  -0.44996975      1728000    844.78991        51550        29213 
10320000   0.95970343  -0.46066922      1728000    845.59829        51600        29238 
10330000    1.0868435  -0.40746809      1728000    846.41457        51650        29264 
10340000    1.0318868  -0.43339631      1728000    847.22935        51700        29299 
10350000    1.0067969  -0.42350426      1728000    848.04741        51750        29327 
10360000   0.96750163  -0.42643044      1728000    848.84776        51800        29355 
10370000    1.0511298  -0.44012068      1728000    849.66662        51850        29385 
10380000    1.0280945  -0.44180847      1728000    850.48974        51900        29415 
10390000   0.99458046  -0.41606098      1728000    851.32656        51950        29444 
10400000    1.0389224  -0.41797209      1728000    852.15575        52000        29475 
10410000    1.0586005  -0.43077104      1728000    852.96986        52050        29505 
10420000    1.0085959  -0.45524772      1728000     853.7837        52100        29532 
10430000    1.0244339  -0.46418343      1728000    854.61705        52150        29562 
10440000   0.95634727  -0.44088203      1728000    855.44619        52200        29591 
10450000   0.98647247  -0.49837838      1728000    856.27144        52250        29617 
10460000    1.0114118  -0.45364525      1728000    857.08616        52300        29637 
10470000    1.0027153   -0.4767276      1728000    857.89567        52350        29672 
10480000    1.0301193  -0.44351373      1728000    858.70379        52400        29700 
10490000    1.0341622  -0.42980195      1728000    859.50276        52450        29729 
10500000   0.98379744  -0.41879343      1728000    860.31673        52500        29759 
10510000    1.0011235    -0.414469      1728000    861.12184        52550        29784 
10520000    1.0132166  -0.37536682      1728000     861.9297        52600        29815 
10530000   0.98337695  -0.39878253      1728000    862.73593        52650        29847 
10540000    1.0189627  -0.39062861      1728000    863.52685        52700        29879 
10550000   0.98921793  -0.38064908      1728000    864.33972        52750        29905 
10560000    1.0012996  -0.39327867      1728000    865.15666        52800        29935 
10570000   0.97988021  -0.37891981      1728000    865.97588        52850        29965 
10580000    1.0542301  -0.38383745      1728000    866.79507        52900        29994 
10590000    1.0372471  -0.39669947      1728000    867.60151        52950        30023 
10600000   0.98489252  -0.38942157      1728000    868.41562        53000        30050 
10610000   0.98701243  -0.37386576      1728000    869.22157        53050        30082 
10620000    1.0349132  -0.38083684      1728000    870.01738        53100        30112 
10630000   0.94452097  -0.36959106      1728000    870.80984        53150        30147 
10640000   0.98527262  -0.36754403      1728000    871.61491        53200        30174 
10650000   0.99193985  -0.34950061      1728000    872.41575        53250        30205 
10660000   0.99347255  -0.35574357      1728000    873.22274        53300        30236 
10670000    1.0189444  -0.37496356      1728000    874.03136        53350        30269 
10680000    1.0490378  -0.34620828      1728000    874.85189        53400        30297 
10690000    0.9945849   -0.3744423      1728000    875.66258        53450        30327 
10700000    1.0401958   -0.3717476      1728000    876.48142        53500        30359 
10710000   0.98971962  -0.36726439      1728000    877.33338        53550        30393 
10720000    1.0066285  -0.36197854      1728000    878.15662        53600        30425 
10730000   0.98594956  -0.37617217      1728000    878.95884        53650        30461 
10740000   0.92829431   -0.3981908      1728000    879.76283        53700        30488 
10750000   0.99270017  -0.40984482      1728000    880.56038        53750        30525 
10760000    1.0641561  -0.43260579      1728000    881.36577        53800        30554 
10770000    1.0642692  -0.41931795      1728000    882.16956        53850        30584 
10780000    1.0341704  -0.41352736      1728000    882.95898        53900        30620 
10790000    1.0225883  -0.40579306      1728000     883.7506        53950        30654 
10800000   0.97568339  -0.42480202      1728000    884.54894        54000        30677 
10810000   0.99685313  -0.40449966      1728000    885.34686        54050        30707 
10820000     1.002221  -0.43194335      1728000    886.14792        54100        30729 
10830000   0.97620454  -0.44335051      1728000    886.94848        54150        30759 
10840000    1.0329097   -0.4288675      1728000    887.74879        54200        30788 
10850000    1.0055397  -0.45395186      1728000    888.55642        54250        30817 
10860000    1.0048919  -0.48917287      1728000    889.38172        54300        30845 
10870000   0.99486699  -0.48393952      1728000    890.20256        54350        30870 
10880000    1.0352405  -0.47213852      1728000    891.02719        54400        30896 
10890000   0.96481649  -0.49448229      1728000    891.85571        54450        30924 
10900000   0.98704129  -0.48569843      1728000    892.67272        54500        30950 
10910000    1.0083802  -0.49106738      1728000    893.48861        54550        30980 
10920000    1.0044175   -0.5036188      1728000     894.3117        54600        31008 
10930000   0.93037815  -0.51829625      1728000    895.15564        54650        31032 
10940000   0.98728921  -0.46779659      1728000    896.00462        54700        31055 
10950000    1.0202773  -0.46802006      1728000    896.85469        54750        31080 
10960000   0.96987713  -0.47894928      1728000    897.69456        54800        31107 
10970000    1.1002411  -0.46256006      1728000    898.52763        54850        31135 
10980000    1.0079814  -0.44655402      1728000    899.36475        54900        31162 
10990000    1.0048032    -0.447953      1728000    900.19168        54950        31187 
11000000   0.96561578  -0.47890775      1728000    901.01961        55000        31215 
11010000    1.0368756  -0.45688298      1728000    901.83669        55050        31246 
11020000    1.0547139  -0.45503103      1728000    902.67039        55100        31275 
11030000   0.97942287  -0.46830489      1728000    903.50822        55150        31300 
11040000   0.97012427  -0.41140655      1728000    904.35277        55200        31331 
11050000   0.94018923  -0.45359724      1728000     905.1766        55250        31364 
11060000    1.0050368  -0.44057222      1728000    905.99555        55300        31395 
11070000    1.0058694   -0.4341165      1728000    906.81016        55350        31425 
11080000   0.94411663  -0.45150163      1728000    907.62761        55400        31450 
11090000    1.0560375  -0.43745323      1728000    908.44956        55450        31478 
11100000   0.94844367  -0.42429841      1728000    909.28263        55500        31502 
11110000    1.0647258  -0.43905998      1728000    910.09812        55550        31531 
11120000   0.99423927  -0.44445545      1728000    910.91335        55600        31564 
11130000    1.0527303   -0.4270471      1728000    911.72178        55650        31596 
11140000    0.9573954  -0.43029011      1728000    912.53449        55700        31626 
11150000    1.0306696  -0.43493291      1728000     913.3419        55750        31662 
11160000    1.0172316  -0.44133829      1728000    914.14951        55800        31689 
11170000   0.97136092  -0.47129531      1728000    914.95775        55850        31709 
11180000    1.0574159  -0.44820748      1728000    915.77392        55900        31736 
11190000    1.0765556  -0.45933256      1728000    916.60026        55950        31770 
11200000   0.99345943  -0.42977396      1728000    917.43822        56000        31799 
11210000    1.0776335  -0.45746289      1728000    918.26673        56050        31826 
11220000    0.9973753  -0.47214921      1728000    919.10479        56100        31853 
11230000    0.9465175  -0.48259493      1728000    919.90962        56150        31887 
11240000    1.0627826  -0.44412477      1728000    920.71935        56200        31913 
11250000   0.96129507  -0.43553246      1728000    921.53667        56250        31944 
11260000   0.99617229  -0.46193237      1728000    922.39779        56300        31971 
11270000   0.99856131  -0.43062146      1728000    923.24107        56350        31997 
11280000    1.0325392  -0.47306525      1728000    924.07479        56400        32031 
11290000   0.98369896  -0.46059206      1728000    924.92155        56450        32058 
11300000    0.9533196  -0.46682266      1728000    925.77278        56500        32083 
11310000    1.0420095  -0.45998409      1728000      926.622        56550        32111 
11320000   0.98639045   -0.4753237      1728000    927.44777        56600        32134 
11330000     1.048675  -0.48892593      1728000    928.30375        56650        32164 
11340000   0.97146254  -0.44065666      1728000    929.15072        56700        32190 
11350000   0.97682545  -0.48249294      1728000    929.99799        56750        32220 
11360000    1.0360006  -0.46703762      1728000    930.84609        56800        32248 
11370000    1.0081902  -0.44711598      1728000    931.66706        56850        32277 
11380000     1.105106  -0.49666859      1728000    932.47097        56900        32310 
11390000    1.0131235  -0.52717775      1728000    933.27985        56950        32339 
11400000    1.0461943  -0.50308171      1728000    934.09387        57000        32365 
11410000     1.048352  -0.50208726      1728000    934.90291        57050        32393 
11420000   0.92330345  -0.47878485      1728000    935.71168        57100        32415 
11430000    1.0424205  -0.47822932      1728000    936.52266        57150        32443 
11440000    1.0176027  -0.48545604      1728000    937.34032        57200        32464 
11450000    1.0122659  -0.49435819      1728000     938.1422        57250        32491 
11460000   0.99814683  -0.45355034      1728000    938.95567        57300        32517 
11470000    1.0248401  -0.46324447      1728000    939.76548        57350        32547 
11480000    1.0075626  -0.44677004      1728000    940.57185        57400        32573 
11490000    1.0075426   -0.4223634      1728000    941.37491        57450        32605 
11500000   0.99625208  -0.43071648      1728000    942.19092        57500        32636 
11510000     1.021442  -0.45640865      1728000    943.01067        57550        32663 
11520000   0.98087968  -0.49278802      1728000     943.8299        57600        32691 
11530000   0.95836006  -0.43839299      1728000    944.64389        57650        32724 
11540000   0.97617367  -0.44708325      1728000    945.45385        57700        32755 
11550000    1.0204452  -0.44001868      1728000     946.2658        57750        32781 
11560000    1.1036982  -0.40517842      1728000    947.06887        57800        32812 
11570000    1.0009827  -0.44104456      1728000    947.87675        57850        32840 
11580000    1.0522577  -0.45806303      1728000    948.69068        57900        32867 
11590000    0.9974103  -0.45527937      1728000    949.50477        57950        32901 
11600000     1.065496  -0.46820041      1728000     950.3417        58000        32929 
11610000    1.0700926  -0.43615958      1728000    951.15781        58050        32953 
11620000   0.93934024  -0.43036533      1728000    951.98778        58100        32988 
11630000   0.99193118  -0.43544374      1728000    952.79491        58150        33018 
11640000   0.98938424  -0.45742235      1728000    953.61692        58200        33046 
11650000   0.99584793  -0.42554354      1728000    954.44082        58250        33080 
11660000    1.0181481  -0.45029147      1728000    955.24675        58300        33105 
11670000    1.0537667  -0.41909449      1728000    956.07601        58350        33131 
11680000   0.97112037  -0.44478176      1728000    956.88663        58400        33162 
11690000    1.0139361  -0.44860837      1728000    957.71266        58450        33190 
11700000    1.0069993  -0.42181609      1728000    958.54392        58500        33221 
11710000   0.92328316  -0.44376171      1728000    959.36101        58550        33250 
11720000    1.0099425  -0.45314825      1728000    960.18457        58600        33278 
11730000   0.96518259  -0.39645944      1728000    961.04067        58650        33307 
11740000    0.9927614  -0.43254017      1728000    961.87877        58700        33339 
11750000   0.94753587  -0.42252995      1728000    962.73398        58750        33368 
11760000    1.0279179  -0.41306637      1728000    963.56612        58800        33401 
11770000    1.0500729  -0.40630147      1728000    964.41563        58850        33432 
11780000    1.0109408  -0.44239635      1728000      965.238        58900        33457 
11790000   0.96751059  -0.42686763      1728000    966.04887        58950        33489 
11800000    1.0048347  -0.47059421      1728000    966.86404        59000        33523 
11810000    1.0008511  -0.46101849      1728000     967.6808        59050        33549 
11820000   0.99911113  -0.42517624      1728000    968.48876        59100        33580 
11830000    1.0135872  -0.41762379      1728000    969.29997        59150        33609 
11840000    1.0144911   -0.4398968      1728000    970.10583        59200        33631 
11850000    1.0293189  -0.40387928      1728000    970.90579        59250        33657 
11860000    1.0276886  -0.40574198      1728000    971.70735        59300        33687 
11870000   0.96957417  -0.37293739      1728000    972.50072        59350        33721 
11880000   0.98253712  -0.36458261      1728000     973.2958        59400        33748 
11890000    0.9868079  -0.37289116      1728000    974.09289        59450        33783 
11900000   0.96063066  -0.37718096      1728000    974.89385        59500        33816 
11910000    1.0775834  -0.38278796      1728000    975.68393        59550        33845 
11920000   0.93934804  -0.39458967      1728000     976.4828        59600        33877 
11930000    1.0128023  -0.40620334      1728000    977.28786        59650        33905 
11940000    1.0313074  -0.40099214      1728000    978.08778        59700        33939 
11950000    1.0011679  -0.40460635      1728000    978.89586        59750        33966 
11960000    1.0401013  -0.42448538      1728000    979.72886        59800        33998 
11970000   0.96285152  -0.40665334      1728000    980.53445        59850        34028 
11980000    1.0683481  -0.43051052      1728000    981.35175        59900        34060 
11990000   0.98594955  -0.40555353      1728000    982.15892        59950        34095 
12000000    1.0008451  -0.42443493      1728000    982.97017        60000        34125 
12010000    1.0241746  -0.44481086      1728000    983.77792        60050        34149 
12020000     1.001471  -0.43683869      1728000    984.57495        60100        34180 
12030000   0.97889141  -0.43485639      1728000    985.37398        60150        34209 
12040000     1.029041  -0.44430424      1728000     986.1758        60200        34237 
12050000    1.0325546  -0.41751694      1728000    986.96693        60250        34266 
12060000    1.0107449  -0.40034381      1728000     987.7669        60300        34297 
12070000    1.0365918  -0.40576816      1728000     988.5593        60350        34334 
12080000   0.98291183  -0.42737902      1728000    989.35502        60400        34367 
12090000    1.0037169  -0.40007423      1728000    990.14977        60450        34399 
12100000   0.99838438  -0.39095555      1728000    990.95489        60500        34429 
12110000    1.0135224  -0.40486232      1728000    991.75487        60550        34461 
12120000    1.0059602  -0.40272689      1728000    992.55106        60600        34495 
12130000    1.0480148  -0.38146937      1728000    993.35692        60650        34531 
12140000   0.98319836  -0.37039683      1728000    994.15696        60700        34561 
12150000   0.96059643  -0.38017989      1728000    994.96177        60750        34593 
12160000   0.96058028  -0.40598734      1728000    995.77077        60800        34624 
12170000   0.97969016  -0.40633283      1728000    996.58583        60850        34657 
12180000   0.98237826  -0.43660374      1728000    997.39785        60900        34684 
12190000    0.9650551  -0.40273505      1728000    998.22375        60950        34711 
12200000   0.99009904   -0.4228608      1728000    999.05942        61000        34746 
12210000   0.91280238  -0.41952127      1728000    999.87177        61050        34771 
12220000    1.0644291  -0.42915781      1728000    1000.6844        61100        34800 
12230000   0.95297933  -0.42650168      1728000     1001.486        61150        34831 
12240000    1.0392375  -0.40917377      1728000    1002.2918        61200        34858 
12250000   0.95939471  -0.43176839      1728000    1003.0931        61250        34886 
12260000    1.0281604  -0.41448383      1728000    1003.8959        61300        34907 
12270000   0.99442924  -0.41834606      1728000    1004.7039        61350        34932 
12280000   0.99717566  -0.41389088      1728000    1005.5101        61400        34962 
12290000    1.0194108  -0.43209561      1728000    1006.3208        61450        34993 
12300000    1.0068158  -0.43804953      1728000    1007.1459        61500        35020 
12310000    1.0551011  -0.44692634      1728000    1007.9568        61550        35051 
12320000   0.93952798  -0.46776475      1728000     1008.805        61600        35080 
12330000   0.97643618  -0.43529056      1728000    1009.6448        61650        35110 
12340000    1.0059942  -0.43920293      1728000    1010.4599        61700        35137 
12350000    1.0006016  -0.45472486      1728000    1011.3101        61750        35165 
12360000   0.97531372  -0.42282812      1728000    1012.1387        61800        35195 
12370000    1.0005451  -0.40961325      1728000    1012.9859        61850        35226 
12380000   0.99002565  -0.43309122      1728000    1013.8139        61900        35261 
12390000   0.96517079  -0.43338734      1728000     1014.622        61950        35291 
12400000   0.97325811  -0.43810004      1728000    1015.4309        62000        35319 
12410000   0.97012512  -0.42608632      1728000    1016.2379        62050        35343 
12420000    1.0455299  -0.44423394      1728000    1017.0471        62100        35369 
12430000   0.95229436  -0.42171871      1728000     1017.871        62150        35400 
12440000    1.0015501  -0.42067608      1728000    1018.6919        62200        35433 
12450000   0.97227142  -0.40931187      1728000    1019.5031        62250        35464 
12460000    1.0646131  -0.41391664      1728000    1020.3419        62300        35491 
12470000   0.94115964  -0.39618111      1728000    1021.1528        62350        35524 
12480000    1.0184455  -0.41424893      1728000    1021.9677        62400        35555 
12490000   0.97020661  -0.42840798      1728000    1022.7799        62450        35584 
12500000   0.97847398   -0.4393048      1728000     1023.589        62500        35615 
12510000    1.0330989  -0.43320131      1728000      1024.41        62550        35654 
12520000     1.042649  -0.39487659      1728000      1025.26        62600        35684 
12530000    1.0405942  -0.40044431      1728000    1026.0809        62650        35709 
12540000   0.94695441  -0.44573671      1728000    1026.9374        62700        35741 
12550000    1.0057895  -0.43105764      1728000    1027.7723        62750        35775 
12560000   0.95466444  -0.41961438      1728000    1028.6104        62800        35797 
12570000    0.9830845  -0.43670742      1728000    1029.4107        62850        35825 
12580000   0.97789643  -0.43246387      1728000    1030.1999        62900        35851 
12590000    1.0318233  -0.42111006      1728000    1030.9941        62950        35882 
12600000    1.0388535   -0.4159365      1728000    1031.8099        63000        35910 
12610000   0.98429165  -0.41502744      1728000     1032.623        63050        35935 
12620000    0.9901254   -0.4224869      1728000    1033.4192        63100        35964 
12630000   0.98260628  -0.45314704      1728000    1034.2199        63150        35998 
12640000    1.0087311  -0.42080846      1728000    1035.0199        63200        36026 
12650000    1.0603752  -0.43651644      1728000     1035.824        63250        36051 
12660000   0.96901872   -0.4469813      1728000    1036.6257        63300        36073 
12670000   0.98529107   -0.4283966      1728000    1037.4329        63350        36100 
12680000    1.1296216  -0.41474209      1728000     1038.242        63400        36126 
12690000   0.98681612  -0.39377073      1728000    1039.0558        63450        36155 
12700000     1.072353   -0.4178632      1728000    1039.8821        63500        36183 
12710000    0.9950302  -0.39381001      1728000    1040.6971        63550        36216 
12720000    1.0238166   -0.3989588      1728000    1041.5018        63600        36246 
12730000   0.97665702   -0.4096648      1728000    1042.3132        63650        36281 
12740000    1.0634244  -0.43018974      1728000     1043.174        63700        36309 
12750000   0.98372411  -0.42490957      1728000    1043.9852        63750        36339 
12760000    1.0067939  -0.41697193      1728000    1044.7929        63800        36368 
12770000   0.95409494  -0.39418089      1728000     1045.608        63850        36396 
12780000    1.0011921   -0.4123456      1728000    1046.4169        63900        36429 
12790000   0.95755476  -0.40564261      1728000     1047.221        63950        36460 
12800000   0.92877274  -0.41446426      1728000    1048.0258        64000        36489 
12810000    1.0313234  -0.41526444      1728000     1048.829        64050        36520 
12820000    1.0320761   -0.4011583      1728000    1049.6391        64100        36547 
12830000    1.0284318  -0.40476402      1728000    1050.4467        64150        36577 
12840000   0.96183064  -0.40468445      1728000    1051.2959        64200        36607 
12850000    1.0431794  -0.41573444      1728000    1052.1293        64250        36638 
12860000     1.037238  -0.41284861      1728000    1052.9608        64300        36670 
12870000   0.99084155  -0.38311435      1728000    1053.8269        64350        36702 
12880000    1.0402618  -0.38087385      1728000    1054.6631        64400        36736 
12890000   0.99325868  -0.38921733      1728000    1055.4972        64450        36773 
12900000   0.98834169  -0.41214429      1728000    1056.3198        64500        36808 
12910000   0.95995029  -0.41316658      1728000    1057.1276        64550        36838 
12920000   0.99014873  -0.43090622      1728000    1057.9339        64600        36869 
12930000   0.95479178  -0.42554367      1728000    1058.7431        64650        36896 
12940000    1.0316384  -0.44895535      1728000    1059.5499        64700        36923 
12950000    1.0229267  -0.43655959      1728000    1060.3829        64750        36953 
12960000   0.94763974  -0.42263397      1728000    1061.1942        64800        36985 
12970000    1.0010165   -0.4015824      1728000    1061.9869        64850        37018 
12980000    1.0514383    -0.382255      1728000     1062.783        64900        37048 
12990000   0.99723647  -0.39648827      1728000    1063.5849        64950        37077 
13000000   0.95680883  -0.39060178      1728000      1064.41        65000        37107 
13010000    1.0530915  -0.37745647      1728000    1065.2067        65050        37139 
13020000   0.98973836  -0.37846773      1728000    1066.0097        65100        37167 
13030000    1.0793531  -0.39097414      1728000    1066.8169        65150        37195 
13040000   0.93499482   -0.3819504      1728000     1067.618        65200        37224 
13050000    1.0323332  -0.35608965      1728000     1068.416        65250        37251 
13060000    1.0037691  -0.37525268      1728000     1069.219        65300        37285 
13070000    1.0016912  -0.39331903      1728000    1070.0211        65350        37315 
13080000   0.99176049   -0.3878273      1728000     1070.825        65400        37344 
13090000      1.02187  -0.38815374      1728000    1071.6189        65450        37379 
13100000     1.059492  -0.37298301      1728000     1072.422        65500        37410 
13110000    1.0549425  -0.40407683      1728000     1073.218        65550        37444 
13120000    1.0602093  -0.38474019      1728000     1074.016        65600        37477 
13130000   0.95389029  -0.40091572      1728000     1074.816        65650        37506 
13140000   0.99251561  -0.45623597      1728000     1075.616        65700        37530 
13150000    1.0225797  -0.43161592      1728000    1076.4207        65750        37561 
13160000   0.97786806  -0.44659936      1728000    1077.2251        65800        37590 
13170000   0.99964301   -0.4068886      1728000    1078.0208        65850        37618 
13180000    1.0203281  -0.42613456      1728000    1078.8132        65900        37642 
13190000   0.97028255  -0.45398808      1728000    1079.6088        65950        37673 
13200000   0.98208433  -0.45958541      1728000    1080.4201        66000        37701 
13210000    1.1041178  -0.45674769      1728000    1081.2222        66050        37730 
13220000   0.99506643   -0.4561643      1728000    1082.0289        66100        37764 
13230000    1.0223995  -0.45540726      1728000    1082.8438        66150        37791 
13240000    1.0181307  -0.46216839      1728000     1083.656        66200        37820 
13250000   0.98002179  -0.40118077      1728000    1084.4558        66250        37851 
13260000    1.0282264  -0.42078773      1728000    1085.2534        66300        37883 
13270000     1.015104  -0.39209812      1728000    1086.0512        66350        37912 
13280000   0.96558407  -0.40781984      1728000    1086.8421        66400        37945 
13290000    1.0236452  -0.42303735      1728000    1087.6403        66450        37973 
13300000    1.0464434  -0.43997619      1728000    1088.4541        66500        38002 
13310000    1.0155323  -0.41708167      1728000    1089.2469        66550        38034 
13320000    1.0173744  -0.41471319      1728000    1090.0922        66600        38064 
13330000    1.0174699  -0.40850089      1728000       1090.9        66650        38097 
13340000   0.94690293  -0.42485208      1728000    1091.7272        66700        38127 
13350000    1.0042707  -0.40545466      1728000    1092.5392        66750        38153 
13360000    1.0507802  -0.40746054      1728000    1093.3528        66800        38179 
13370000     1.002861   -0.4083645      1728000    1094.1651        66850        38209 
13380000   0.94920781  -0.40257097      1728000    1094.9855        66900        38239 
13390000    1.0024143  -0.39706496      1728000     1095.795        66950        38265 
13400000   0.99866984  -0.42733784      1728000    1096.6171        67000        38296 
13410000   0.94424841   -0.4234657      1728000    1097.4259        67050        38329 
13420000   0.93699807  -0.39326404      1728000    1098.2349        67100        38362 
13430000    1.0483718  -0.42295162      1728000    1099.0459        67150        38394 
13440000     1.026715  -0.41840977      1728000    1099.8959        67200        38415 
13450000     1.064052  -0.40380699      1728000    1100.7178        67250        38440 
13460000    1.0420467  -0.42467535      1728000    1101.5394        67300        38471 
13470000    1.0540887  -0.44288926      1728000    1102.3609        67350        38498 
13480000    1.0314372  -0.47474459      1728000    1103.1809        67400        38525 
13490000    1.0223165  -0.47741471      1728000    1103.9989        67450        38550 
13500000    1.0231514  -0.42701435      1728000     1104.829        67500        38580 
13510000   0.99967495  -0.46544659      1728000    1105.6509        67550        38604 
13520000    1.0244174  -0.43098179      1728000    1106.5082        67600        38632 
13530000    1.0439876  -0.44244613      1728000    1107.3662        67650        38661 
13540000    1.0101517  -0.45655993      1728000     1108.207        67700        38684 
13550000    1.0635698   -0.4770782      1728000     1109.028        67750        38707 
13560000   0.97760753  -0.46881114      1728000     1109.849        67800        38737 
13570000    1.0120746  -0.47582914      1728000     1110.661        67850        38759 
13580000   0.98108262  -0.45395175      1728000    1111.4788        67900        38785 
13590000    1.0313262  -0.42305842      1728000    1112.2871        67950        38816 
13600000    1.0081026  -0.44025237      1728000    1113.1092        68000        38846 
13610000    0.9945456  -0.47285812      1728000    1113.9308        68050        38873 
13620000    1.0333099  -0.44322301      1728000    1114.7561        68100        38901 
13630000     1.038899   -0.4483512      1728000     1115.584        68150        38930 
13640000   0.97303367  -0.43495483      1728000    1116.4118        68200        38958 
13650000    1.0066684  -0.48119074      1728000    1117.2404        68250        38984 
13660000   0.99583331   -0.4968375      1728000    1118.0683        68300        39006 
13670000   0.96879659  -0.52125103      1728000     1118.888        68350        39037 
13680000   0.99075905  -0.47930866      1728000    1119.7105        68400        39059 
13690000   0.99668299   -0.4736927      1728000     1120.536        68450        39083 
13700000   0.96628629  -0.48822842      1728000    1121.4012        68500        39106 
13710000   0.97301494  -0.46269964      1728000    1122.2323        68550        39133 
13720000   0.97183263  -0.46053313      1728000    1123.0492        68600        39161 
13730000   0.97410534  -0.47372974      1728000    1123.8858        68650        39191 
13740000   0.97029052  -0.44649196      1728000    1124.7234        68700        39214 
13750000   0.94835143  -0.44339544      1728000    1125.5479        68750        39246 
13760000    1.0162628  -0.43917258      1728000    1126.3702        68800        39280 
13770000   0.98894439  -0.43814411      1728000    1127.1899        68850        39308 
13780000    1.0010741  -0.43203506      1728000    1128.0352        68900        39344 
13790000    1.0218862  -0.42461599      1728000    1128.8397        68950        39374 
13800000    1.0179686  -0.40777377      1728000     1129.639        69000        39403 
13810000    1.0401872  -0.43250891      1728000    1130.4341        69050        39435 
13820000    1.0313052  -0.42789332      1728000    1131.2296        69100        39463 
13830000   0.99720125  -0.41346344      1728000    1132.0258        69150        39490 
13840000   0.91850306  -0.45515178      1728000    1132.8241        69200        39516 
13850000   0.99987377  -0.44346218      1728000    1133.6213        69250        39547 
13860000    1.0321431  -0.45566142      1728000    1134.4165        69300        39574 
13870000   0.98649457  -0.44188328      1728000    1135.2105        69350        39607 
13880000    1.0199619  -0.42909289      1728000    1136.0042        69400        39631 
13890000   0.99299784  -0.50204849      1728000    1136.8014        69450        39656 
13900000    1.0055398  -0.45239485      1728000     1137.634        69500        39683 
13910000    1.0521693  -0.46314656      1728000    1138.4493        69550        39713 
13920000    1.0390498  -0.47353151      1728000     1139.263        69600        39732 
13930000    1.0002929  -0.48952419      1728000     1140.063        69650        39763 
13940000   0.97943264  -0.49174317      1728000     1140.877        69700        39783 
13950000   0.94579814  -0.49610878      1728000     1141.686        69750        39813 
13960000    1.0478546  -0.49800548      1728000    1142.5131        69800        39841 
13970000    1.0484623  -0.51910418      1728000    1143.3328        69850        39861 
13980000   0.96377187  -0.52264665      1728000    1144.1589        69900        39881 
13990000   0.97416592   -0.5422757      1728000    1144.9769        69950        39909 
14000000     1.024902  -0.52246109      1728000    1145.8172        70000        39928 
14010000    1.0272634   -0.5568088      1728000    1146.6401        70050        39955 
14020000    1.0269317   -0.5148383      1728000    1147.4611        70100        39980 
14030000    1.0000535  -0.50332029      1728000     1148.287        70150        40012 
14040000   0.99918519  -0.49067155      1728000    1149.1061        70200        40044 
14050000    1.0663008   -0.5017475      1728000    1149.9359        70250        40070 
14060000   0.98697378  -0.49656578      1728000    1150.7668        70300        40092 
14070000    1.0962947  -0.50390747      1728000     1151.585        70350        40121 
14080000   0.99346539  -0.50689845      1728000    1152.4151        70400        40153 
14090000   0.99348359  -0.49441271      1728000    1153.2551        70450        40179 
14100000    0.9838906  -0.47170402      1728000    1154.0801        70500        40199 
14110000    1.0107449  -0.47655914      1728000    1154.8849        70550        40227 
14120000   0.94989297  -0.45496265      1728000    1155.7031        70600        40253 
14130000    1.0282323  -0.47099381      1728000    1156.5352        70650        40282 
14140000    1.0385109  -0.49343146      1728000    1157.3881        70700        40316 
14150000    1.0069237  -0.47825534      1728000    1158.2112        70750        40336 
14160000    1.0006918  -0.48179268      1728000    1159.0261        70800        40360 
14170000    1.0053064  -0.47569049      1728000    1159.8572        70850        40389 
14180000    0.9914712  -0.48925663      1728000    1160.6919        70900        40414 
14190000    1.0832551  -0.48655798      1728000    1161.5019        70950        40443 
14200000   0.99562264  -0.49044109      1728000      1162.37        71000        40471 
14210000   0.96817972    -0.486398      1728000     1163.212        71050        40502 
14220000    1.0274701  -0.52498471      1728000     1164.093        71100        40524 
14230000   0.94505096  -0.48202626      1728000     1164.922        71150        40550 
14240000    1.0638556  -0.45995819      1728000     1165.726        71200        40577 
14250000    1.0171197  -0.50288548      1728000    1166.5381        71250        40606 
14260000   0.99959696  -0.49936069      1728000    1167.3649        71300        40633 
14270000    1.0417952  -0.50983284      1728000    1168.1783        71350        40665 
14280000   0.91491418  -0.44440286      1728000    1168.9951        71400        40689 
14290000   0.98103023  -0.49032402      1728000    1169.8181        71450        40720 
14300000   0.96232292  -0.48935089      1728000     1170.629        71500        40748 
14310000    1.0298193  -0.44663535      1728000     1171.449        71550        40778 
14320000   0.97276503   -0.4345535      1728000    1172.2691        71600        40802 
14330000   0.99890755  -0.46196198      1728000    1173.0919        71650        40829 
14340000    1.0287625  -0.43598468      1728000    1173.9111        71700        40858 
14350000   0.94631282  -0.39965763      1728000    1174.7292        71750        40890 
14360000   0.97967393  -0.42974359      1728000    1175.5409        71800        40925 
14370000   0.96925783  -0.43770168      1728000    1176.3381        71850        40957 
14380000    1.0177034  -0.45699317      1728000    1177.1491        71900        40985 
14390000   0.98251852  -0.46519432      1728000     1177.963        71950        41018 
14400000    1.0717334  -0.46555139      1728000    1178.7905        72000        41044 
14410000    1.0160117  -0.47068252      1728000    1179.5965        72050        41076 
14420000   0.98230996  -0.49218557      1728000    1180.4061        72100        41096 
14430000    1.0277933  -0.46346333      1728000     1181.221        72150        41123 
14440000     0.988179  -0.49360254      1728000    1182.0208        72200        41151 
14450000   0.93652337   -0.5058146      1728000    1182.9029        72250        41179 
14460000    1.0391068  -0.46855804      1728000     1183.727        72300        41197 
14470000    1.0357824  -0.49579805      1728000     1184.565        72350        41225 
14480000   0.98090212  -0.47093848      1728000    1185.3852        72400        41247 
14490000   0.97642389  -0.47159844      1728000     1186.186        72450        41276 
14500000     1.004609  -0.45026906      1728000    1187.0121        72500        41309 
14510000   0.99293359  -0.43858316      1728000    1187.8181        72550        41339 
14520000   0.95032126  -0.46599831      1728000    1188.6271        72600        41363 
14530000   0.96894766  -0.44592366      1728000    1189.4429        72650        41387 
14540000    1.0558072  -0.44576182      1728000    1190.2991        72700        41417 
14550000    1.0029237  -0.44010033      1728000    1191.1122        72750        41440 
14560000    1.0068418  -0.44720076      1728000    1191.9499        72800        41468 
14570000    0.9279379  -0.46031175      1728000    1192.7849        72850        41499 
14580000     1.031675  -0.44432135      1728000    1193.6258        72900        41525 
14590000   0.98463262  -0.44092318      1728000    1194.4294        72950        41550 
14600000   0.97568517   -0.4339083      1728000    1195.2404        73000        41574 
14610000    1.0029438  -0.44799217      1728000    1196.0464        73050        41603 
14620000    1.0166242  -0.45187254      1728000    1196.8409        73100        41631 
14630000   0.95778675   -0.5037583      1728000    1197.6442        73150        41656 
14640000    1.0140864  -0.44006805      1728000    1198.4424        73200        41683 
14650000    1.0009107   -0.4638003      1728000    1199.2415        73250        41712 
14660000    1.0436844  -0.45338407      1728000    1200.0485        73300        41738 
14670000   0.96091658  -0.46285203      1728000    1200.8452        73350        41767 
14680000    1.0370115  -0.47800002      1728000     1201.648        73400        41793 
14690000    1.0348972  -0.47810391      1728000    1202.4524        73450        41822 
14700000   0.96418624  -0.46229932      1728000    1203.2564        73500        41850 
14710000   0.96877545  -0.45215923      1728000    1204.0491        73550        41876 
14720000    1.0425679  -0.42961499      1728000    1204.8509        73600        41906 
14730000   0.99756088  -0.45555121      1728000    1205.6531        73650        41933 
14740000   0.99331146  -0.43503926      1728000      1206.45        73700        41963 
14750000   0.97206284   -0.4663618      1728000    1207.2471        73750        41993 
14760000    1.0550375  -0.44598406      1728000     1208.045        73800        42020 
14770000   0.99117442  -0.44820912      1728000    1208.8531        73850        42043 
14780000   0.97980871  -0.45421987      1728000    1209.6451        73900        42072 
14790000    1.0527196  -0.47540127      1728000    1210.4409        73950        42101 
14800000    1.0599295  -0.46421862      1728000    1211.2629        74000        42130 
14810000    1.0423323  -0.46288893      1728000     1212.063        74050        42159 
14820000    1.0636624  -0.44047082      1728000      1212.86        74100        42181 
14830000   0.99508219  -0.46478701      1728000    1213.6631        74150        42212 
14840000   0.96402971  -0.42476328      1728000    1214.4721        74200        42239 
14850000   0.97754567   -0.4591207      1728000    1215.2891        74250        42265 
14860000    1.0415774  -0.41135511      1728000    1216.0899        74300        42298 
14870000   0.97075378  -0.44713284      1728000    1216.8761        74350        42331 
14880000   0.98542549   -0.4593503      1728000    1217.6809        74400        42353 
14890000   0.99547299  -0.43778687      1728000    1218.4809        74450        42377 
14900000    1.0096603  -0.43562924      1728000    1219.2909        74500        42408 
14910000   0.99443023  -0.43534912      1728000    1220.0856        74550        42432 
14920000    1.0122152  -0.42928539      1728000     1220.891        74600        42457 
14930000   0.94837685  -0.47687282      1728000    1221.6898        74650        42490 
14940000    1.0759866  -0.43775969      1728000    1222.4902        74700        42524 
14950000   0.98395077  -0.45253532      1728000    1223.3111        74750        42556 
14960000    1.0260676  -0.46090045      1728000    1224.1202        74800        42585 
14970000   0.94921773  -0.48778268      1728000    1224.9372        74850        42617 
14980000    0.9752986  -0.48614996      1728000    1225.7582        74900        42647 
14990000    1.0073629  -0.43256928      1728000    1226.5701        74950        42679 
15000000     1.001348  -0.44132536      1728000    1227.4002        75000        42711 
15010000   0.97922679  -0.42682932      1728000    1228.2273        75050        42739 
15020000   0.96156953  -0.41776268      1728000    1229.0524        75100        42765 
15030000    1.0496736  -0.40935495      1728000    1229.8666        75150        42799 
15040000     1.010559   -0.4438152      1728000     1230.692        75200        42829 
15050000    1.0171617  -0.43145821      1728000    1231.4961        75250        42863 
15060000   0.98527648  -0.44629184      1728000    1232.3169        75300        42889 
15070000   0.97175807  -0.45551235      1728000    1233.1381        75350        42915 
15080000   0.95295659   -0.4958871      1728000    1233.9482        75400        42942 
15090000    1.0690312  -0.45889767      1728000    1234.7782        75450        42963 
15100000   0.95612557  -0.43830606      1728000    1235.5984        75500        42989 
15110000   0.98472941  -0.42391997      1728000    1236.4192        75550        43015 
15120000   0.98881065  -0.44193603      1728000    1237.2267        75600        43042 
15130000    1.0228152  -0.42486463      1728000    1238.0384        75650        43070 
15140000   0.98721761  -0.40973142      1728000    1238.8411        75700        43098 
15150000   0.99870881  -0.43093642      1728000    1239.6571        75750        43121 
15160000   0.99858126  -0.43699805      1728000    1240.4721        75800        43142 
15170000    1.0712584  -0.44901702      1728000    1241.2937        75850        43171 
15180000    1.0710822  -0.44924537      1728000    1242.0991        75900        43199 
15190000    1.0192529   -0.4319395      1728000    1242.9101        75950        43231 
15200000   0.98016644  -0.42434363      1728000    1243.7297        76000        43261 
15210000    1.0118947  -0.45090978      1728000    1244.5285        76050        43293 
15220000     1.058777  -0.45987787      1728000    1245.3445        76100        43324 
15230000     1.012308  -0.47299557      1728000    1246.1512        76150        43352 
15240000   0.97477984  -0.50691012      1728000     1246.986        76200        43376 
15250000    1.0272139   -0.4450085      1728000    1247.7971        76250        43399 
15260000    0.9693417  -0.46596576      1728000     1248.612        76300        43421 
15270000     1.041465  -0.49121363      1728000    1249.4292        76350        43448 
15280000    1.0278398   -0.4431984      1728000     1250.237        76400        43475 
15290000   0.97978939  -0.47117107      1728000    1251.0519        76450        43502 
15300000   0.95545575  -0.46460797      1728000    1251.8891        76500        43531 
15310000    1.0445231  -0.45798739      1728000    1252.6931        76550        43560 
15320000   0.98927231  -0.42846433      1728000    1253.5029        76600        43590 
15330000   0.98084921  -0.46250496      1728000    1254.3151        76650        43622 
15340000    1.0534563  -0.43100946      1728000     1255.134        76700        43648 
15350000   0.97430031  -0.44519471      1728000     1255.952        76750        43679 
15360000    1.0225825  -0.50946705      1728000    1256.7792        76800        43703 
15370000    1.0458711  -0.47505852      1728000    1257.6277        76850        43728 
15380000    1.0101808  -0.46732907      1728000    1258.4424        76900        43761 
15390000    1.1028276  -0.46660524      1728000    1259.2748        76950        43794 
15400000     1.009523  -0.46578295      1728000    1260.1274        77000        43820 
15410000    1.0138721  -0.45798003      1728000    1260.9642        77050        43838 
15420000    1.0049282  -0.49084785      1728000    1261.7711        77100        43873 
15430000    1.1072946  -0.46387654      1728000    1262.5881        77150        43904 
15440000   0.97992401  -0.47234206      1728000    1263.4046        77200        43928 
15450000   0.92961501  -0.45609317      1728000     1264.228        77250        43955 
15460000   0.97219631  -0.45279958      1728000    1265.0552        77300        43986 
15470000   0.96077671  -0.45452385      1728000    1265.8694        77350        44008 
15480000   0.97089466  -0.46732095      1728000    1266.6801        77400        44036 
15490000    0.9876254  -0.47235249      1728000    1267.4944        77450        44066 
15500000    1.0277091  -0.48947606      1728000    1268.3137        77500        44090 
15510000   0.99040024  -0.47552096      1728000    1269.1371        77550        44117 
15520000    1.0445146  -0.49556665      1728000    1269.9599        77600        44146 
15530000    1.0387895    -0.466449      1728000    1270.8015        77650        44167 
15540000   0.94996767  -0.45370117      1728000    1271.6292        77700        44194 
15550000    1.0650151  -0.45508429      1728000    1272.4533        77750        44223 
15560000    1.0881219  -0.46387781      1728000    1273.2794        77800        44249 
15570000   0.97958552  -0.45948118      1728000    1274.1135        77850        44268 
15580000    1.0269828  -0.46562232      1728000    1274.9306        77900        44298 
15590000   0.97455152   -0.4365149      1728000    1275.7495        77950        44328 
15600000   0.94983667  -0.42801289      1728000    1276.5671        78000        44349 
15610000    1.0255772  -0.44160492      1728000    1277.3867        78050        44377 
15620000    1.0244701  -0.44338537      1728000    1278.2031        78100        44403 
15630000     1.034253  -0.47394962      1728000    1279.0429        78150        44427 
15640000    1.0224846  -0.47981909      1728000     1279.892        78200        44456 
15650000   0.98958713  -0.47935506      1728000     1280.713        78250        44484 
15660000    1.0521481   -0.4580388      1728000    1281.5199        78300        44516 
15670000   0.99134602  -0.43818983      1728000    1282.3352        78350        44549 
15680000    1.0231058     -0.42875      1728000    1283.1399        78400        44578 
15690000    1.0047188  -0.46248851      1728000    1283.9842        78450        44604 
15700000   0.95656781  -0.45089308      1728000    1284.8105        78500        44631 
15710000    1.0280985  -0.47003366      1728000     1285.642        78550        44664 
15720000   0.95165447  -0.44653351      1728000     1286.461        78600        44695 
15730000     1.016694  -0.42817821      1728000    1287.2887        78650        44723 
15740000    1.0277327   -0.4217685      1728000    1288.0923        78700        44757 
15750000    1.0256068  -0.42855934      1728000    1288.9173        78750        44786 
15760000   0.98092321  -0.44413582      1728000    1289.7392        78800        44816 
15770000   0.99338905  -0.42714385      1728000     1290.546        78850        44844 
15780000   0.98903357  -0.43102646      1728000    1291.3622        78900        44866 
15790000   0.99562915  -0.44279273      1728000    1292.1682        78950        44894 
15800000    1.0283365  -0.43214218      1728000    1292.9838        79000        44914 
15810000    1.0740695  -0.42987647      1728000     1293.796        79050        44936 
15820000    1.0528464   -0.4413717      1728000    1294.6231        79100        44966 
15830000   0.98329419  -0.42294967      1728000    1295.4232        79150        44997 
15840000   0.95887012  -0.43495421      1728000     1296.244        79200        45030 
15850000    1.0044422  -0.40998098      1728000     1297.076        79250        45058 
15860000    1.0343338  -0.45745581      1728000    1297.8831        79300        45086 
15870000    0.9620726  -0.48157279      1728000    1298.6996        79350        45112 
15880000   0.98930423  -0.44684849      1728000    1299.5145        79400        45138 
15890000     1.016924  -0.42768981      1728000    1300.3291        79450        45169 
15900000   0.98103878  -0.40623889      1728000    1301.1887        79500        45197 
15910000    1.0041921  -0.39978635      1728000    1302.0447        79550        45226 
15920000    1.0151905  -0.42213676      1728000    1302.8495        79600        45255 
15930000   0.99629578  -0.42909048      1728000    1303.7137        79650        45281 
15940000   0.97182811  -0.42613425      1728000    1304.5563        79700        45309 
15950000    1.0028033  -0.45531516      1728000    1305.3845        79750        45343 
15960000    1.0055945   -0.4336007      1728000    1306.1993        79800        45369 
15970000   0.97047818  -0.44249508      1728000    1307.0123        79850        45403 
15980000    1.0249588  -0.44459955      1728000     1307.833        79900        45430 
15990000    1.0176747  -0.45844646      1728000    1308.6372        79950        45462 
16000000    0.9932873  -0.44142619      1728000    1309.4491        80000        45490 
16010000   0.98456927  -0.43740305      1728000    1310.2411        80050        45518 
16020000   0.95550172  -0.41726939      1728000    1311.0362        80100        45548 
16030000   0.99389258  -0.44778537      1728000    1311.8293        80150        45577 
16040000    1.0597665  -0.44468095      1728000    1312.6204        80200        45608 
16050000    1.0078377  -0.42622757      1728000    1313.4106        80250        45641 
16060000    1.0246434  -0.46678066      1728000    1314.2075        80300        45671 
16070000   0.95621592  -0.43665779      1728000    1315.0161        80350        45697 
16080000    1.0017865  -0.44028714      1728000    1315.8212        80400        45729 
16090000    1.0137425  -0.45550073      1728000    1316.6182        80450        45760 
16100000   0.97636478  -0.44971732      1728000    1317.4551        80500        45794 
16110000     1.047942  -0.42698215      1728000    1318.2616        80550        45827 
16120000   0.99595072     -0.40982      1728000    1319.0635        80600        45859 
16130000    1.0090757  -0.42584634      1728000    1319.8661        80650        45887 
16140000    1.0177364  -0.43162295      1728000    1320.6702        80700        45914 
16150000   0.98228252  -0.42870392      1728000    1321.4622        80750        45944 
16160000   0.98896985  -0.44207089      1728000    1322.2589        80800        45974 
16170000   0.95209134   -0.4469119      1728000    1323.0612        80850        46008 
16180000   0.94378094  -0.46726227      1728000    1323.8692        80900        46033 
16190000    1.0693671  -0.46520105      1728000    1324.6722        80950        46061 
16200000    1.0060875  -0.46024328      1728000    1325.4755        81000        46090 
16210000   0.97991835  -0.45522661      1728000    1326.2805        81050        46118 
16220000   0.97760606  -0.46437685      1728000    1327.0865        81100        46149 
16230000   0.99021593  -0.47137464      1728000    1327.8865        81150        46178 
16240000    1.0359329  -0.46473221      1728000    1328.6914        81200        46207 
16250000    1.0531396  -0.51017112      1728000    1329.5001        81250        46238 
16260000   0.98578615  -0.54804152      1728000    1330.3054        81300        46261 
16270000   0.96745762  -0.50228053      1728000    1331.1142        81350        46287 
16280000    1.0446291  -0.52642368      1728000    1331.9333        81400        46314 
16290000    1.0437231  -0.47717648      1728000    1332.7802        81450        46343 
16300000    1.0829131  -0.50513413      1728000    1333.6132        81500        46373 
16310000    0.9886848  -0.46398728      1728000    1334.4312        81550        46397 
16320000    1.0504864  -0.45591532      1728000    1335.2461        81600        46425 
16330000     1.003474  -0.49009134      1728000    1336.0663        81650        46452 
16340000    1.0265505  -0.45456867      1728000    1336.8812        81700        46484 
16350000   0.90671288  -0.51788713      1728000    1337.6992        81750        46508 
16360000    1.0002918  -0.50944626      1728000    1338.5182        81800        46537 
16370000   0.99073207  -0.48887128      1728000    1339.3273        81850        46568 
16380000   0.98824902  -0.49265064      1728000    1340.1421        81900        46596 
16390000    1.0117783  -0.49344742      1728000    1340.9682        81950        46622 
16400000    1.0391245   -0.4787243      1728000    1341.7992        82000        46648 
16410000    1.0261562  -0.48640444      1728000    1342.6222        82050        46680 
16420000   0.98314669  -0.47323167      1728000    1343.4263        82100        46705 
16430000   0.97363852  -0.46160669      1728000     1344.228        82150        46726 
16440000     1.018156  -0.46325712      1728000     1345.039        82200        46755 
16450000    1.0579639  -0.45814965      1728000    1345.8495        82250        46785 
16460000   0.98046867  -0.43340695      1728000    1346.6573        82300        46818 
16470000   0.98250001  -0.40554941      1728000    1347.4618        82350        46848 
16480000   0.99000532  -0.45901894      1728000    1348.2646        82400        46884 
16490000   0.99866617  -0.47426415      1728000    1349.0869        82450        46910 
16500000    1.0044545  -0.45390104      1728000    1349.9233        82500        46937 
16510000     1.005874  -0.44640907      1728000    1350.7438        82550        46966 
16520000    1.0279067  -0.45101176      1728000    1351.5603        82600        46989 
16530000    1.0335058  -0.44183627      1728000    1352.3743        82650        47019 
16540000    1.0036002  -0.40458035      1728000    1353.1782        82700        47049 
16550000   0.97134693   -0.3885093      1728000    1353.9813        82750        47081 
16560000    1.0180203  -0.38171813      1728000    1354.7812        82800        47111 
16570000   0.95009573  -0.40805851      1728000    1355.5851        82850        47137 
16580000   0.95053676  -0.41653884      1728000    1356.3822        82900        47165 
16590000    1.0596682  -0.39550082      1728000     1357.177        82950        47198 
16600000   0.96779574  -0.38950433      1728000    1357.9923        83000        47226 
16610000   0.99704316  -0.44225231      1728000    1358.8186        83050        47257 
16620000    1.0390151  -0.42336698      1728000    1359.6273        83100        47283 
16630000     1.092715  -0.40169191      1728000    1360.4314        83150        47314 
16640000    1.0300305  -0.39261412      1728000    1361.2323        83200        47341 
16650000     1.024395  -0.38662728      1728000    1362.0305        83250        47371 
16660000   0.92077012  -0.37921153      1728000    1362.8274        83300        47404 
16670000    1.0321035  -0.39036067      1728000    1363.6224        83350        47436 
16680000    1.0151566  -0.38914357      1728000    1364.4116        83400        47466 
16690000   0.96635632  -0.39665344      1728000    1365.2231        83450        47500 
16700000    1.0047785  -0.41598586      1728000    1366.0703        83500        47529 
16710000   0.98729994  -0.41583343      1728000    1366.8792        83550        47561 
16720000   0.99401095  -0.40864243      1728000     1367.685        83600        47590 
16730000    1.0142451  -0.44038562      1728000     1368.485        83650        47627 
16740000   0.97292468  -0.42118963      1728000     1369.304        83700        47658 
16750000   0.98590179  -0.42869867      1728000    1370.1051        83750        47689 
16760000    1.0142634  -0.41949937      1728000    1370.9141        83800        47716 
16770000   0.98557827  -0.46732744      1728000    1371.7292        83850        47743 
16780000    1.0556903  -0.48071849      1728000    1372.5602        83900        47765 
16790000    1.0508406  -0.47728031      1728000    1373.3861        83950        47788 
16800000   0.96559791  -0.45791878      1728000    1374.2092        84000        47817 
16810000    1.0219232  -0.42484712      1728000    1375.0207        84050        47848 
16820000   0.98667137  -0.44513224      1728000    1375.8243        84100        47875 
16830000    1.0078838  -0.42934241      1728000    1376.6473        84150        47900 
16840000    1.0137294   -0.4231927      1728000    1377.4711        84200        47923 
16850000   0.97827669  -0.41640848      1728000      1378.29        84250        47956 
16860000   0.99606273  -0.43996955      1728000    1379.0956        84300        47989 
16870000    1.0345236  -0.44871454      1728000    1379.9043        84350        48018 
16880000    1.0860924  -0.44136903      1728000    1380.7255        84400        48042 
16890000    1.0151988  -0.45142772      1728000    1381.5331        84450        48069 
16900000   0.94759255  -0.43863228      1728000    1382.3504        84500        48097 
16910000   0.99587712  -0.46159214      1728000    1383.1562        84550        48122 
16920000    1.0471148   -0.4478695      1728000    1383.9655        84600        48151 
16930000    1.0173729  -0.44672663      1728000    1384.7653        84650        48176 
16940000   0.99560921  -0.43068023      1728000    1385.5665        84700        48203 
16950000    1.0042468  -0.45498899      1728000    1386.4161        84750        48233 
16960000   0.98317911  -0.41970869      1728000    1387.2404        84800        48257 
16970000    1.0102258  -0.43108242      1728000    1388.0525        84850        48280 
16980000   0.97014366  -0.41418856      1728000    1388.8952        84900        48309 
16990000    1.0023001  -0.44072042      1728000    1389.7364        84950        48335 
17000000    1.0073172  -0.42330652      1728000    1390.5831        85000        48365 
17010000   0.97173046  -0.44717531      1728000    1391.4034        85050        48384 
17020000   0.99539675  -0.42867483      1728000    1392.2233        85100        48411 
17030000    1.0067337   -0.4391953      1728000    1393.0237        85150        48442 
17040000    1.0196619  -0.42929827      1728000    1393.8216        85200        48475 
17050000    1.0385319  -0.44404661      1728000    1394.6129        85250        48503 
17060000   0.91580706   -0.4511399      1728000    1395.4053        85300        48530 
17070000   0.98106177  -0.45514629      1728000    1396.1994        85350        48560 
17080000    1.0162697  -0.43396141      1728000    1396.9955        85400        48583 
17090000   0.97437883  -0.43031076      1728000    1397.8025        85450        48605 
17100000    0.9968687  -0.43140573      1728000    1398.6055        85500        48635 
17110000   0.93412119  -0.42916327      1728000    1399.4106        85550        48662 
17120000   0.98329807  -0.45691356      1728000    1400.2234        85600        48691 
17130000   0.96819363  -0.45694456      1728000    1401.0369        85650        48723 
17140000    1.0116754  -0.43602443      1728000    1401.8416        85700        48748 
17150000   0.92627267  -0.45355516      1728000    1402.6512        85750        48780 
17160000   0.97533809  -0.46551289      1728000     1403.467        85800        48811 
17170000    1.0352789  -0.46668703      1728000    1404.2813        85850        48840 
17180000   0.97160963  -0.49044006      1728000    1405.1764        85900        48865 
17190000    1.0044828   -0.4638495      1728000    1405.9876        85950        48891 
17200000   0.99375803  -0.43418707      1728000    1406.8101        86000        48914 
17210000   0.97865547    -0.437322      1728000    1407.6233        86050        48943 
17220000    1.0371656  -0.43846823      1728000    1408.4232        86100        48973 
17230000   0.99712822  -0.43996526      1728000    1409.2292        86150        49010 
17240000    1.0250732  -0.41054297      1728000     1410.053        86200        49036 
17250000   0.97836525  -0.43051176      1728000    1410.8663        86250        49069 
17260000    1.0302029   -0.4437232      1728000    1411.7407        86300        49101 
17270000   0.97158218   -0.4520978      1728000    1412.6438        86350        49132 
17280000   0.94335224  -0.44851756      1728000    1413.4789        86400        49164 
17290000    1.0046684  -0.44497728      1728000    1414.4211        86450        49192 
17300000    1.0114145  -0.42392479      1728000    1415.2384        86500        49224 
17310000   0.93711791  -0.46891773      1728000    1416.0485        86550        49254 
17320000   0.97150974  -0.45007143      1728000    1416.8819        86600        49279 
17330000   0.97264578  -0.46261551      1728000    1417.6935        86650        49310 
17340000    1.0532329  -0.49189201      1728000    1418.5112        86700        49333 
17350000   0.94272096  -0.46658876      1728000    1419.3424        86750        49363 
17360000    0.9648775  -0.45308809      1728000    1420.1737        86800        49386 
17370000   0.98866796  -0.47317558      1728000    1421.0058        86850        49413 
17380000    1.0363445  -0.46158591      1728000    1421.8243        86900        49441 
17390000     1.024999  -0.45079645      1728000    1422.6323        86950        49470 
17400000    1.0129361  -0.47343853      1728000    1423.4993        87000        49501 
17410000   0.93340387  -0.46907062      1728000     1424.359        87050        49528 
17420000     1.002701  -0.46564281      1728000    1425.2132        87100        49558 
17430000    0.9756306  -0.42714291      1728000    1426.0813        87150        49591 
17440000    1.0444978  -0.41737605      1728000    1426.8988        87200        49615 
17450000     1.069782  -0.42890233      1728000    1427.7085        87250        49651 
17460000    1.0131801  -0.43610847      1728000    1428.5244        87300        49680 
17470000   0.94926518  -0.43228404      1728000    1429.3595        87350        49710 
17480000     1.066207  -0.44778263      1728000    1430.1565        87400        49735 
17490000    1.0482942  -0.42814683      1728000    1430.9699        87450        49766 
17500000   0.94288193   -0.4498819      1728000    1431.7941        87500        49789 
17510000     1.169068  -0.42683197      1728000    1432.6007        87550        49818 
17520000    1.0187502  -0.41111649      1728000    1433.4042        87600        49846 
17530000   0.97298121  -0.39145748      1728000    1434.2334        87650        49879 
17540000   0.96982278  -0.39384863      1728000    1435.0543        87700        49909 
17550000    1.0393363  -0.40108759      1728000    1435.8584        87750        49938 
17560000     1.020607  -0.41620019      1728000    1436.6594        87800        49967 
17570000    1.0021644    -0.416695      1728000    1437.4703        87850        49995 
17580000    1.0092923  -0.43483544      1728000    1438.2722        87900        50036 
17590000   0.98766055  -0.46740381      1728000    1439.0903        87950        50064 
17600000   0.99120124  -0.47424722      1728000    1439.9247        88000        50093 
17610000   0.94576235  -0.49266531      1728000    1440.7422        88050        50119 
17620000    1.0109709  -0.46543536      1728000    1441.5685        88100        50144 
17630000   0.98950845  -0.44539698      1728000    1442.3903        88150        50173 
17640000   0.99419349  -0.42624596      1728000    1443.2003        88200        50197 
17650000   0.95295366  -0.43671942      1728000    1444.0082        88250        50227 
17660000   0.97886575   -0.4457571      1728000    1444.8133        88300        50254 
17670000    1.0103917  -0.41522988      1728000    1445.6151        88350        50289 
17680000    1.0758589  -0.44482476      1728000    1446.4423        88400        50314 
17690000    1.0314353  -0.45741265      1728000     1447.247        88450        50342 
17700000    1.0143903  -0.44480902      1728000    1448.0535        88500        50365 
17710000    1.0055968  -0.44760167      1728000    1448.8546        88550        50401 
17720000   0.97663534  -0.47723949      1728000    1449.6686        88600        50432 
17730000   0.97655477  -0.46072116      1728000    1450.4862        88650        50460 
17740000    1.0170722  -0.46256046      1728000    1451.2933        88700        50486 
17750000    0.9772656  -0.49500237      1728000    1452.1065        88750        50513 
17760000   0.98418945  -0.48576942      1728000    1452.9204        88800        50537 
17770000    1.0043256  -0.47295034      1728000    1453.7458        88850        50561 
17780000   0.95669382  -0.47332911      1728000    1454.5523        88900        50586 
17790000    0.9872793  -0.45834549      1728000    1455.3585        88950        50610 
17800000    1.0499186  -0.47357031      1728000    1456.1683        89000        50643 
17810000   0.98852147  -0.44163895      1728000    1456.9774        89050        50673 
17820000   0.99694711  -0.41662368      1728000    1457.7943        89100        50700 
17830000    1.0674226  -0.43476412      1728000    1458.6163        89150        50728 
17840000     1.055403  -0.46814654      1728000    1459.4283        89200        50764 
17850000    1.0207962  -0.45300951      1728000    1460.2398        89250        50795 
17860000    1.0392711  -0.44969425      1728000     1461.058        89300        50824 
17870000    1.0005276  -0.47707371      1728000    1461.9007        89350        50851 
17880000   0.97150703  -0.45488117      1728000    1462.7229        89400        50876 
17890000   0.98928876  -0.43746639      1728000    1463.5438        89450        50909 
17900000    0.9687461  -0.44779157      1728000    1464.3633        89500        50937 
17910000   0.97215206  -0.45749211      1728000    1465.1776        89550        50962 
17920000    1.0110164  -0.46491631      1728000    1466.0048        89600        50987 
17930000   0.99602538  -0.48030468      1728000    1466.8264        89650        51020 
17940000    1.0654813  -0.50269548      1728000    1467.6476        89700        51045 
17950000   0.97869654  -0.47691988      1728000    1468.4573        89750        51072 
17960000    0.9895345  -0.47882461      1728000    1469.2825        89800        51100 
17970000   0.97363024  -0.48806336      1728000    1470.0966        89850        51128 
17980000    1.0364013  -0.45999644      1728000    1470.9107        89900        51155 
17990000    1.0196151  -0.47432103      1728000    1471.7233        89950        51177 
18000000    1.0040129  -0.45586944      1728000    1472.5435        90000        51204 
18010000     1.008627  -0.46956608      1728000    1473.3585        90050        51235 
18020000    1.0322885  -0.43216806      1728000    1474.1808        90100        51262 
18030000   0.99469296  -0.41236355      1728000     1474.997        90150        51288 
18040000    1.0535959  -0.44833644      1728000    1475.8134        90200        51313 
18050000    1.0164574  -0.45908757      1728000    1476.6322        90250        51345 
18060000   0.99396466  -0.43939423      1728000    1477.4714        90300        51376 
18070000    1.0771031  -0.45427266      1728000    1478.2849        90350        51405 
18080000   0.97288666  -0.44133742      1728000    1479.1233        90400        51435 
18090000   0.95362522  -0.45918587      1728000    1479.9434        90450        51471 
18100000    1.0060349  -0.44018695      1728000    1480.7921        90500        51498 
18110000   0.99190581  -0.41181217      1728000    1481.6048        90550        51527 
18120000    1.0217315  -0.40256646      1728000     1482.425        90600        51554 
18130000   0.99691197  -0.41650032      1728000    1483.2592        90650        51582 
18140000    1.0037523  -0.39796081      1728000    1484.0624        90700        51615 
18150000    1.0162826  -0.43231619      1728000    1484.8623        90750        51645 
18160000   0.95125324  -0.41215554      1728000    1485.6784        90800        51673 
18170000     1.002049  -0.40784822      1728000    1486.4945        90850        51706 
18180000   0.98754299  -0.38887879      1728000    1487.2987        90900        51745 
18190000   0.95769431  -0.43530734      1728000    1488.1135        90950        51777 
18200000    0.9626135  -0.42301986      1728000    1488.9448        91000        51804 
18210000    1.0499551  -0.42175438      1728000    1489.7645        91050        51832 
18220000   0.99177386  -0.41774182      1728000    1490.5806        91100        51863 
18230000    1.0144887  -0.43114326      1728000     1491.521        91150        51894 
18240000     1.017559  -0.38467469      1728000    1492.3473        91200        51929 
18250000    1.0657506  -0.39852135      1728000    1493.1472        91250        51962 
18260000   0.98903789  -0.41143506      1728000    1493.9749        91300        51989 
18270000    0.9906785  -0.42312905      1728000     1494.831        91350        52017 
18280000   0.98470849  -0.41810607      1728000    1495.6672        91400        52039 
18290000   0.96760207  -0.43300297      1728000    1496.5634        91450        52067 
18300000    1.0829379  -0.43081591      1728000    1497.4265        91500        52087 
18310000   0.98520262  -0.41137825      1728000    1498.2746        91550        52119 
18320000   0.97272122  -0.39564428      1728000    1499.0853        91600        52156 
18330000    1.0112269  -0.38457836      1728000    1499.8863        91650        52182 
18340000    1.0039539  -0.41738992      1728000    1500.6975        91700        52214 
18350000    1.0198926  -0.45482699      1728000    1501.5386        91750        52243 
18360000    1.0078253  -0.41847661      1728000    1502.3623        91800        52271 
18370000    1.0361745  -0.43081938      1728000    1503.1599        91850        52305 
18380000   0.93764316  -0.41099056      1728000    1503.9713        91900        52330 
18390000   0.92124876  -0.39900898      1728000    1504.7891        91950        52356 
18400000   0.99075269  -0.41028272      1728000    1505.6108        92000        52384 
18410000   0.98135852  -0.45637781      1728000    1506.4204        92050        52414 
18420000   0.99069481  -0.42411393      1728000    1507.2234        92100        52438 
18430000    1.0090695  -0.40417462      1728000    1508.0213        92150        52469 
18440000    1.0093691   -0.4060481      1728000    1508.8242        92200        52493 
18450000   0.95064056  -0.43154422      1728000    1509.6303        92250        52518 
18460000   0.95737724  -0.41817894      1728000    1510.4343        92300        52541 
18470000   0.94657939  -0.40460479      1728000    1511.2358        92350        52570 
18480000   0.92855403  -0.42390817      1728000    1512.0323        92400        52599 
18490000    1.0261682  -0.42253978      1728000    1512.8302        92450        52627 
18500000    1.0000194  -0.40589565      1728000    1513.6323        92500        52656 
18510000    1.0068985  -0.42022931      1728000    1514.4285        92550        52681 
18520000   0.96110377  -0.40786879      1728000    1515.2331        92600        52711 
18530000    1.0336573  -0.40897401      1728000    1516.0305        92650        52742 
18540000   0.98349974  -0.42596043      1728000    1516.8414        92700        52769 
18550000    1.0282559  -0.40138486      1728000    1517.6459        92750        52798 
18560000    1.0048184  -0.41939465      1728000    1518.4403        92800        52823 
18570000   0.99660762  -0.41036764      1728000    1519.2321        92850        52854 
18580000   0.99489106  -0.42941448      1728000    1520.0224        92900        52886 
18590000     1.038694  -0.43286226      1728000    1520.8255        92950        52912 
18600000   0.97607959  -0.40438691      1728000    1521.6374        93000        52937 
18610000     1.063451  -0.44169834      1728000    1522.4434        93050        52967 
18620000    1.0320888  -0.40117696      1728000    1523.2455        93100        52995 
18630000    1.0511766  -0.40263612      1728000    1524.0714        93150        53023 
18640000   0.97277553  -0.38536831      1728000    1524.8724        93200        53055 
18650000    1.0201914  -0.41069136      1728000    1525.6917        93250        53086 
18660000   0.93115314  -0.38060342      1728000    1526.4903        93300        53118 
18670000   0.99632188  -0.41945965      1728000    1527.2959        93350        53147 
18680000    1.0142071   -0.4294698      1728000    1528.0996        93400        53176 
18690000   0.97077389  -0.40171101      1728000    1528.9067        93450        53207 
18700000    1.0513543  -0.41310765      1728000    1529.7228        93500        53233 
18710000   0.99510379  -0.44408641      1728000    1530.5285        93550        53268 
18720000    1.0171709  -0.42905285      1728000    1531.3355        93600        53300 
18730000    1.0478447  -0.42671812      1728000    1532.1455        93650        53326 
18740000    1.0002201  -0.42708809      1728000    1532.9516        93700        53350 
18750000    0.9826804  -0.43566597      1728000    1533.7585        93750        53376 
18760000    1.0164058  -0.43774535      1728000    1534.5753        93800        53403 
18770000      1.00884   -0.4524575      1728000    1535.3888        93850        53429 
18780000    1.0194283  -0.45682235      1728000    1536.2244        93900        53464 
18790000   0.96666091  -0.46022643      1728000    1537.0554        93950        53499 
18800000    1.0264415   -0.4510333      1728000    1537.8926        94000        53524 
18810000   0.92487487  -0.47668731      1728000    1538.7123        94050        53561 
18820000    1.0403368  -0.47554277      1728000    1539.5264        94100        53583 
18830000    1.0099764  -0.45668327      1728000    1540.3374        94150        53613 
18840000    1.0739755  -0.46643197      1728000    1541.1523        94200        53643 
18850000   0.97085038  -0.45384561      1728000    1541.9833        94250        53667 
18860000    1.0037498  -0.42549679      1728000    1542.8005        94300        53697 
18870000    1.0478333  -0.45114026      1728000    1543.6126        94350        53728 
18880000   0.97671374  -0.46433124      1728000    1544.4305        94400        53755 
18890000   0.97183381   -0.4250953      1728000    1545.2454        94450        53789 
18900000    1.0074922   -0.4349545      1728000    1546.0654        94500        53817 
18910000   0.96760156  -0.44372694      1728000    1546.8823        94550        53839 
18920000   0.99615496  -0.43600391      1728000    1547.6916        94600        53870 
18930000     1.034732  -0.41931547      1728000    1548.5026        94650        53900 
18940000   0.94206114  -0.40538835      1728000    1549.3136        94700        53933 
18950000    1.0044789  -0.38551359      1728000    1550.1146        94750        53962 
18960000    1.0234878  -0.37438548      1728000    1550.9177        94800        53993 
18970000   0.98373676  -0.37866628      1728000    1551.7335        94850        54022 
18980000    1.0625336  -0.40071505      1728000    1552.5415        94900        54055 
18990000     1.025742  -0.41035626      1728000    1553.3526        94950        54091 
19000000   0.98574567  -0.43095484      1728000    1554.1822        95000        54119 
19010000    1.0867539  -0.43103151      1728000    1554.9894        95050        54148 
19020000    1.0185449  -0.40662889      1728000    1555.7995        95100        54173 
19030000   0.94287805  -0.43264861      1728000    1556.5965        95150        54206 
19040000    1.0406224  -0.44876421      1728000    1557.4045        95200        54236 
19050000    1.0347777  -0.45741303      1728000    1558.2196        95250        54264 
19060000   0.93548247  -0.45671021      1728000    1559.0323        95300        54294 
19070000    1.0594515   -0.4366424      1728000    1559.8526        95350        54318 
19080000    1.0643451  -0.44703059      1728000    1560.6694        95400        54341 
19090000    1.0186825  -0.45802895      1728000    1561.4794        95450        54377 
19100000    1.0349577  -0.47014615      1728000    1562.3075        95500        54408 
19110000    1.0651866  -0.47870743      1728000    1563.1266        95550        54433 
19120000    1.0066951   -0.4368425      1728000    1563.9464        95600        54463 
19130000    1.0148979  -0.41614878      1728000    1564.7444        95650        54492 
19140000    1.0181484  -0.42663519      1728000    1565.5495        95700        54519 
19150000    1.0039157  -0.44413448      1728000    1566.3504        95750        54556 
19160000    1.0554671   -0.4509038      1728000    1567.1535        95800        54578 
19170000    1.0307145  -0.40714799      1728000    1567.9597        95850        54612 
19180000    1.0120871  -0.43348671      1728000    1568.7685        95900        54643 
19190000   0.97381118  -0.43987598      1728000    1569.5687        95950        54671 
19200000    1.0507599   -0.4070227      1728000    1570.3759        96000        54698 
19210000   0.97176327  -0.40127688      1728000    1571.1705        96050        54732 
19220000   0.90964392  -0.43020073      1728000    1571.9784        96100        54759 
19230000    1.0016519  -0.41804639      1728000    1572.7925        96150        54785 
19240000   0.98280347  -0.41309266      1728000    1573.6168        96200        54816 
19250000    1.0463367  -0.40514815      1728000    1574.4294        96250        54849 
19260000    1.0268966  -0.41730731      1728000     1575.253        96300        54882 
19270000    1.0554065  -0.44484024      1728000    1576.0817        96350        54912 
19280000    1.1183644  -0.43247702      1728000    1576.9123        96400        54939 
19290000   0.98451871  -0.43776543      1728000    1577.7437        96450        54971 
19300000   0.95993911  -0.42292163      1728000     1578.588        96500        54997 
19310000    1.0082789  -0.41456617      1728000    1579.4064        96550        55027 
19320000   0.95670166  -0.39397474      1728000    1580.2113        96600        55056 
19330000    1.0074016  -0.42106429      1728000    1581.0296        96650        55092 
19340000   0.97157245  -0.37664917      1728000    1581.8426        96700        55121 
19350000   0.97095691  -0.39007015      1728000    1582.6642        96750        55147 
19360000   0.98253407  -0.38156515      1728000    1583.4716        96800        55179 
19370000    1.0165662  -0.40109779      1728000    1584.3006        96850        55203 
19380000    1.0104629  -0.36619384      1728000    1585.1233        96900        55232 
19390000    1.0139985  -0.39744521      1728000    1585.9403        96950        55263 
19400000    1.0209537  -0.38582906      1728000    1586.7595        97000        55297 
19410000   0.95737939  -0.41347884      1728000    1587.5507        97050        55325 
19420000   0.97714012  -0.42217347      1728000    1588.3389        97100        55360 
19430000    1.0254054  -0.37937204      1728000    1589.1541        97150        55390 
19440000   0.95932298  -0.38104363      1728000    1589.9645        97200        55419 
19450000   0.98606366  -0.42530521      1728000    1590.7585        97250        55453 
19460000   0.99518991  -0.44560746      1728000    1591.5634        97300        55482 
19470000    1.0363444  -0.43048377      1728000    1592.3703        97350        55508 
19480000    1.0353498  -0.44543591      1728000    1593.1745        97400        55539 
19490000   0.94670232  -0.43873618      1728000    1593.9865        97450        55562 
19500000   0.99851506  -0.44671701      1728000    1594.8024        97500        55590 
19510000    1.0008037  -0.49562034      1728000    1595.6076        97550        55620 
19520000   0.96648031  -0.48943392      1728000    1596.4185        97600        55647 
19530000     0.991578  -0.44891305      1728000    1597.2255        97650        55668 
19540000   0.92137225  -0.44232713      1728000    1598.0263        97700        55693 
19550000    1.0153348  -0.43905698      1728000    1598.8235        97750        55719 
19560000   0.99228956  -0.42565885      1728000    1599.6294        97800        55744 
19570000   0.99835057  -0.39110155      1728000    1600.4373        97850        55766 
19580000     1.038776  -0.37726542      1728000    1601.2396        97900        55802 
19590000    1.0471471  -0.38882564      1728000    1602.0396        97950        55835 
19600000    1.0406599  -0.42121905      1728000    1602.8455        98000        55868 
19610000    1.0776367  -0.44233176      1728000    1603.6426        98050        55902 
19620000     1.040882  -0.41435992      1728000    1604.4485        98100        55930 
19630000   0.95993054  -0.42553414      1728000    1605.2654        98150        55963 
19640000    1.0377774  -0.43212012      1728000    1606.0735        98200        55993 
19650000   0.94287326  -0.45258125      1728000    1606.8906        98250        56025 
19660000    1.0242501  -0.44482774      1728000     1607.699        98300        56050 
19670000    1.0488765  -0.45134971      1728000    1608.5158        98350        56077 
19680000    1.0723626  -0.46641897      1728000    1609.3376        98400        56113 
19690000    1.0257642  -0.43818475      1728000    1610.1435        98450        56140 
19700000     1.013817  -0.41732645      1728000    1610.9555        98500        56170 
19710000   0.99391805  -0.44661023      1728000    1611.7636        98550        56198 
19720000    0.9792229  -0.43110433      1728000    1612.5791        98600        56225 
19730000    1.0264572  -0.45036858      1728000    1613.4052        98650        56253 
19740000    1.0490289  -0.50089335      1728000    1614.2425        98700        56280 
19750000   0.97894486  -0.45184897      1728000    1615.0614        98750        56309 
19760000    1.0434593  -0.43395533      1728000    1615.8926        98800        56335 
19770000    1.0579629  -0.41552582      1728000    1616.7124        98850        56364 
19780000    1.0214329  -0.44814736      1728000    1617.5536        98900        56396 
19790000    1.0415451  -0.45499284      1728000    1618.3935        98950        56425 
19800000    1.0095077  -0.44348192      1728000    1619.2345        99000        56452 
19810000    1.0376445  -0.43026412      1728000    1620.0586        99050        56480 
19820000    1.0395117  -0.45251088      1728000    1620.8765        99100        56513 
19830000    1.0835385  -0.43156655      1728000    1621.7145        99150        56544 
19840000    0.9778026   -0.4326647      1728000    1622.5175        99200        56572 
19850000   0.99330503   -0.4368821      1728000    1623.3345        99250        56595 
19860000   0.99322184  -0.42526271      1728000    1624.1436        99300        56624 
19870000    1.0517511   -0.4588633      1728000    1624.9595        99350        56658 
19880000   0.98480207  -0.47559568      1728000    1625.7857        99400        56685 
19890000    1.0277631  -0.43658876      1728000    1626.6325        99450        56716 
19900000   0.95837446   -0.4292601      1728000    1627.5053        99500        56748 
19910000   0.99793913  -0.43761057      1728000    1628.3856        99550        56774 
19920000    1.0322125  -0.45110841      1728000    1629.2275        99600        56802 
19930000    1.0014323  -0.43624021      1728000    1630.0506        99650        56833 
19940000    1.0171703  -0.45362206      1728000    1630.8823        99700        56856 
19950000   0.98177838  -0.48531591      1728000    1631.6924        99750        56885 
19960000    1.0079801  -0.43873119      1728000    1632.5027        99800        56913 
19970000   0.98866326  -0.47380638      1728000    1633.3092        99850        56941 
19980000     1.036421  -0.44210499      1728000    1634.1037        99900        56977 
19990000    1.0277642  -0.44803246      1728000    1634.8936        99950        57003 
20000000   0.95059142  -0.45168085      1728000    1635.7065       100000        57032 
20010000   0.94220497  -0.43645546      1728000    1636.5175       100050        57063 
20020000    1.0025244    -0.441907      1728000    1637.3265       100100        57085 
20030000    1.0098659  -0.42065437      1728000    1638.1195       100150        57113 
20040000   0.99769661  -0.42175353      1728000    1638.9285       100200        57146 
20050000   0.97133676  -0.40833962      1728000    1639.7416       100250        57177 
20060000   0.98133221  -0.40320588      1728000    1640.5385       100300        57202 
20070000   0.95550378  -0.42990475      1728000    1641.3416       100350        57228 
20080000    1.0391118  -0.46536334      1728000    1642.1388       100400        57259 
20090000   0.98067532     -0.44516      1728000    1642.9604       100450        57285 
20100000   0.92187473  -0.41245064      1728000    1643.7747       100500        57316 
20110000   0.97377468  -0.44117865      1728000    1644.5747       100550        57341 
20120000    1.0209545  -0.43499703      1728000    1645.3725       100600        57373 
20130000    1.0223978  -0.42583033      1728000    1646.1775       100650        57399 
20140000    1.0085116  -0.42921454      1728000    1646.9865       100700        57427 
20150000    1.0068838  -0.42923398      1728000    1647.8081       100750        57456 
20160000   0.98575714  -0.41045178      1728000    1648.6295       100800        57491 
20170000    1.0181763  -0.45673948      1728000    1649.4488       100850        57521 
20180000    1.0542103    -0.435984      1728000    1650.2448       100900        57546 
20190000    1.0136681  -0.41897264      1728000    1651.0478       100950        57574 
20200000   0.98714609  -0.47348904      1728000    1651.8694       101000        57603 
20210000   0.99044363  -0.46975348      1728000    1652.6943       101050        57630 
20220000   0.94816645  -0.49899289      1728000    1653.5186       101100        57664 
20230000   0.99551129  -0.46698206      1728000    1654.3367       101150        57693 
20240000     1.033361  -0.43704863      1728000     1655.151       101200        57720 
20250000     1.068231  -0.46417432      1728000    1655.9516       101250        57742 
20260000   0.97449514  -0.46344235      1728000    1656.7555       101300        57767 
20270000   0.99307085  -0.49897812      1728000    1657.5656       101350        57791 
20280000   0.97945688  -0.47435576      1728000    1658.3896       101400        57815 
20290000    1.0035707  -0.48683581      1728000    1659.2114       101450        57842 
20300000    1.0005974  -0.47239135      1728000    1660.0309       101500        57863 
20310000   0.97812053  -0.46462407      1728000    1660.8446       101550        57893 
20320000    1.0558474  -0.48971168      1728000    1661.6647       101600        57913 
20330000    1.0520885  -0.50632872      1728000     1662.493       101650        57940 
20340000    0.9699228  -0.50941217      1728000    1663.3494       101700        57966 
20350000    1.0055222   -0.4777518      1728000    1664.1907       101750        57991 
20360000   0.99268787  -0.48666733      1728000    1665.0306       101800        58021 
20370000   0.99040588  -0.46681558      1728000    1665.8627       101850        58046 
20380000    1.0614998  -0.47288552      1728000    1666.6794       101900        58077 
20390000   0.95483581  -0.47393172      1728000    1667.5233       101950        58103 
20400000    1.0562051  -0.45423016      1728000    1668.3725       102000        58135 
20410000    1.0133376  -0.49201851      1728000    1669.2024       102050        58165 
20420000    1.0213389  -0.50479658      1728000    1670.0136       102100        58193 
20430000    1.0107402  -0.47416031      1728000    1670.8236       102150        58216 
20440000   0.97170727  -0.47149635      1728000    1671.6347       102200        58238 
20450000    1.0141116  -0.46517102      1728000    1672.4494       102250        58263 
20460000   0.98572003  -0.46093425      1728000    1673.2508       102300        58292 
20470000    1.0745631  -0.46507337      1728000    1674.0618       102350        58318 
20480000    1.0149339  -0.45679691      1728000    1674.8741       102400        58343 
20490000    1.0382966   -0.4439208      1728000    1675.6864       102450        58372 
20500000    1.0278532  -0.47997808      1728000    1676.5027       102500        58400 
20510000    1.0228923  -0.46722798      1728000    1677.3117       102550        58430 
20520000    1.0149695  -0.46671802      1728000    1678.1196       102600        58458 
20530000    1.0795232  -0.44969536      1728000    1678.9394       102650        58485 
20540000   0.98145431  -0.45106738      1728000    1679.7517       102700        58517 
20550000    1.0256425  -0.43408665      1728000    1680.5628       102750        58548 
20560000    1.0002244  -0.41047137      1728000    1681.3798       102800        58581 
20570000    1.1127201  -0.40606084      1728000    1682.1893       102850        58608 
20580000    1.0409536  -0.38248235      1728000    1682.9876       102900        58634 
20590000   0.97666528  -0.43301846      1728000    1683.7906       102950        58664 
20600000   0.97425926  -0.45070233      1728000    1684.6036       103000        58696 
20610000    1.0349545  -0.47577432      1728000    1685.4197       103050        58727 
20620000    1.0284421  -0.45841021      1728000    1686.2478       103100        58755 
20630000   0.98595007  -0.41255974      1728000     1687.073       103150        58788 
20640000   0.98931163  -0.42271853      1728000    1687.8887       103200        58821 
20650000   0.99282228  -0.41134132      1728000    1688.7196       103250        58846 
20660000     1.061149  -0.42030795      1728000    1689.5365       103300        58876 
20670000   0.98381483  -0.44181465      1728000    1690.3676       103350        58902 
20680000    1.0003897  -0.43337199      1728000    1691.2025       103400        58934 
20690000    1.0037721  -0.46088512      1728000    1692.0338       103450        58965 
20700000    1.0660303   -0.4354024      1728000    1692.8595       103500        58991 
20710000   0.98081031  -0.41692328      1728000    1693.6862       103550        59017 
20720000     1.049239  -0.42269021      1728000    1694.5046       103600        59040 
20730000     1.024911  -0.44355985      1728000    1695.3195       103650        59069 
20740000    1.0918735  -0.45371769      1728000     1696.138       103700        59095 
20750000   0.99622325  -0.44715644      1728000    1696.9624       103750        59123 
20760000    1.0178321  -0.43755811      1728000    1697.8086       103800        59152 
20770000    1.0500797  -0.43257222      1728000    1698.6474       103850        59181 
20780000   0.97834741  -0.45427064      1728000    1699.4806       103900        59214 
20790000    1.0105894  -0.48960128      1728000    1700.3015       103950        59246 
20800000   0.97230416  -0.47926999      1728000    1701.1257       104000        59274 
20810000    1.0463575   -0.5012077      1728000    1701.9453       104050        59300 
20820000   0.96255924  -0.48319767      1728000    1702.7716       104100        59324 
20830000    1.0515807   -0.5341243      1728000    1703.6182       104150        59352 
20840000   0.99578489   -0.5022551      1728000    1704.4542       104200        59379 
20850000   0.95203972  -0.49842443      1728000    1705.2798       104250        59396 
20860000   0.99968486  -0.52349823      1728000    1706.1193       104300        59427 
20870000   0.96605029  -0.46984277      1728000    1706.9438       104350        59451 
20880000   0.95968989  -0.46957285      1728000    1707.7596       104400        59486 
20890000   0.96864284  -0.48411687      1728000    1708.6018       104450        59507 
20900000    1.0021022  -0.43087667      1728000    1709.4394       104500        59537 
20910000   0.96021071  -0.42997494      1728000    1710.2686       104550        59571 
20920000    1.0177861  -0.41711234      1728000    1711.1718       104600        59597 
20930000    1.0252837  -0.42432267      1728000    1712.0259       104650        59624 
20940000    1.0139291  -0.41811284      1728000    1712.8761       104700        59655 
20950000   0.94624958  -0.43387905      1728000    1713.6926       104750        59686 
20960000   0.96378238  -0.44882523      1728000    1714.6148       104800        59712 
20970000   0.93529116  -0.46422657      1728000    1715.5529       104850        59734 
20980000   0.96049897  -0.44810078      1728000    1716.3826       104900        59764 
20990000   0.95141552  -0.43817332      1728000    1717.2146       104950        59786 
21000000   0.94861439  -0.41954962      1728000    1718.0514       105000        59816 
21010000    1.0198265  -0.41649015      1728000    1718.8795       105050        59845 
21020000    1.0071073  -0.40249877      1728000    1719.7061       105100        59874 
21030000    1.0372502  -0.40094842      1728000    1720.6191       105150        59909 
21040000    1.0293326  -0.38031438      1728000    1721.4852       105200        59937 
21050000   0.98329649  -0.40619597      1728000    1722.3244       105250        59966 
21060000    1.0155077  -0.39750036      1728000    1723.1417       105300        59995 
21070000    1.0010102   -0.4005057      1728000    1723.9348       105350        60027 
21080000    1.0087329  -0.39404569      1728000    1724.8558       105400        60057 
21090000    1.0736988  -0.43123217      1728000    1725.6796       105450        60082 
21100000    1.0524018  -0.41586757      1728000    1726.4997       105500        60107 
21110000   0.96521701  -0.40254847      1728000    1727.3005       105550        60137 
21120000      1.00465  -0.44224667      1728000    1728.1006       105600        60171 
21130000    0.9820093  -0.44785857      1728000    1728.8995       105650        60200 
21140000    1.0182014  -0.41638134      1728000    1729.6846       105700        60233 
21150000    1.0305408  -0.43223635      1728000    1730.4816       105750        60265 
21160000    1.0360295  -0.43998209      1728000    1731.3106       105800        60302 
21170000    1.0510922  -0.44863895      1728000    1732.2226       105850        60334 
21180000   0.97860732  -0.44008399      1728000    1733.0556       105900        60361 
21190000    1.0291951  -0.43433229      1728000    1733.8619       105950        60392 
21200000   0.96122566  -0.42704818      1728000    1734.6817       106000        60419 
21210000    1.0050733  -0.42863865      1728000      1735.48       106050        60449 
21220000   0.98905256  -0.42812714      1728000    1736.2854       106100        60473 
21230000    1.0065118  -0.40972382      1728000    1737.1088       106150        60501 
21240000    1.0743469  -0.43535828      1728000    1737.9144       106200        60532 
21250000   0.98926262  -0.41752752      1728000    1738.7326       106250        60560 
21260000   0.92655725  -0.41212367      1728000    1739.5699       106300        60584 
21270000   0.94469725  -0.50730068      1728000       1740.4       106350        60611 
21280000    1.0137103   -0.4606484      1728000    1741.2332       106400        60637 
21290000    1.0081253  -0.43756853      1728000    1742.0839       106450        60662 
21300000    1.0287924  -0.44621413      1728000    1742.9119       106500        60690 
21310000   0.97090153  -0.43455423      1728000    1743.7242       106550        60723 
21320000    1.0213673  -0.45720179      1728000    1744.5305       106600        60754 
21330000    1.0177811  -0.45890186      1728000    1745.3307       106650        60781 
21340000    1.0264317  -0.45808891      1728000    1746.1351       106700        60808 
21350000    1.0452269  -0.44844787      1728000    1746.9463       106750        60838 
21360000   0.96886346  -0.42131458      1728000    1747.7537       106800        60863 
21370000   0.94807433  -0.41527304      1728000    1748.5699       106850        60892 
21380000   0.99973903  -0.46869966      1728000    1749.3775       106900        60923 
21390000   0.96947408  -0.44399491      1728000    1750.2051       106950        60949 
21400000    1.0214713  -0.43825431      1728000    1751.0386       107000        60981 
21410000    1.0171921  -0.44775542      1728000    1751.8528       107050        61011 
21420000    1.0127629  -0.46226372      1728000    1752.6622       107100        61047 
21430000   0.98358836  -0.42452885      1728000    1753.4729       107150        61072 
21440000   0.99222642  -0.45017473      1728000    1754.2777       107200        61100 
21450000    0.9823639  -0.46556216      1728000    1755.0818       107250        61128 
21460000   0.97606526  -0.45509449      1728000     1755.893       107300        61157 
21470000   0.95623366  -0.44107619      1728000    1756.7084       107350        61182 
21480000   0.97446956  -0.44160748      1728000    1757.5285       107400        61207 
21490000   0.97541753  -0.42667626      1728000    1758.3548       107450        61235 
21500000   0.98416922  -0.47258521      1728000    1759.1829       107500        61262 
21510000   0.98192147  -0.45316069      1728000    1760.0162       107550        61285 
21520000    1.0424344  -0.47329346      1728000    1760.8595       107600        61307 
21530000   0.94907603  -0.46198966      1728000    1761.6654       107650        61329 
21540000   0.98660687  -0.43846929      1728000    1762.4765       107700        61362 
21550000     1.063464  -0.44317492      1728000    1763.2931       107750        61390 
21560000    1.0113683  -0.45743261      1728000    1764.1136       107800        61421 
21570000   0.98900366  -0.45082947      1728000    1764.9508       107850        61448 
21580000    1.0304207  -0.43848328      1728000    1765.7579       107900        61482 
21590000    1.0084207  -0.44972519      1728000    1766.5747       107950        61508 
21600000    0.9852782  -0.49660957      1728000    1767.4008       108000        61541 
21610000    1.0576647  -0.50136832      1728000    1768.2208       108050        61560 
21620000    1.0196158  -0.48525732      1728000    1769.0367       108100        61593 
21630000    1.0502444  -0.47992171      1728000    1769.8585       108150        61627 
21640000   0.98910384  -0.48291152      1728000    1770.6907       108200        61652 
21650000   0.96189565  -0.47828378      1728000    1771.5037       108250        61684 
21660000   0.98417482  -0.49430636      1728000    1772.3398       108300        61709 
21670000    1.0057842  -0.51214747      1728000    1773.1655       108350        61737 
21680000   0.97136165   -0.4527393      1728000    1774.0016       108400        61762 
21690000    1.0015446  -0.51918042      1728000    1774.8268       108450        61790 
21700000   0.99280116  -0.48023085      1728000    1775.6659       108500        61817 
21710000   0.98182562  -0.50732315      1728000    1776.4919       108550        61840 
21720000   0.95221208  -0.45580628      1728000    1777.3057       108600        61868 
21730000    1.0002885  -0.45320906      1728000    1778.1189       108650        61890 
21740000    1.0633204  -0.44751118      1728000    1778.9198       108700        61922 
21750000    1.0050767  -0.45442659      1728000    1779.7215       108750        61948 
21760000    1.0739634  -0.46399671      1728000    1780.5309       108800        61972 
21770000   0.97232764  -0.46386923      1728000    1781.3509       108850        61999 
21780000    1.0348425  -0.46291201      1728000    1782.1589       108900        62023 
21790000    1.0528711  -0.48803951      1728000    1782.9849       108950        62048 
21800000    1.0170157  -0.48637826      1728000    1783.8127       109000        62076 
21810000   0.97049094   -0.5078943      1728000    1784.6357       109050        62101 
21820000    1.0082798  -0.52117567      1728000    1785.4886       109100        62124 
21830000    1.0113471  -0.47781547      1728000    1786.3165       109150        62150 
21840000   0.94736541  -0.44832647      1728000    1787.1277       109200        62175 
21850000    1.0632882  -0.48286513      1728000    1787.9317       109250        62202 
21860000    1.0148734  -0.46483414      1728000    1788.7377       109300        62240 
21870000    1.0195613  -0.42198293      1728000    1789.5577       109350        62268 
21880000    1.0559136  -0.44914173      1728000    1790.3657       109400        62302 
21890000    1.0044212  -0.43130961      1728000    1791.1859       109450        62326 
21900000    1.0129026  -0.42941027      1728000    1792.0147       109500        62356 
21910000    1.0358386  -0.42799885      1728000     1792.828       109550        62386 
21920000    1.0281475  -0.41090091      1728000    1793.6715       109600        62413 
21930000   0.98855349  -0.42632466      1728000    1794.5066       109650        62446 
21940000   0.97867392  -0.39420137      1728000    1795.3405       109700        62473 
21950000    1.0082725  -0.42740215      1728000    1796.1656       109750        62499 
21960000   0.99411466  -0.45293116      1728000    1797.0307       109800        62525 
21970000    1.0870049  -0.47657665      1728000    1797.8829       109850        62549 
21980000   0.96734453  -0.48292539      1728000     1798.733       109900        62576 
21990000    1.0439307  -0.46414056      1728000    1799.5411       109950        62607 
22000000    1.0280818  -0.48496491      1728000    1800.3569       110000        62634 
22010000   0.99360963  -0.46074367      1728000    1801.1575       110050        62662 
22020000   0.98617023  -0.46377439      1728000    1801.9728       110100        62692 
22030000    1.0346028   -0.4668402      1728000    1802.7927       110150        62719 
22040000   0.96603972  -0.45578435      1728000    1803.5998       110200        62752 
22050000    1.0410817  -0.48427539      1728000    1804.4354       110250        62779 
22060000   0.95054331  -0.49206151      1728000    1805.2867       110300        62806 
22070000    1.0027805  -0.48751468      1728000    1806.0975       110350        62836 
22080000     1.027574  -0.47526681      1728000    1806.9266       110400        62860 
22090000    1.0086895  -0.48598577      1728000    1807.7479       110450        62893 
22100000   0.95824049  -0.47789051      1728000    1808.5708       110500        62926 
22110000    1.0007222  -0.45443628      1728000    1809.3791       110550        62955 
22120000   0.97410082  -0.46109486      1728000    1810.1927       110600        62985 
22130000    1.0082201  -0.47238113      1728000    1810.9989       110650        63013 
22140000    0.9638095  -0.44814199      1728000     1811.812       110700        63047 
22150000    1.0139225  -0.46034774      1728000    1812.6442       110750        63079 
22160000    1.0319566  -0.44337129      1728000    1813.4757       110800        63110 
22170000    1.0394373  -0.43702136      1728000    1814.3203       110850        63139 
22180000   0.96971937  -0.41596706      1728000    1815.1558       110900        63167 
22190000   0.99184635   -0.4269197      1728000    1815.9683       110950        63201 
22200000   0.97428609  -0.41722483      1728000    1816.7995       111000        63231 
22210000    1.0357656   -0.4426993      1728000    1817.6277       111050        63255 
22220000    1.0225343  -0.43734434      1728000    1818.4789       111100        63287 
22230000   0.98463172  -0.41945405      1728000    1819.2857       111150        63316 
22240000   0.99281528  -0.44795857      1728000    1820.0998       111200        63345 
22250000   0.96976288   -0.4308913      1728000     1820.927       111250        63373 
22260000   0.99405557   -0.4454328      1728000    1821.7502       111300        63402 
22270000    1.0197634  -0.43702191      1728000    1822.5667       111350        63432 
22280000    1.0297287  -0.45445446      1728000    1823.3887       111400        63458 
22290000     1.010353  -0.40587622      1728000    1824.2269       111450        63485 
22300000   0.99474781  -0.44923965      1728000    1825.0547       111500        63506 
22310000    1.0000459  -0.46269678      1728000    1825.9167       111550        63532 
22320000   0.98071777   -0.4725687      1728000    1826.8156       111600        63561 
22330000    1.0182298  -0.46100583      1728000    1827.6626       111650        63587 
22340000   0.90718319  -0.46158712      1728000    1828.4848       111700        63613 
22350000    1.0473656  -0.51637531      1728000    1829.3239       111750        63636 
22360000    1.0594306  -0.45894317      1728000    1830.1609       111800        63667 
22370000   0.99003733  -0.48564368      1728000    1831.0258       111850        63692 
22380000    1.0740025   -0.4875997      1728000    1831.8568       111900        63715 
22390000    1.0120819  -0.41071099      1728000    1832.6915       111950        63742 
22400000   0.98469608  -0.43622096      1728000    1833.5576       112000        63768 
22410000   0.92961546  -0.44009286      1728000    1834.3747       112050        63796 
22420000    1.0660988  -0.44937701      1728000    1835.2267       112100        63819 
22430000   0.98914942  -0.44802588      1728000    1836.0668       112150        63847 
22440000    1.0203308   -0.4719741      1728000     1836.882       112200        63882 
22450000    1.0320488  -0.48324367      1728000    1837.7058       112250        63906 
22460000    1.0380424  -0.50155144      1728000    1838.5347       112300        63930 
22470000    1.0640981  -0.48289183      1728000    1839.3667       112350        63951 
22480000    1.0289829  -0.47979222      1728000    1840.2008       112400        63982 
22490000   0.98018879  -0.47251761      1728000    1841.0377       112450        64016 
22500000    1.0468067     -0.52996      1728000    1841.8699       112500        64044 
22510000    1.0449737  -0.51308946      1728000    1842.6966       112550        64070 
22520000    1.0510909  -0.54300988      1728000    1843.5288       112600        64099 
22530000   0.95372647  -0.53335392      1728000    1844.3871       112650        64115 
22540000     1.050828   -0.5056299      1728000    1845.2478       112700        64140 
22550000   0.96796395  -0.54408899      1728000    1846.0816       112750        64167 
22560000   0.93329525  -0.54713641      1728000    1846.9318       112800        64193 
22570000    1.0002021  -0.55115468      1728000    1847.7689       112850        64226 
22580000   0.94419986  -0.52532655      1728000    1848.6089       112900        64253 
22590000     1.008487  -0.51844903      1728000    1849.4525       112950        64282 
22600000     1.071662  -0.52263273      1728000      1850.29       113000        64304 
22610000   0.98413254  -0.52677592      1728000    1851.1257       113050        64330 
22620000    0.9750547  -0.50058033      1728000    1851.9827       113100        64353 
22630000    1.0299129   -0.5202666      1728000    1852.8327       113150        64377 
22640000   0.98273962  -0.53987003      1728000    1853.6728       113200        64397 
22650000    0.9749455  -0.53401237      1728000    1854.5439       113250        64422 
22660000   0.98642414  -0.52773671      1728000    1855.4032       113300        64449 
22670000   0.96786534  -0.53817085      1728000    1856.2727       113350        64473 
22680000   0.99468783  -0.55559053      1728000    1857.1026       113400        64496 
22690000    1.0875062  -0.52300245      1728000    1857.9622       113450        64515 
22700000   0.98728108  -0.49378219      1728000      1858.79       113500        64540 
22710000    0.9985491  -0.49279171      1728000    1859.5961       113550        64564 
22720000   0.97969668  -0.48850415      1728000    1860.4066       113600        64594 
22730000   0.99258283  -0.49113265      1728000    1861.2218       113650        64623 
22740000   0.99623099  -0.48246109      1728000     1862.038       113700        64639 
22750000    1.0086295   -0.5107126      1728000    1862.8457       113750        64667 
22760000    1.0101392  -0.46043916      1728000    1863.6689       113800        64696 
22770000   0.98307629  -0.46125611      1728000    1864.4811       113850        64722 
22780000   0.99416191  -0.51655183      1728000    1865.2989       113900        64747 
22790000   0.97305171  -0.47736444      1728000    1866.1216       113950        64777 
22800000    1.0095467   -0.4746259      1728000    1866.9499       114000        64808 
22810000   0.96442624  -0.48242642      1728000    1867.7739       114050        64832 
22820000   0.98904586  -0.48960468      1728000    1868.5948       114100        64859 
22830000    1.0599212  -0.42949548      1728000    1869.4211       114150        64885 
22840000    1.0300721  -0.44038007      1728000    1870.2379       114200        64911 
22850000   0.97829628  -0.42963605      1728000    1871.0632       114250        64941 
22860000    1.0493395  -0.45797635      1728000    1871.8806       114300        64972 
22870000   0.99653774  -0.43257934      1728000    1872.6879       114350        65006 
22880000   0.97723163  -0.44042894      1728000    1873.4977       114400        65035 
22890000   0.97809114  -0.45960481      1728000    1874.3369       114450        65061 
22900000    1.0004121  -0.47208962      1728000    1875.2081       114500        65091 
22910000    1.0118322  -0.45491803      1728000    1876.0267       114550        65118 
22920000    1.0173959  -0.43648432      1728000    1876.8418       114600        65145 
22930000    1.0130936  -0.42042763      1728000    1877.6548       114650        65173 
22940000    0.9750979  -0.43656119      1728000    1878.4629       114700        65200 
22950000    1.0150332  -0.44467254      1728000    1879.2718       114750        65227 
22960000    1.0236954   -0.4330522      1728000     1880.082       114800        65254 
22970000    1.0541177  -0.42924611      1728000    1880.9354       114850        65283 
22980000    1.0149184  -0.42249908      1728000    1881.7937       114900        65312 
22990000     1.053346  -0.40716808      1728000    1882.6178       114950        65343 
23000000   0.99695924  -0.43025331      1728000     1883.463       115000        65375 
23010000    1.0226077  -0.39409103      1728000    1884.2958       115050        65402 
23020000    1.0193275  -0.42338752      1728000    1885.0998       115100        65435 
23030000    1.0689451  -0.40916516      1728000    1885.9015       115150        65467 
23040000    1.0645067  -0.40681805      1728000     1886.706       115200        65491 
23050000    1.0384887  -0.38401663      1728000    1887.5149       115250        65526 
23060000    1.0876124   -0.4036852      1728000    1888.3174       115300        65558 
23070000    1.0477841   -0.3874763      1728000    1889.1257       115350        65589 
23080000    1.0983458  -0.39770285      1728000    1889.9378       115400        65617 
23090000    1.0294634  -0.39338685      1728000    1890.7806       115450        65648 
23100000   0.96905598  -0.41630484      1728000    1891.6238       115500        65671 
23110000   0.98011728  -0.39904487      1728000    1892.4459       115550        65703 
23120000   0.95882295  -0.43542604      1728000    1893.2598       115600        65729 
23130000    1.0568578  -0.42512785      1728000    1894.0539       115650        65757 
23140000    1.0196545  -0.45736196      1728000    1894.8607       115700        65780 
23150000    0.9924825   -0.4544185      1728000    1895.6687       115750        65806 
23160000    1.0507317  -0.44780759      1728000    1896.4717       115800        65832 
23170000     1.035487  -0.40288837      1728000     1897.266       115850        65864 
23180000   0.98453301  -0.42170352      1728000    1898.0685       115900        65892 
23190000    1.0029792  -0.39273907      1728000    1898.8624       115950        65920 
23200000   0.99795946  -0.41259371      1728000    1899.6569       116000        65954 
23210000   0.97582145  -0.40169187      1728000    1900.4515       116050        65981 
23220000    1.0112781  -0.38768772      1728000    1901.2409       116100        66018 
23230000   0.96632846  -0.39692611      1728000    1902.0283       116150        66051 
23240000   0.92485264  -0.37254808      1728000    1902.8183       116200        66081 
23250000   0.94693909  -0.38417625      1728000    1903.6105       116250        66110 
23260000    1.0438118   -0.4039316      1728000    1904.4119       116300        66138 
23270000   0.99573316  -0.42395369      1728000    1905.2092       116350        66172 
23280000   0.99366978  -0.41937937      1728000    1906.0158       116400        66200 
23290000    1.0154731   -0.4105763      1728000     1906.829       116450        66226 
23300000   0.98794534  -0.42125607      1728000    1907.6503       116500        66254 
23310000    1.0297929  -0.42780115      1728000    1908.4699       116550        66281 
23320000    1.0645022  -0.40515643      1728000     1909.271       116600        66316 
23330000    1.0257722  -0.41325337      1728000    1910.0699       116650        66347 
23340000    1.0341396  -0.39864122      1728000    1910.8698       116700        66380 
23350000    1.0155405  -0.39563638      1728000    1911.6758       116750        66410 
23360000    1.0235953  -0.39066658      1728000    1912.4858       116800        66442 
23370000     1.022203  -0.43460228      1728000    1913.2881       116850        66472 
23380000   0.99986484  -0.41301337      1728000    1914.0927       116900        66502 
23390000    1.0183189  -0.40304933      1728000    1914.9069       116950        66526 
23400000   0.98979013  -0.38814821      1728000    1915.7197       117000        66556 
23410000    1.0035937  -0.41607973      1728000    1916.5431       117050        66591 
23420000   0.97858494  -0.43836034      1728000     1917.349       117100        66627 
23430000    1.0118825  -0.42717512      1728000    1918.1768       117150        66653 
23440000    1.0018027  -0.44894281      1728000    1919.0129       117200        66679 
23450000    1.0157247  -0.45911597      1728000    1919.8434       117250        66709 
23460000   0.99317412  -0.44161536      1728000    1920.6818       117300        66733 
23470000   0.97268207  -0.42397264      1728000    1921.5127       117350        66763 
23480000   0.98578897  -0.45812187      1728000    1922.3538       117400        66791 
23490000   0.98696872  -0.44962451      1728000    1923.1587       117450        66822 
23500000   0.98251023  -0.45861862      1728000    1923.9819       117500        66847 
23510000    1.0181675  -0.46097487      1728000    1924.7927       117550        66873 
23520000   0.92984056  -0.46001288      1728000    1925.6169       117600        66902 
23530000    1.0786539  -0.41646326      1728000     1926.455       117650        66931 
23540000    1.0160317  -0.40451291      1728000    1927.2986       117700        66960 
23550000    1.0847359  -0.42278788      1728000    1928.1139       117750        66988 
23560000   0.97556247  -0.42741533      1728000    1928.9248       117800        67018 
23570000   0.95189221  -0.42001458      1728000    1929.7421       117850        67051 
23580000   0.99190778  -0.46046256      1728000    1930.5708       117900        67084 
23590000    1.0195923  -0.40148989      1728000    1931.3919       117950        67113 
23600000   0.99911784  -0.43350156      1728000    1932.2088       118000        67143 
23610000   0.97644421   -0.4386876      1728000    1933.0637       118050        67167 
23620000    1.0519456  -0.42894724      1728000    1933.8999       118100        67196 
23630000    1.0113252  -0.41077831      1728000    1934.7587       118150        67223 
23640000   0.96588868  -0.43287104      1728000     1935.596       118200        67250 
23650000    1.0323743  -0.42034299      1728000    1936.4156       118250        67280 
23660000    1.0203584   -0.4439642      1728000    1937.2379       118300        67311 
23670000   0.94041133  -0.44554377      1728000    1938.0569       118350        67338 
23680000    1.0109095  -0.42189312      1728000    1938.8769       118400        67371 
23690000   0.95098725  -0.44936639      1728000    1939.6769       118450        67393 
23700000   0.92443573  -0.48457507      1728000    1940.5288       118500        67418 
23710000   0.99539399  -0.43241655      1728000      1941.36       118550        67442 
23720000    1.0297262  -0.43041078      1728000     1942.186       118600        67465 
23730000    1.0415458  -0.48694234      1728000    1942.9881       118650        67495 
23740000   0.99479153  -0.50247264      1728000    1943.8278       118700        67522 
23750000    1.0478052  -0.44744384      1728000    1944.6379       118750        67547 
23760000    1.0341291  -0.47946593      1728000    1945.4476       118800        67576 
23770000   0.92836076   -0.4605193      1728000    1946.2618       118850        67604 
23780000    1.0086465  -0.49186364      1728000    1947.0821       118900        67626 
23790000    1.0268341   -0.4662138      1728000    1947.9168       118950        67656 
23800000   0.92796812  -0.47597978      1728000     1948.756       119000        67684 
23810000    1.0009011  -0.46852065      1728000    1949.5691       119050        67712 
23820000    0.9263099   -0.4881882      1728000    1950.3942       119100        67742 
23830000   0.98402878  -0.44639322      1728000     1951.238       119150        67766 
23840000    1.0469197   -0.4849075      1728000     1952.064       119200        67797 
23850000      1.00798  -0.47005466      1728000    1952.9178       119250        67822 
23860000    1.0031493  -0.46615091      1728000    1953.7859       119300        67849 
23870000    1.0462111  -0.48284819      1728000    1954.6469       119350        67872 
23880000     1.040809  -0.46315054      1728000    1955.5829       119400        67900 
23890000    1.0622444  -0.47168619      1728000     1956.434       119450        67930 
23900000   0.96514159  -0.47291281      1728000    1957.3072       119500        67962 
23910000   0.97622167  -0.48220567      1728000    1958.1549       119550        67986 
23920000    1.0335322  -0.46774281      1728000    1959.0058       119600        68017 
23930000   0.88071335  -0.45500652      1728000    1959.8167       119650        68046 
23940000   0.95571613  -0.46569393      1728000    1960.6239       119700        68074 
23950000    1.0353117  -0.46539798      1728000     1961.438       119750        68097 
23960000    0.9729775  -0.48258411      1728000    1962.2522       119800        68122 
23970000   0.94329394  -0.47189467      1728000     1963.065       119850        68146 
23980000    1.0329397  -0.43828375      1728000    1963.8699       119900        68178 
23990000    1.0565912  -0.41842538      1728000     1964.677       119950        68204 
24000000   0.97527933  -0.48788064      1728000     1965.499       120000        68238 
24010000    1.0385919  -0.46094402      1728000    1966.3198       120050        68266 
24020000     1.013314  -0.47379397      1728000    1967.1395       120100        68292 
24030000   0.97163793  -0.47554733      1728000    1967.9645       120150        68316 
24040000    0.9594442  -0.47605376      1728000     1968.795       120200        68341 
24050000    1.0489547  -0.41163283      1728000    1969.6212       120250        68369 
24060000    1.0102572  -0.43510709      1728000    1970.4374       120300        68404 
24070000   0.95686602  -0.44458077      1728000    1971.2785       120350        68428 
24080000    1.0221985  -0.46787016      1728000    1972.0977       120400        68451 
24090000    1.0331576   -0.4497627      1728000    1972.9108       120450        68483 
24100000   0.99918681   -0.4790418      1728000    1973.7615       120500        68510 
24110000   0.99851523  -0.47166257      1728000    1974.5785       120550        68539 
24120000    1.0408921  -0.43171283      1728000    1975.3851       120600        68568 
24130000   0.97793287  -0.45524725      1728000    1976.1943       120650        68603 
24140000    1.0099206  -0.46995005      1728000    1976.9975       120700        68630 
24150000   0.92319862  -0.45399352      1728000    1977.8109       120750        68666 
24160000    1.0167233  -0.44821044      1728000    1978.6298       120800        68692 
24170000   0.94167387    -0.466709      1728000    1979.4479       120850        68726 
24180000   0.98398989  -0.43601494      1728000    1980.2681       120900        68750 
24190000   0.99153941  -0.44012368      1728000    1981.0851       120950        68776 
24200000   0.99097709  -0.44094256      1728000    1981.9055       121000        68806 
24210000    1.0181611  -0.45280832      1728000     1982.724       121050        68831 
24220000    1.0393114  -0.44952986      1728000    1983.5418       121100        68857 
24230000    0.9848631   -0.4523993      1728000      1984.37       121150        68887 
24240000     1.004463   -0.4683479      1728000     1985.192       121200        68915 
24250000   0.95580248  -0.46188629      1728000    1986.0138       121250        68943 
24260000   0.99638314  -0.45527956      1728000    1986.8439       121300        68974 
24270000   0.92909634  -0.47605199      1728000    1987.6972       121350        68996 
24280000   0.91460779  -0.46361412      1728000    1988.5247       121400        69020 
24290000   0.97870752  -0.49770014      1728000    1989.3398       121450        69046 
24300000   0.96214269  -0.50213664      1728000    1990.1597       121500        69076 
24310000    1.0517608   -0.5159927      1728000    1990.9755       121550        69107 
24320000    1.0402435    -0.512297      1728000    1991.8284       121600        69137 
24330000    1.0351526  -0.49157848      1728000    1992.6709       121650        69166 
24340000   0.99567106  -0.46304291      1728000    1993.4944       121700        69197 
24350000     1.008464  -0.48864993      1728000    1994.3305       121750        69228 
24360000     1.017512  -0.46781568      1728000    1995.1478       121800        69250 
24370000   0.94445844  -0.43606798      1728000    1995.9689       121850        69273 
24380000    1.0075772  -0.44986414      1728000    1996.8068       121900        69301 
24390000    1.0282414  -0.46344364      1728000    1997.6311       121950        69330 
24400000    1.0728274  -0.44091371      1728000    1998.4688       122000        69357 
24410000    1.0098751  -0.45087344      1728000    1999.2872       122050        69381 
24420000    0.9584532  -0.45776118      1728000    2000.1161       122100        69411 
24430000    1.0265977   -0.4460171      1728000    2000.9379       122150        69438 
24440000   0.89170517  -0.45883176      1728000    2001.7491       122200        69467 
24450000    1.0066707  -0.48033728      1728000    2002.5908       122250        69494 
24460000   0.96306111  -0.45828351      1728000     2003.421       122300        69517 
24470000    0.9687506  -0.45935869      1728000    2004.2529       122350        69541 
24480000   0.99430516  -0.46817812      1728000      2005.07       122400        69575 
24490000    1.0049416  -0.43199129      1728000    2005.8924       122450        69598 
24500000    1.0111299   -0.4424584      1728000    2006.7099       122500        69626 
24510000    1.0636342  -0.43818724      1728000    2007.5465       122550        69646 
24520000     1.042641  -0.44327457      1728000    2008.3659       122600        69679 
24530000   0.97721113  -0.41856414      1728000     2009.207       122650        69715 
24540000    1.0019745   -0.4334478      1728000    2010.0241       122700        69748 
24550000    1.0256104  -0.45010465      1728000    2010.8527       122750        69774 
24560000    1.0273877  -0.46695352      1728000    2011.6799       122800        69798 
24570000   0.99247999  -0.45473738      1728000    2012.4971       122850        69832 
24580000   0.99109793  -0.43591619      1728000     2013.305       122900        69854 
24590000   0.99906928  -0.45650908      1728000    2014.1123       122950        69878 
24600000     1.017955  -0.43988603      1728000    2014.9391       123000        69904 
24610000   0.98363105  -0.45869793      1728000     2015.801       123050        69935 
24620000    1.0177022  -0.47124338      1728000    2016.6221       123100        69958 
24630000    1.0635896  -0.47640163      1728000    2017.4656       123150        69988 
24640000     1.064182  -0.46157489      1728000    2018.3358       123200        70018 
24650000   0.98976452  -0.46675499      1728000    2019.1959       123250        70044 
24660000   0.98968659  -0.45937055      1728000    2020.0582       123300        70066 
24670000   0.97778512  -0.46730668      1728000    2020.9243       123350        70094 
24680000    1.0076557  -0.43628947      1728000    2021.7494       123400        70121 
24690000    1.0551188  -0.43351989      1728000     2022.583       123450        70151 
24700000    1.0003466  -0.42386501      1728000    2023.4121       123500        70178 
24710000   0.98334947  -0.45205193      1728000    2024.2417       123550        70212 
24720000   0.96014258  -0.40780605      1728000    2025.0698       123600        70241 
24730000    1.0131412  -0.43918338      1728000     2025.889       123650        70276 
24740000   0.96065578  -0.43402434      1728000    2026.7364       123700        70305 
24750000   0.96147237  -0.44770445      1728000    2027.6816       123750        70337 
24760000    1.0360543  -0.46049692      1728000    2028.5537       123800        70362 
24770000   0.96477922  -0.42822874      1728000    2029.3989       123850        70390 
24780000    1.0373949  -0.42718649      1728000     2030.244       123900        70415 
24790000   0.98776896  -0.43785854      1728000    2031.0631       123950        70446 
24800000   0.96010255  -0.39748829      1728000    2031.9242       124000        70477 
24810000    0.9894036  -0.42475455      1728000    2032.8123       124050        70507 
24820000    1.0063541  -0.39344829      1728000    2033.6555       124100        70538 
24830000   0.94143218  -0.40671105      1728000    2034.5815       124150        70573 
24840000    1.0200125  -0.40238126      1728000    2035.4916       124200        70600 
24850000    1.0438002  -0.40127195      1728000    2036.3807       124250        70629 
24860000    1.0455853  -0.40242555      1728000    2037.2878       124300        70662 
24870000   0.99680485  -0.40186604      1728000    2038.1251       124350        70695 
24880000   0.97440422  -0.38574593      1728000    2038.9702       124400        70721 
24890000   0.97669433    -0.400196      1728000    2039.8363       124450        70743 
24900000     1.023476  -0.42323628      1728000    2040.7084       124500        70771 
24910000    1.0190453  -0.41108408      1728000    2041.5766       124550        70805 
24920000   0.98498524  -0.43585891      1728000    2042.4367       124600        70838 
24930000    1.0335997   -0.4334191      1728000    2043.2668       124650        70869 
24940000    1.0047159  -0.45213644      1728000     2044.126       124700        70896 
24950000   0.94584107  -0.46120893      1728000    2044.9791       124750        70934 
24960000   0.99825301  -0.43548117      1728000    2045.8582       124800        70967 
24970000    1.0813718  -0.43046078      1728000    2046.7203       124850        70996 
24980000   0.97506638  -0.45630194      1728000    2047.6793       124900        71029 
24990000    1.0300072  -0.44490189      1728000    2048.6424       124950        71057 
25000000    1.0260293  -0.44029636      1728000    2049.6943       125000        71089 
25010000   0.97982517  -0.47117465      1728000    2050.6343       125050        71118 
25020000    1.0024845  -0.45364476      1728000    2051.6763       125100        71144 
25030000   0.99139417  -0.45219477      1728000    2052.6872       125150        71175 
25040000   0.98183898    -0.473817      1728000    2053.6522       125200        71193 
25050000    1.0550562  -0.47753348      1728000    2054.6462       125250        71225 
25060000    1.0025456  -0.46811185      1728000    2055.5683       125300        71248 
25070000    0.9489887  -0.48250334      1728000     2056.537       125350        71277 
25080000    1.0044826  -0.46550555      1728000    2057.4891       125400        71307 
25090000    1.0426608  -0.47599917      1728000    2058.3831       125450        71331 
25100000    1.0390398   -0.4730335      1728000    2059.2543       125500        71362 
25110000    1.0289834  -0.46888461      1728000    2060.1174       125550        71385 
25120000   0.98747851  -0.46104909      1728000    2060.9715       125600        71405 
25130000   0.98165105  -0.48839023      1728000    2061.8136       125650        71433 
25140000    1.0385996  -0.46314136      1728000    2062.6361       125700        71464 
25150000   0.99901228  -0.45223995      1728000    2063.4726       125750        71491 
25160000   0.97516295  -0.44216645      1728000    2064.3135       125800        71518 
25170000    1.0752136  -0.42922366      1728000    2065.1378       125850        71542 
25180000    1.0936665  -0.44843282      1728000    2065.9682       125900        71565 
25190000   0.98175049  -0.43514133      1728000    2066.8151       125950        71592 
25200000    0.9609248  -0.46104127      1728000    2067.6857       126000        71613 
25210000   0.96401841  -0.50565095      1728000    2068.6467       126050        71635 
25220000   0.92023045  -0.51984996      1728000    2069.5398       126100        71663 
25230000   0.99521775  -0.48778316      1728000    2070.3683       126150        71686 
25240000    1.0318934  -0.47440782      1728000    2071.2424       126200        71714 
25250000   0.98821668  -0.47922554      1728000    2072.1136       126250        71739 
25260000    1.0206045  -0.43374391      1728000    2072.9643       126300        71769 
25270000    1.0838144  -0.45951365      1728000    2073.8094       126350        71793 
25280000     1.000132  -0.45157447      1728000    2074.6476       126400        71821 
25290000   0.93992012  -0.47624113      1728000    2075.4941       126450        71850 
25300000   0.95405377  -0.46288905      1728000    2076.3858       126500        71879 
25310000   0.94770939   -0.4566231      1728000    2077.2442       126550        71910 
25320000    0.9795476  -0.45175299      1728000    2078.0871       126600        71935 
25330000    1.0134912  -0.44804956      1728000    2078.9392       126650        71963 
25340000    1.0318741  -0.47459776      1728000    2079.8723       126700        71989 
25350000   0.99312301  -0.47027913      1728000    2080.7953       126750        72010 
25360000   0.97225745  -0.44674468      1728000    2081.6514       126800        72030 
25370000    1.0083221   -0.4541752      1728000    2082.5765       126850        72063 
25380000    1.0135175  -0.43902679      1728000    2083.4156       126900        72095 
25390000    1.0125476  -0.46046575      1728000    2084.2917       126950        72124 
25400000   0.99600633  -0.44686449      1728000    2085.2567       127000        72153 
25410000    0.9211893  -0.44198823      1728000    2086.1818       127050        72181 
25420000   0.99296891  -0.45450667      1728000    2087.0899       127100        72203 
25430000   0.97530133  -0.46376981      1728000     2087.952       127150        72231 
25440000   0.96891416  -0.46415088      1728000    2088.8601       127200        72264 
25450000    1.0163972  -0.45618119      1728000    2089.7641       127250        72293 
25460000    1.0716902   -0.4753508      1728000    2090.6153       127300        72321 
25470000   0.94245449  -0.45522772      1728000    2091.4695       127350        72343 
25480000    1.0139096   -0.4554406      1728000    2092.3177       127400        72369 
25490000   0.92365365    -0.468476      1728000     2093.172       127450        72396 
25500000    1.0324196  -0.43318885      1728000    2094.0518       127500        72425 
25510000    0.9620375   -0.4395225      1728000    2094.9502       127550        72453 
25520000    1.0671796  -0.43519005      1728000    2095.9549       127600        72485 
25530000    1.0158776  -0.45511553      1728000    2096.8368       127650        72517 
25540000   0.93219419  -0.45064695      1728000    2097.7319       127700        72550 
25550000    1.0534415  -0.46588252      1728000    2098.6267       127750        72571 
25560000   0.99614715  -0.45496764      1728000    2099.4461       127800        72599 
25570000   0.98823197  -0.44862214      1728000    2100.2902       127850        72627 
25580000   0.94034311  -0.44838979      1728000    2101.1475       127900        72652 
25590000   0.99426086  -0.50331198      1728000    2101.9851       127950        72677 
25600000    1.0406911   -0.4514722      1728000    2102.8165       128000        72704 
25610000    1.0555615  -0.48904736      1728000    2103.6321       128050        72727 
25620000   0.97275243  -0.44141772      1728000    2104.4539       128100        72758 
25630000   0.98163559   -0.4446325      1728000    2105.2928       128150        72786 
25640000    1.0109684  -0.47212493      1728000    2106.1369       128200        72815 
25650000     1.015605  -0.47497397      1728000    2106.9519       128250        72846 
25660000   0.95706643  -0.49033934      1728000    2107.7808       128300        72873 
25670000   0.98218142  -0.50256287      1728000    2108.5989       128350        72899 
25680000   0.96277734  -0.49306158      1728000    2109.4157       128400        72922 
25690000    1.0729331   -0.5170537      1728000    2110.2392       128450        72946 
25700000   0.98081263  -0.46929907      1728000    2111.0526       128500        72972 
25710000   0.95942314  -0.49111625      1728000     2111.867       128550        72998 
25720000     1.030283   -0.4642727      1728000     2112.679       128600        73028 
25730000   0.99257119  -0.47079739      1728000    2113.4952       128650        73051 
25740000     1.025674  -0.45917371      1728000    2114.3151       128700        73072 
25750000   0.99976063  -0.46428296      1728000    2115.1321       128750        73106 
25760000    1.0252736   -0.4751546      1728000     2115.954       128800        73131 
25770000    1.0464233  -0.49284013      1728000    2116.7802       128850        73165 
25780000   0.91952708  -0.47959054      1728000    2117.6111       128900        73190 
25790000     1.027045  -0.48147114      1728000    2118.4397       128950        73223 
25800000   0.97241279  -0.46364879      1728000    2119.2765       129000        73254 
25810000    1.0400674  -0.45215954      1728000    2120.1129       129050        73281 
25820000    1.0117669  -0.46317265      1728000    2120.9579       129100        73305 
25830000    1.0147897  -0.43257113      1728000    2121.7822       129150        73328 
25840000   0.98973564  -0.43852941      1728000    2122.6424       129200        73357 
25850000    0.9905893  -0.50542645      1728000    2123.4762       129250        73383 
25860000    1.0262276  -0.43866228      1728000    2124.3107       129300        73411 
25870000   0.97840839  -0.43843024      1728000    2125.1279       129350        73441 
25880000    1.0211022  -0.42046953      1728000    2125.9419       129400        73470 
25890000    1.0065277  -0.42081654      1728000    2126.7396       129450        73495 
25900000    1.0087254  -0.40271122      1728000    2127.5495       129500        73525 
25910000    1.0216613  -0.42331076      1728000    2128.3598       129550        73554 
25920000    1.0134159  -0.42123618      1728000    2129.1603       129600        73582 
25930000    1.0129889  -0.43267568      1728000     2129.986       129650        73613 
25940000   0.98644109  -0.41441906      1728000    2130.8242       129700        73642 
25950000   0.99768712  -0.41476303      1728000    2131.6623       129750        73670 
25960000    1.0121362  -0.40941203      1728000    2132.4805       129800        73707 
25970000    1.0147754  -0.42699567      1728000    2133.3491       129850        73745 
25980000   0.93651014  -0.41630871      1728000    2134.1663       129900        73774 
25990000    1.0390614  -0.44133735      1728000    2135.0014       129950        73805 
26000000    1.0179691  -0.43715878      1728000    2135.8358       130000        73837 
26010000    1.0116436  -0.42392765      1728000     2136.644       130050        73869 
26020000   0.99769965  -0.41735224      1728000    2137.4629       130100        73898 
26030000     1.015823  -0.42560547      1728000    2138.2752       130150        73930 
26040000    1.0839096  -0.41288883      1728000    2139.0864       130200        73960 
26050000   0.99180008  -0.42821183      1728000    2139.9059       130250        73988 
26060000    1.0686168  -0.41652416      1728000    2140.7364       130300        74021 
26070000    1.0250036  -0.41888184      1728000    2141.5433       130350        74043 
26080000   0.93812978  -0.42692574      1728000     2142.348       130400        74075 
26090000   0.99193898  -0.42616906      1728000    2143.1462       130450        74106 
26100000     1.084895  -0.44231266      1728000    2143.9599       130500        74138 
26110000   0.99127307  -0.44992936      1728000     2144.778       130550        74173 
26120000    1.0583231  -0.40348554      1728000    2145.5871       130600        74206 
26130000    1.0410708  -0.40309382      1728000    2146.4081       130650        74233 
26140000   0.99584803  -0.39801636      1728000     2147.219       130700        74265 
26150000    1.0204578  -0.41098727      1728000    2148.0281       130750        74296 
26160000   0.98602591  -0.40830518      1728000    2148.8378       130800        74325 
26170000   0.94533264  -0.44835384      1728000    2149.6682       130850        74355 
26180000   0.93973326  -0.41289431      1728000    2150.4942       130900        74387 
26190000    1.0624493  -0.40285257      1728000    2151.3231       130950        74415 
26200000   0.97751584  -0.40776188      1728000    2152.1632       131000        74447 
26210000   0.95130331  -0.40391715      1728000    2152.9948       131050        74478 
26220000    1.0465556  -0.41018709      1728000    2153.8151       131100        74507 
26230000    1.0451915  -0.41784598      1728000    2154.6483       131150        74538 
26240000     1.052268  -0.43096003      1728000    2155.4642       131200        74566 
26250000     1.037869  -0.42693187      1728000    2156.2964       131250        74596 
26260000    1.0151608  -0.43380478      1728000    2157.1292       131300        74630 
26270000   0.99962432  -0.43062882      1728000    2157.9807       131350        74663 
26280000    1.0356641  -0.43240231      1728000    2158.8112       131400        74687 
26290000    1.0569084  -0.43023453      1728000    2159.6377       131450        74717 
26300000   0.95843779  -0.42602172      1728000    2160.4853       131500        74742 
26310000   0.95034463  -0.40509085      1728000    2161.3177       131550        74769 
26320000   0.97537053  -0.39732082      1728000    2162.1745       131600        74800 
26330000    1.0065215  -0.37364439      1728000    2163.0386       131650        74828 
26340000    1.0236914  -0.38286821      1728000    2163.8501       131700        74856 
26350000   0.99467406  -0.40133912      1728000    2164.6642       131750        74887 
26360000   0.99187077  -0.41144017      1728000    2165.4816       131800        74922 
26370000   0.98059455  -0.38827079      1728000     2166.285       131850        74948 
26380000    1.0464492  -0.39609145      1728000    2167.0839       131900        74980 
26390000    1.0052787  -0.41353554      1728000    2167.8822       131950        75016 
26400000   0.94052741  -0.38645301      1728000    2168.6943       132000        75050 
26410000   0.98898006  -0.42804256      1728000    2169.5314       132050        75077 
26420000   0.98823572  -0.42136998      1728000     2170.341       132100        75106 
26430000   0.99504058  -0.42218709      1728000    2171.2112       132150        75132 
26440000    0.9058739  -0.44329519      1728000    2172.1195       132200        75159 
26450000    1.0316217  -0.47087383      1728000    2172.9617       132250        75185 
26460000    1.0260408   -0.4212413      1728000    2173.8141       132300        75205 
26470000   0.96949909  -0.42333005      1728000    2174.6212       132350        75237 
26480000     1.037168  -0.40504624      1728000     2175.448       132400        75262 
26490000   0.95630429  -0.43301573      1728000     2176.262       132450        75290 
26500000   0.98779669   -0.4442124      1728000    2177.0783       132500        75316 
26510000    1.0364318  -0.40400109      1728000    2177.8892       132550        75339 
26520000   0.94417428  -0.44754072      1728000    2178.6926       132600        75370 
26530000     1.068033  -0.43708991      1728000    2179.5557       132650        75400 
26540000   0.95344804  -0.43866217      1728000     2180.365       132700        75421 
26550000    1.0041513  -0.42885547      1728000    2181.1759       132750        75441 
26560000   0.96534196  -0.43755073      1728000    2181.9781       132800        75467 
26570000    1.0085877  -0.41992159      1728000    2182.7839       132850        75501 
26580000    1.0201108  -0.39303526      1728000    2183.5845       132900        75535 
26590000    1.0017153  -0.44070467      1728000    2184.3875       132950        75567 
26600000    1.0252725  -0.46922206      1728000    2185.2015       133000        75597 
26610000     1.049946   -0.4298145      1728000    2186.0159       133050        75627 
26620000    1.0226354  -0.43524061      1728000    2186.8233       133100        75658 
26630000   0.98904163  -0.44540776      1728000    2187.6192       133150        75687 
26640000   0.98971542  -0.45540324      1728000    2188.4211       133200        75717 
26650000   0.96535545  -0.44311895      1728000    2189.2292       133250        75746 
26660000   0.98783821  -0.46294737      1728000    2190.0344       133300        75775 
26670000     1.082959  -0.46893429      1728000    2190.8504       133350        75802 
26680000   0.99329227  -0.45937351      1728000    2191.6521       133400        75829 
26690000    0.9651853  -0.46416286      1728000    2192.4618       133450        75857 
26700000   0.99082067  -0.47081844      1728000    2193.3029       133500        75886 
26710000    1.0408202  -0.46484599      1728000     2194.136       133550        75911 
26720000   0.97383209  -0.52279673      1728000     2194.967       133600        75934 
26730000    1.0223012  -0.49954167      1728000     2195.804       133650        75966 
26740000   0.95080604  -0.46648643      1728000    2196.6321       133700        75991 
26750000   0.98258821  -0.48630367      1728000    2197.4773       133750        76015 
26760000   0.99931743  -0.49490816      1728000    2198.3312       133800        76038 
26770000   0.97267709  -0.49092241      1728000    2199.1611       133850        76063 
26780000    1.0265269  -0.50119805      1728000    2199.9841       133900        76092 
26790000    1.0056663  -0.46851518      1728000    2200.8049       133950        76119 
26800000   0.94889983  -0.47193556      1728000    2201.6321       134000        76154 
26810000   0.98947531  -0.49811259      1728000    2202.4512       134050        76178 
26820000    1.0382114  -0.48055233      1728000    2203.2692       134100        76205 
26830000    1.0301519  -0.47963055      1728000    2204.1783       134150        76233 
26840000    1.0122512  -0.51478113      1728000    2204.9902       134200        76257 
26850000    0.9742339  -0.48809106      1728000    2205.8131       134250        76285 
26860000   0.97644849  -0.46034379      1728000     2206.614       134300        76311 
26870000    1.0150829   -0.4664967      1728000    2207.4262       134350        76338 
26880000   0.95641222   -0.4828621      1728000    2208.2524       134400        76359 
26890000    1.0298397  -0.46745661      1728000    2209.0753       134450        76379 
26900000    1.0281105  -0.45321652      1728000    2209.9242       134500        76411 
26910000   0.99768461  -0.45026036      1728000    2210.7621       134550        76433 
26920000   0.97651222  -0.46011639      1728000     2211.594       134600        76455 
26930000    1.0623476  -0.46733488      1728000    2212.4183       134650        76482 
26940000    1.0216062   -0.4747386      1728000    2213.2371       134700        76512 
26950000      1.01797  -0.49084822      1728000    2214.0742       134750        76541 
26960000    1.0236562  -0.46549123      1728000    2214.8936       134800        76569 
26970000   0.94400534  -0.49607483      1728000    2215.7481       134850        76597 
26980000   0.99825184  -0.49510989      1728000    2216.5742       134900        76623 
26990000    1.0566157    -0.490104      1728000    2217.3941       134950        76645 
27000000    1.0031387  -0.47091481      1728000    2218.2298       135000        76675 
27010000    1.0529401  -0.47837282      1728000    2219.0679       135050        76703 
27020000    1.0404352   -0.4723914      1728000    2219.9031       135100        76730 
27030000   0.99670608   -0.4604174      1728000    2220.7312       135150        76762 
27040000   0.97106399  -0.46885189      1728000    2221.5465       135200        76787 
27050000   0.94567268  -0.45534602      1728000    2222.3749       135250        76816 
27060000    1.0414482  -0.46967528      1728000    2223.2036       135300        76839 
27070000    0.9733024  -0.44787525      1728000    2224.0251       135350        76862 
27080000   0.97385764   -0.4387286      1728000    2224.8587       135400        76882 
27090000   0.99236843  -0.45683246      1728000    2225.6783       135450        76911 
27100000    1.0481371  -0.45171626      1728000    2226.5031       135500        76934 
27110000   0.98387915  -0.44891402      1728000    2227.3183       135550        76961 
27120000   0.98901501  -0.45351794      1728000    2228.1272       135600        76989 
27130000    1.0391299  -0.46888225      1728000    2228.9392       135650        77019 
27140000     1.017665  -0.46625789      1728000    2229.7518       135700        77041 
27150000   0.96385953  -0.51102203      1728000    2230.5702       135750        77071 
27160000    1.0023961    -0.514474      1728000     2231.414       135800        77097 
27170000   0.98973573  -0.48101899      1728000    2232.2542       135850        77120 
27180000   0.99626221  -0.48965122      1728000    2233.0811       135900        77146 
27190000    1.0011679  -0.52650788      1728000    2233.9091       135950        77170 
27200000    1.0329107  -0.48454456      1728000    2234.7512       136000        77193 
27210000    1.0030264  -0.49281799      1728000    2235.5682       136050        77218 
27220000   0.94226654  -0.45418114      1728000     2236.393       136100        77244 
27230000    0.9653884  -0.47730932      1728000    2237.2211       136150        77265 
27240000   0.97583299    -0.445526      1728000    2238.0583       136200        77291 
27250000    1.0023551  -0.43762319      1728000     2238.883       136250        77315 
27260000    0.9707352  -0.44953512      1728000    2239.7052       136300        77341 
27270000   0.97633544  -0.42604819      1728000    2240.5152       136350        77368 
27280000    1.0117577  -0.41602347      1728000    2241.3154       136400        77400 
27290000   0.92778807  -0.44532946      1728000    2242.1262       136450        77423 
27300000   0.96337745  -0.41429522      1728000    2242.9512       136500        77451 
27310000    1.0351079  -0.45222131      1728000    2243.7923       136550        77483 
27320000    1.0274633  -0.44752683      1728000    2244.6247       136600        77522 
27330000   0.92874306  -0.42218083      1728000    2245.4384       136650        77547 
27340000    1.0239341  -0.44044627      1728000    2246.2706       136700        77576 
27350000      1.00116  -0.43605629      1728000    2247.0993       136750        77609 
27360000    1.0099957  -0.45271203      1728000    2247.9172       136800        77631 
27370000   0.96008902  -0.45415902      1728000    2248.7321       136850        77656 
27380000    1.0335955  -0.42282488      1728000    2249.5452       136900        77690 
27390000    1.0401787  -0.43348835      1728000    2250.3671       136950        77721 
27400000    1.0208319  -0.45185316      1728000    2251.2111       137000        77751 
27410000    1.0504375  -0.46027577      1728000    2252.0411       137050        77778 
27420000    1.0705998  -0.46005953      1728000    2252.9251       137100        77809 
27430000     1.020164  -0.43882091      1728000    2253.7563       137150        77836 
27440000   0.98832755  -0.44624843      1728000     2254.571       137200        77858 
27450000    1.0057383  -0.44829842      1728000    2255.3862       137250        77884 
27460000    1.0401246  -0.44927367      1728000    2256.2082       137300        77906 
27470000   0.98994667  -0.46649309      1728000    2257.0183       137350        77934 
27480000    1.0058152  -0.44120278      1728000    2257.8244       137400        77964 
27490000   0.96446548  -0.44939803      1728000    2258.6242       137450        77994 
27500000   0.97027428  -0.45852963      1728000    2259.4384       137500        78023 
27510000   0.98009544  -0.44990283      1728000     2260.255       137550        78046 
27520000   0.98639893  -0.46198727      1728000    2261.1079       137600        78077 
27530000    1.0337016  -0.42581775      1728000    2261.9424       137650        78111 
27540000   0.97338877  -0.40996786      1728000    2262.7577       137700        78139 
27550000   0.96025135  -0.43022213      1728000    2263.5734       137750        78161 
27560000   0.99776246  -0.43365136      1728000    2264.3942       137800        78188 
27570000   0.95373967  -0.42795102      1728000    2265.2032       137850        78219 
27580000     1.028834  -0.41858685      1728000    2266.0162       137900        78248 
27590000   0.93248963  -0.39903019      1728000    2266.8333       137950        78278 
27600000   0.99858876  -0.42458409      1728000    2267.6774       138000        78304 
27610000   0.97000495  -0.41338379      1728000    2268.5203       138050        78337 
27620000    1.0561564  -0.41074877      1728000    2269.3183       138100        78365 
27630000    1.0534931  -0.41907794      1728000    2270.1342       138150        78386 
27640000   0.98890058  -0.42329184      1728000    2271.0021       138200        78413 
27650000    1.0195884  -0.41648304      1728000     2271.837       138250        78435 
27660000    1.0426326  -0.40754366      1728000    2272.6777       138300        78466 
27670000    1.0674633  -0.41422233      1728000    2273.5091       138350        78491 
27680000   0.97342444  -0.43424153      1728000    2274.3373       138400        78515 
27690000    1.0115453  -0.46109263      1728000    2275.1531       138450        78542 
27700000    1.0156149  -0.44009271      1728000    2275.9979       138500        78570 
27710000   0.95542605  -0.47881739      1728000    2276.8262       138550        78595 
27720000    1.0433813  -0.44162681      1728000    2277.6533       138600        78624 
27730000    1.0068018  -0.44176367      1728000    2278.4728       138650        78649 
27740000   0.99110641  -0.44298773      1728000     2279.295       138700        78680 
27750000   0.99188195  -0.44940267      1728000    2280.1076       138750        78703 
27760000   0.99394251  -0.42485542      1728000    2280.9185       138800        78726 
27770000   0.99753542  -0.43070172      1728000     2281.732       138850        78752 
27780000    1.0311158  -0.42931471      1728000    2282.5452       138900        78781 
27790000   0.95299802  -0.46196745      1728000    2283.3484       138950        78810 
27800000   0.98049603   -0.4646376      1728000    2284.1754       139000        78839 
27810000    1.0390817  -0.44917356      1728000    2284.9882       139050        78870 
27820000   0.94964324  -0.43310559      1728000    2285.7833       139100        78901 
27830000    1.0486795  -0.39890842      1728000    2286.5763       139150        78932 
27840000   0.96407622  -0.39386819      1728000    2287.3904       139200        78965 
27850000    1.0375123  -0.41167788      1728000    2288.1958       139250        78991 
27860000    0.9995978  -0.38696146      1728000    2289.0128       139300        79018 
27870000    1.0016763  -0.38577694      1728000    2289.8262       139350        79051 
27880000   0.96624817  -0.41301145      1728000    2290.6608       139400        79083 
27890000    1.0115092  -0.42819416      1728000    2291.4959       139450        79112 
27900000    1.0154782  -0.41529083      1728000    2292.3306       139500        79139 
27910000    1.0572911  -0.41869053      1728000     2293.155       139550        79174 
27920000    1.0332282  -0.39979652      1728000    2293.9653       139600        79200 
27930000   0.97480359  -0.43972591      1728000    2294.7749       139650        79228 
27940000   0.93922557  -0.44315035      1728000    2295.5841       139700        79259 
27950000    0.9766897  -0.41413475      1728000    2296.3831       139750        79287 
27960000    1.0784411  -0.40861064      1728000    2297.1933       139800        79316 
27970000   0.95417502  -0.43844999      1728000    2298.0084       139850        79338 
27980000     1.037039  -0.43698596      1728000    2298.8183       139900        79370 
27990000    1.0611931  -0.42080474      1728000     2299.638       139950        79401 
28000000   0.98075761  -0.39786903      1728000    2300.4641       140000        79430 
28010000   0.98293432  -0.40208789      1728000    2301.2632       140050        79461 
28020000    1.0149024   -0.3816733      1728000     2302.069       140100        79492 
28030000   0.92101683  -0.40583934      1728000    2302.8773       140150        79524 
28040000    1.0038556  -0.41043783      1728000    2303.6855       140200        79559 
28050000   0.98586639  -0.39119147      1728000     2304.487       140250        79588 
28060000    1.0564676  -0.41375425      1728000     2305.292       140300        79617 
28070000    1.0156115  -0.39431725      1728000    2306.0991       140350        79647 
28080000   0.99696714  -0.39739769      1728000    2306.9084       140400        79672 
28090000    1.0719128  -0.42236886      1728000    2307.7242       140450        79700 
28100000    1.0124254  -0.42782059      1728000    2308.5442       140500        79729 
28110000   0.96091948   -0.4327782      1728000    2309.3501       140550        79755 
28120000   0.98191401  -0.45279294      1728000    2310.1589       140600        79782 
28130000     1.021936  -0.42170397      1728000    2310.9562       140650        79813 
28140000    1.0249308  -0.41535034      1728000    2311.7787       140700        79839 
28150000   0.94898466  -0.44427985      1728000    2312.5841       140750        79869 
28160000    1.0128011  -0.44490014      1728000    2313.4372       140800        79898 
28170000   0.95843108  -0.42613317      1728000    2314.2572       140850        79922 
28180000   0.98632638  -0.43946934      1728000    2315.0554       140900        79947 
28190000    1.0575018  -0.43343731      1728000    2315.8532       140950        79982 
28200000    1.0219121  -0.43071996      1728000    2316.6911       141000        80010 
28210000    1.0334129  -0.42274743      1728000    2317.5385       141050        80036 
28220000   0.97498122  -0.38853982      1728000    2318.3702       141100        80065 
28230000   0.98792548  -0.38111046      1728000    2319.1843       141150        80097 
28240000    1.0167732  -0.38269218      1728000    2319.9762       141200        80127 
28250000    1.0687475  -0.41124345      1728000    2320.7693       141250        80157 
28260000   0.90252821  -0.39074437      1728000    2321.5821       141300        80189 
28270000   0.99449963  -0.40863856      1728000    2322.3853       141350        80218 
28280000     1.040283  -0.41140556      1728000     2323.213       141400        80248 
28290000    1.0464626   -0.4172824      1728000    2324.0171       141450        80278 
28300000   0.98187504  -0.41745219      1728000    2324.8382       141500        80308 
28310000    1.0510667  -0.43160497      1728000    2325.6501       141550        80343 
28320000    1.0370983  -0.39833001      1728000    2326.4723       141600        80366 
28330000    1.0283327  -0.42668198      1728000    2327.2883       141650        80394 
28340000   0.98707215   -0.4390618      1728000    2328.1074       141700        80431 
28350000   0.97990508  -0.41497218      1728000    2328.9263       141750        80453 
28360000    1.0338664  -0.44844131      1728000    2329.7343       141800        80482 
28370000    1.0521725  -0.43855068      1728000    2330.5372       141850        80511 
28380000    0.9819976  -0.43767524      1728000    2331.3533       141900        80536 
28390000   0.96942943  -0.42535405      1728000    2332.1653       141950        80567 
28400000    1.0100589  -0.42990024      1728000    2332.9837       142000        80595 
28410000   0.99344498  -0.42011379      1728000    2333.8101       142050        80626 
28420000    1.0146501  -0.42632965      1728000    2334.6203       142100        80654 
28430000    1.0237611  -0.44569441      1728000    2335.4612       142150        80685 
28440000   0.99704749   -0.4354781      1728000    2336.2843       142200        80710 
28450000   0.98786653  -0.44321373      1728000    2337.0982       142250        80742 
28460000   0.99278053  -0.43159263      1728000    2337.9193       142300        80771 
28470000    1.0600578  -0.44407974      1728000    2338.7604       142350        80801 
28480000      0.97268  -0.41669001      1728000    2339.5783       142400        80832 
28490000     1.020845  -0.42028476      1728000    2340.4024       142450        80866 
28500000    0.9534377  -0.42305769      1728000    2341.2313       142500        80893 
28510000   0.99626505   -0.4217469      1728000    2342.0545       142550        80925 
28520000   0.95739206  -0.42510744      1728000    2342.8924       142600        80953 
28530000   0.97371643  -0.41096193      1728000    2343.7073       142650        80981 
28540000   0.99587299  -0.40865971      1728000    2344.5264       142700        81008 
28550000     1.003755  -0.40286992      1728000    2345.3384       142750        81041 
28560000    1.0007196  -0.39858946      1728000    2346.1464       142800        81070 
28570000    1.0189365  -0.40420156      1728000    2346.9562       142850        81098 
28580000    0.9853976  -0.44301178      1728000    2347.7581       142900        81133 
28590000    1.0231485  -0.42525324      1728000    2348.5624       142950        81159 
28600000   0.97427104  -0.45651304      1728000    2349.3894       143000        81192 
28610000   0.99954698  -0.42791667      1728000    2350.2021       143050        81225 
28620000    1.0272464   -0.4369311      1728000    2351.0034       143100        81259 
28630000    1.0004821   -0.4229567      1728000    2351.8204       143150        81283 
28640000   0.97046294  -0.43281825      1728000    2352.6422       143200        81312 
28650000    1.0048411   -0.4238749      1728000     2353.457       143250        81338 
28660000    1.0073568  -0.43028489      1728000    2354.2963       143300        81367 
28670000    1.0160853  -0.45949596      1728000    2355.1222       143350        81396 
28680000   0.99010328  -0.39429903      1728000    2355.9405       143400        81424 
28690000   0.95599337  -0.39933948      1728000    2356.7573       143450        81451 
28700000    1.0682038  -0.41349578      1728000    2357.6251       143500        81476 
28710000   0.92164483  -0.43288546      1728000    2358.4455       143550        81496 
28720000    1.0368754  -0.43793641      1728000    2359.2594       143600        81525 
28730000    1.0371983   -0.4179857      1728000    2360.0832       143650        81554 
28740000    1.0159028  -0.41788771      1728000    2360.8984       143700        81588 
28750000    1.0399062  -0.40024984      1728000    2361.7134       143750        81621 
28760000   0.99969613  -0.40541054      1728000    2362.5283       143800        81643 
28770000      1.03279  -0.40309484      1728000    2363.3415       143850        81671 
28780000    1.0161445  -0.42837682      1728000    2364.1693       143900        81702 
28790000    1.0230652  -0.41517622      1728000    2364.9774       143950        81728 
28800000    1.0341378  -0.41220816      1728000    2365.8023       144000        81752 
28810000   0.99130761  -0.39216531      1728000    2366.6102       144050        81789 
28820000   0.98934365  -0.41406196      1728000    2367.4193       144100        81819 
28830000   0.98472959  -0.40973525      1728000    2368.2252       144150        81848 
28840000    1.0149334  -0.39682102      1728000    2369.0303       144200        81876 
28850000     1.005895  -0.41682044      1728000    2369.8315       144250        81913 
28860000   0.98442932  -0.42311962      1728000    2370.6385       144300        81943 
28870000   0.95542783  -0.42544777      1728000    2371.4604       144350        81976 
28880000   0.99852263  -0.38681126      1728000    2372.2762       144400        82009 
28890000   0.98829029  -0.41967723      1728000    2373.0823       144450        82039 
28900000   0.98394022  -0.41534762      1728000    2373.9111       144500        82060 
28910000    1.0450588  -0.40995449      1728000    2374.7252       144550        82092 
28920000    1.0377856   -0.4318909      1728000    2375.5336       144600        82123 
28930000    1.0415443  -0.41452549      1728000    2376.3392       144650        82156 
28940000    1.0101214  -0.41198066      1728000    2377.1403       144700        82187 
28950000   0.98984626  -0.44254586      1728000    2377.9584       144750        82215 
28960000    1.0517856  -0.41739001      1728000    2378.7684       144800        82242 
28970000   0.95942968  -0.42296405      1728000    2379.5723       144850        82272 
28980000   0.95453711  -0.44061706      1728000    2380.3774       144900        82300 
28990000   0.92852236  -0.43371721      1728000    2381.1835       144950        82331 
29000000   0.96488041  -0.42082584      1728000    2382.0114       145000        82368 
29010000   0.96725916  -0.42315922      1728000    2382.8134       145050        82407 
29020000     1.040276  -0.43758793      1728000    2383.6323       145100        82425 
29030000    1.0004776  -0.40324713      1728000    2384.4374       145150        82458 
29040000    1.0138821  -0.42452665      1728000    2385.2396       145200        82488 
29050000    1.0541523   -0.4223009      1728000    2386.0504       145250        82521 
29060000    1.0333132  -0.42100839      1728000    2386.8923       145300        82551 
29070000   0.98650174  -0.37970758      1728000    2387.7093       145350        82582 
29080000    1.0736321  -0.41869705      1728000    2388.5262       145400        82608 
29090000    1.0711559  -0.40541477      1728000    2389.3445       145450        82628 
29100000     1.053763  -0.41406746      1728000    2390.1794       145500        82656 
29110000    1.0047695  -0.40639261      1728000    2391.0216       145550        82683 
29120000    1.0170746  -0.46447121      1728000    2391.8453       145600        82714 
29130000   0.99373871  -0.43276768      1728000    2392.6782       145650        82742 
29140000   0.97343722  -0.42024256      1728000    2393.5143       145700        82773 
29150000   0.95546199  -0.39786109      1728000    2394.3393       145750        82803 
29160000   0.99832437  -0.40993736      1728000    2395.1743       145800        82831 
29170000   0.97131218  -0.40262965      1728000    2396.0195       145850        82860 
29180000   0.97593203   -0.4289031      1728000    2396.8432       145900        82888 
29190000   0.96201157  -0.39447189      1728000    2397.6634       145950        82916 
29200000    1.0030841  -0.39983725      1728000     2398.486       146000        82950 
29210000    1.0269355  -0.40582261      1728000    2399.3204       146050        82985 
29220000    1.0189535  -0.42710447      1728000    2400.1444       146100        83013 
29230000     1.005717  -0.41267185      1728000    2400.9564       146150        83046 
29240000   0.98060026  -0.43423272      1728000    2401.7734       146200        83080 
29250000   0.95542136  -0.42542309      1728000    2402.5967       146250        83107 
29260000   0.93067489  -0.39674372      1728000    2403.4125       146300        83141 
29270000   0.98037971  -0.41184133      1728000    2404.2198       146350        83165 
29280000    1.0088852   -0.4039956      1728000    2405.0261       146400        83198 
29290000   0.99390807  -0.38993025      1728000    2405.8345       146450        83223 
29300000    0.9904384  -0.41844513      1728000    2406.6565       146500        83253 
29310000    1.0367424  -0.41929325      1728000    2407.4617       146550        83281 
29320000    0.9403597   -0.3972918      1728000    2408.2753       146600        83310 
29330000    1.0578163  -0.42476109      1728000    2409.1025       146650        83339 
29340000    1.0607567  -0.41007685      1728000    2409.9168       146700        83368 
29350000   0.99773641  -0.43963142      1728000    2410.7422       146750        83396 
29360000    1.0444871  -0.42492414      1728000    2411.5628       146800        83425 
29370000    1.0338389  -0.44336616      1728000    2412.3881       146850        83455 
29380000     1.070863  -0.45296002      1728000    2413.1965       146900        83479 
29390000    1.0199215  -0.42576376      1728000    2414.0012       146950        83508 
29400000   0.97542739  -0.42833163      1728000    2414.8243       147000        83533 
29410000    1.0456794  -0.41329765      1728000    2415.6306       147050        83568 
29420000   0.97692964  -0.39576874      1728000    2416.4448       147100        83600 
29430000   0.99612163  -0.42458534      1728000    2417.2512       147150        83638 
29440000    1.0235858  -0.40782388      1728000    2418.0586       147200        83666 
29450000    1.0353122  -0.44478712      1728000    2418.8734       147250        83697 
29460000    1.0612624  -0.44511849      1728000    2419.6913       147300        83728 
29470000   0.99238413  -0.45933927      1728000    2420.5182       147350        83748 
29480000   0.91832983  -0.42831956      1728000    2421.3283       147400        83774 
29490000   0.96276916  -0.43138403      1728000    2422.1682       147450        83806 
29500000    1.0214947  -0.41904457      1728000    2422.9804       147500        83834 
29510000   0.92024268  -0.42549015      1728000    2423.7924       147550        83864 
29520000    1.0077742  -0.44688613      1728000    2424.6374       147600        83894 
29530000     1.012977  -0.43244824      1728000    2425.4495       147650        83918 
29540000    1.0701474  -0.43097455      1728000    2426.2613       147700        83946 
29550000    1.0414014  -0.44256156      1728000    2427.0732       147750        83981 
29560000    1.0502402  -0.44057198      1728000    2427.9052       147800        84008 
29570000   0.94871516  -0.43128706      1728000    2428.7314       147850        84037 
29580000   0.99510963  -0.46402991      1728000    2429.5495       147900        84064 
29590000   0.99819323  -0.43670008      1728000    2430.3723       147950        84091 
29600000   0.97427797  -0.43657418      1728000    2431.1994       148000        84112 
29610000    1.0060221  -0.43822554      1728000    2432.0121       148050        84139 
29620000   0.94157918  -0.41579465      1728000    2432.8231       148100        84166 
29630000   0.97857187  -0.44827515      1728000    2433.6325       148150        84195 
29640000   0.95878438  -0.43395051      1728000    2434.4612       148200        84223 
29650000   0.94019842  -0.43105296      1728000    2435.2793       148250        84252 
29660000    0.9823231  -0.42274399      1728000    2436.1024       148300        84278 
29670000   0.97503094  -0.45064605      1728000    2436.9385       148350        84307 
29680000   0.95176527  -0.47646048      1728000    2437.7735       148400        84336 
29690000   0.95210258  -0.42872328      1728000    2438.6184       148450        84359 
29700000    1.0284638  -0.45649946      1728000    2439.4524       148500        84387 
29710000   0.99997118  -0.43206597      1728000    2440.2764       148550        84420 
29720000   0.94446858  -0.46587144      1728000    2441.1024       148600        84442 
29730000   0.99542586  -0.45197115      1728000    2441.9214       148650        84468 
29740000   0.97614534  -0.49368517      1728000    2442.7446       148700        84496 
29750000   0.98366421  -0.49368365      1728000    2443.5633       148750        84520 
29760000   0.97259331  -0.48859054      1728000    2444.3904       148800        84545 
29770000    1.0138233  -0.46496872      1728000    2445.2184       148850        84571 
29780000   0.99364965  -0.50027459      1728000    2446.0443       148900        84598 
29790000    1.0461007  -0.51145092      1728000    2446.8813       148950        84621 
29800000    1.0393469  -0.46968131      1728000    2447.7053       149000        84649 
29810000    1.0686899  -0.45321702      1728000    2448.5166       149050        84680 
29820000    0.9618268  -0.44040527      1728000    2449.3413       149100        84706 
29830000   0.96616274  -0.49458071      1728000    2450.1765       149150        84734 
29840000    1.0352062  -0.49208804      1728000    2451.0073       149200        84752 
29850000    1.0405109   -0.4796098      1728000    2451.8403       149250        84782 
29860000   0.97461974  -0.49304693      1728000    2452.6543       149300        84811 
29870000    1.0852332  -0.47639549      1728000    2453.4863       149350        84834 
29880000    1.0610398  -0.48047426      1728000    2454.3134       149400        84857 
29890000    1.0219126  -0.45841728      1728000    2455.1523       149450        84890 
29900000    1.0164368  -0.48687758      1728000    2455.9865       149500        84911 
29910000   0.95502695  -0.50788081      1728000    2456.7944       149550        84936 
29920000   0.99541978  -0.46059655      1728000    2457.6106       149600        84955 
29930000   0.97569728  -0.46534306      1728000    2458.4111       149650        84980 
29940000   0.92575354   -0.4627025      1728000    2459.2105       149700        84999 
29950000    1.0230171  -0.47907281      1728000    2460.0135       149750        85029 
29960000   0.98372233   -0.4808334      1728000    2460.8294       149800        85052 
29970000    1.0309522   -0.4963315      1728000    2461.6764       149850        85079 
29980000    1.0001805  -0.50935335      1728000    2462.5253       149900        85100 
29990000   0.99733309  -0.54146521      1728000    2463.3687       149950        85125 
30000000   0.96354194  -0.53318375      1728000    2464.2235       150000        85149 
30010000   0.98044666  -0.54283343      1728000    2465.0864       150050        85175 
30020000   0.97219196  -0.49541269      1728000    2465.9264       150100        85200 
30030000    1.0576753  -0.47008475      1728000    2466.7583       150150        85228 
30040000    1.0207873  -0.49522084      1728000    2467.5907       150200        85253 
30050000   0.97056608  -0.46969351      1728000    2468.4344       150250        85274 
30060000    1.0454811  -0.48518201      1728000    2469.2833       150300        85293 
30070000    1.0175288  -0.48051749      1728000    2470.1045       150350        85319 
30080000   0.98850173  -0.44347169      1728000    2470.9566       150400        85354 
30090000     1.019422  -0.43514924      1728000    2471.7725       150450        85381 
30100000    1.0616639  -0.43088965      1728000    2472.5914       150500        85412 
30110000   0.98327536  -0.40761684      1728000    2473.3986       150550        85441 
30120000   0.98697095  -0.40224246      1728000    2474.2056       150600        85462 
30130000   0.94176096  -0.44046552      1728000    2475.0073       150650        85487 
30140000   0.98274748  -0.46748937      1728000    2475.8363       150700        85512 
30150000    1.0450718  -0.44972756      1728000    2476.6426       150750        85543 
30160000   0.98013357  -0.44180215      1728000    2477.4606       150800        85568 
30170000   0.99732782  -0.46490073      1728000    2478.2646       150850        85599 
30180000   0.95109928  -0.46582774      1728000    2479.0803       150900        85621 
30190000    1.0202938  -0.50194697      1728000    2479.9174       150950        85651 
30200000    1.0339903  -0.50641433      1728000    2480.7765       151000        85680 
30210000    1.0280426  -0.48043587      1728000    2481.6014       151050        85705 
30220000    1.0697612  -0.51458484      1728000    2482.4216       151100        85730 
30230000   0.88679419  -0.49127657      1728000    2483.2724       151150        85750 
30240000    1.0254703  -0.49635297      1728000    2484.1164       151200        85773 
30250000    1.0320279  -0.52739942      1728000    2484.9505       151250        85796 
30260000    0.9512381  -0.49497672      1728000    2485.7976       151300        85820 
30270000   0.97478059  -0.49273602      1728000    2486.6392       151350        85844 
30280000     1.022754  -0.47387837      1728000    2487.4848       151400        85874 
30290000   0.98851605  -0.41067612      1728000    2488.3078       151450        85901 
30300000   0.95545134  -0.46273701      1728000    2489.1406       151500        85927 
30310000    1.0226341  -0.40756453      1728000    2489.9653       151550        85955 
30320000   0.95526296  -0.41584968      1728000    2490.7856       151600        85977 
30330000    1.0626639  -0.42128764      1728000    2491.6011       151650        86005 
30340000   0.97795528  -0.45409651      1728000    2492.4166       151700        86035 
30350000    1.0144993  -0.44726106      1728000    2493.2306       151750        86063 
30360000    1.0213576  -0.46111911      1728000    2494.0423       151800        86095 
30370000    1.1008372  -0.48265898      1728000    2494.8594       151850        86118 
30380000   0.96423068  -0.47013918      1728000    2495.6935       151900        86142 
30390000    1.0397407  -0.47600361      1728000    2496.5176       151950        86166 
30400000    1.0559137  -0.47191891      1728000    2497.3615       152000        86196 
30410000   0.95122131  -0.44609052      1728000    2498.1975       152050        86222 
30420000   0.99321788  -0.47270533      1728000    2499.0253       152100        86250 
30430000    1.0256982  -0.44528143      1728000    2499.8645       152150        86282 
30440000     1.016082  -0.47338818      1728000    2500.7317       152200        86306 
30450000   0.96681241  -0.48714415      1728000    2501.5594       152250        86331 
30460000     1.026595  -0.46825696      1728000      2502.39       152300        86354 
30470000   0.97781914  -0.44206433      1728000    2503.2065       152350        86379 
30480000   0.97087321  -0.45674096      1728000    2504.0236       152400        86403 
30490000   0.97903294  -0.46081604      1728000    2504.8354       152450        86434 
30500000   0.99322119  -0.47648191      1728000    2505.6667       152500        86463 
30510000    1.0073889  -0.47227628      1728000    2506.4884       152550        86489 
30520000   0.99058568  -0.47178272      1728000    2507.3136       152600        86514 
30530000    1.0026237  -0.51425792      1728000    2508.1587       152650        86542 
30540000    1.0164889  -0.48026476      1728000    2508.9989       152700        86567 
30550000    1.0193496   -0.4620997      1728000     2509.838       152750        86595 
30560000   0.99813344  -0.46501772      1728000    2510.6591       152800        86626 
30570000    0.9589744  -0.44816853      1728000    2511.4864       152850        86647 
30580000   0.99387972  -0.42677494      1728000    2512.2888       152900        86678 
30590000    1.0134405   -0.4636228      1728000      2513.08       152950        86704 
30600000   0.94756915   -0.4268045      1728000    2513.8909       153000        86734 
30610000    1.0120559  -0.44095487      1728000    2514.7105       153050        86767 
30620000   0.94510082   -0.4366994      1728000    2515.5223       153100        86797 
30630000    1.0205849  -0.40711191      1728000    2516.3315       153150        86831 
30640000   0.97886615  -0.39412818      1728000     2517.143       153200        86862 
30650000    1.0113736  -0.40240185      1728000    2517.9582       153250        86893 
30660000   0.98546608  -0.41708674      1728000    2518.7605       153300        86921 
30670000   0.99958582  -0.42271048      1728000    2519.5655       153350        86954 
30680000    1.0161134  -0.41956391      1728000    2520.3725       153400        86983 
30690000    1.0158741  -0.40958359      1728000    2521.1844       153450        87011 
30700000   0.97830659  -0.42604225      1728000    2522.0195       153500        87040 
30710000    1.0296486  -0.41455405      1728000    2522.8234       153550        87072 
30720000    1.0045778  -0.40075845      1728000    2523.6245       153600        87104 
30730000   0.95854366  -0.42280792      1728000    2524.4204       153650        87130 
30740000    1.0226699  -0.40164381      1728000    2525.2233       153700        87161 
30750000    1.0250917  -0.39886367      1728000    2526.0319       153750        87196 
30760000   0.94942096  -0.40234367      1728000    2526.8335       153800        87227 
30770000     0.952652  -0.41711044      1728000    2527.6478       153850        87257 
30780000    1.0286065  -0.39416052      1728000    2528.4565       153900        87287 
30790000    1.0293314   -0.3794445      1728000    2529.2764       153950        87322 
30800000   0.99010477  -0.39346879      1728000     2530.112       154000        87349 
30810000   0.98504713  -0.40474203      1728000    2530.9322       154050        87382 
30820000    1.0241702  -0.41219248      1728000    2531.7735       154100        87409 
30830000   0.98868146  -0.44100542      1728000    2532.5814       154150        87442 
30840000   0.92636725  -0.43059851      1728000    2533.4045       154200        87476 
30850000     1.013388  -0.41122121      1728000    2534.2164       154250        87504 
30860000   0.96940887  -0.42146055      1728000    2535.0415       154300        87531 
30870000    1.0493363  -0.42568878      1728000    2535.8842       154350        87556 
30880000   0.96856819  -0.41792742      1728000    2536.7094       154400        87586 
30890000     1.038732  -0.42822506      1728000    2537.5356       154450        87616 
30900000   0.98462541  -0.39996281      1728000    2538.3695       154500        87638 
30910000    1.0097042  -0.41596894      1728000    2539.1842       154550        87669 
30920000   0.98492199  -0.48355305      1728000    2540.0045       154600        87697 
30930000   0.98584218   -0.4420587      1728000    2540.8345       154650        87731 
30940000   0.97517195   -0.4238111      1728000    2541.6575       154700        87757 
30950000    0.9999615  -0.46994886      1728000    2542.4715       154750        87783 
30960000   0.98795788  -0.49956869      1728000    2543.2863       154800        87811 
30970000   0.99998238  -0.48295111      1728000    2544.1074       154850        87845 
30980000    1.0399773  -0.50610395      1728000    2544.9235       154900        87872 
30990000    1.0367639  -0.50119115      1728000    2545.7353       154950        87898 
31000000   0.93995742  -0.48149441      1728000    2546.5595       155000        87927 
31010000    1.0417978  -0.51943927      1728000    2547.3826       155050        87945 
31020000    0.9726229  -0.50959368      1728000    2548.2176       155100        87977 
31030000     1.026442  -0.52157101      1728000    2549.0675       155150        87994 
31040000   0.98790509  -0.51605741      1728000    2549.9075       155200        88017 
31050000   0.93780662  -0.50195812      1728000    2550.7612       155250        88044 
31060000    1.0121698  -0.49639451      1728000    2551.6034       155300        88070 
31070000    1.0359819  -0.49681631      1728000    2552.4474       155350        88097 
31080000    0.9887008   -0.5283167      1728000    2553.3323       155400        88121 
31090000   0.99557647  -0.50341265      1728000    2554.1695       155450        88154 
31100000   0.98322854  -0.49569493      1728000    2555.0102       155500        88182 
31110000    1.0132355  -0.51650273      1728000    2555.8275       155550        88210 
31120000   0.97314005  -0.49647548      1728000    2556.7066       155600        88238 
31130000   0.96026994  -0.52007235      1728000    2557.5783       155650        88264 
31140000    1.0193144  -0.51080408      1728000    2558.4015       155700        88288 
31150000   0.99539266  -0.47427917      1728000    2559.2366       155750        88319 
31160000   0.97478668   -0.4760853      1728000    2560.0764       155800        88346 
31170000    1.0016014   -0.5067166      1728000    2560.9105       155850        88372 
31180000   0.99304008  -0.48210065      1728000    2561.7334       155900        88398 
31190000   0.99675917  -0.48712997      1728000    2562.5415       155950        88424 
31200000    1.0216762  -0.45066965      1728000    2563.3523       156000        88451 
31210000   0.95892561  -0.46095254      1728000    2564.1485       156050        88486 
31220000    1.0116787  -0.46216373      1728000    2564.9429       156100        88516 
31230000    1.0082695  -0.43602799      1728000    2565.7361       156150        88545 
31240000    1.0392998  -0.45686443      1728000    2566.5305       156200        88572 
31250000   0.98275573  -0.45287099      1728000    2567.3357       156250        88599 
31260000   0.95856607  -0.45800797      1728000    2568.1486       156300        88626 
31270000   0.97842176  -0.45094071      1728000    2568.9525       156350        88652 
31280000    1.0538129  -0.43866623      1728000    2569.7664       156400        88679 
31290000   0.99974505  -0.44278691      1728000    2570.5865       156450        88704 
31300000    1.0677572  -0.43443981      1728000    2571.3996       156500        88729 
31310000   0.97809311  -0.39772528      1728000    2572.2004       156550        88760 
31320000    1.0025394  -0.41648161      1728000    2572.9995       156600        88795 
31330000    1.0037603  -0.44494311      1728000    2573.8046       156650        88821 
31340000   0.96406313  -0.43733537      1728000    2574.6298       156700        88848 
31350000    1.0018167  -0.44855151      1728000    2575.4365       156750        88869 
31360000    1.0034439  -0.40730894      1728000    2576.2265       156800        88895 
31370000    1.0581577  -0.41586374      1728000    2577.0214       156850        88927 
31380000    1.0587322  -0.43555652      1728000    2577.8422       156900        88953 
31390000    1.0421198  -0.43649304      1728000    2578.6842       156950        88979 
31400000    1.0092261  -0.43844141      1728000    2579.5576       157000        89012 
31410000     0.957006  -0.42832694      1728000    2580.3764       157050        89042 
31420000   0.94738918  -0.42408579      1728000    2581.1906       157100        89072 
31430000    0.9957513  -0.44711263      1728000    2582.0385       157150        89105 
31440000    1.0624343  -0.41603742      1728000    2582.8645       157200        89135 
31450000   0.95741166  -0.41233861      1728000    2583.7144       157250        89163 
31460000    1.0416122  -0.42614472      1728000    2584.6004       157300        89187 
31470000    1.0174446  -0.44447452      1728000    2585.4315       157350        89217 
31480000    1.0223177  -0.48327523      1728000    2586.3022       157400        89251 
31490000   0.98439189   -0.4822359      1728000    2587.2012       157450        89285 
31500000    1.0163139  -0.48856352      1728000    2588.0275       157500        89313 
31510000    1.0075387  -0.49414914      1728000    2588.8495       157550        89343 
31520000   0.97525824  -0.49725519      1728000    2589.6675       157600        89367 
31530000    1.0396128  -0.45176809      1728000    2590.4967       157650        89393 
31540000    1.0241474  -0.48261145      1728000    2591.3425       157700        89417 
31550000   0.98937062  -0.47679913      1728000    2592.1706       157750        89446 
31560000    1.0514023  -0.44299039      1728000    2592.9936       157800        89469 
31570000   0.99141671  -0.46324263      1728000    2593.8084       157850        89503 
31580000   0.99440592  -0.48173033      1728000    2594.6196       157900        89532 
31590000    1.0389331  -0.47464114      1728000    2595.4303       157950        89563 
31600000   0.99828602  -0.48415855      1728000    2596.2487       158000        89593 
31610000    1.0293338  -0.47646698      1728000    2597.0776       158050        89614 
31620000   0.97635765  -0.45143677      1728000    2597.8976       158100        89641 
31630000   0.98714361  -0.48743086      1728000    2598.7095       158150        89668 
31640000   0.97515007  -0.47045671      1728000    2599.5195       158200        89702 
31650000    1.0718138  -0.49502563      1728000    2600.3436       158250        89726 
31660000    1.0303644  -0.48439939      1728000    2601.1855       158300        89758 
31670000     1.002491  -0.46881538      1728000    2602.0015       158350        89785 
31680000    1.0654877  -0.45910459      1728000    2602.8147       158400        89813 
31690000   0.98537762  -0.43581517      1728000     2603.618       158450        89838 
31700000    1.0524939  -0.44617128      1728000    2604.4366       158500        89859 
31710000   0.98757348  -0.46148093      1728000    2605.2457       158550        89886 
31720000   0.95961704  -0.46518442      1728000    2606.0476       158600        89917 
31730000   0.97184378  -0.43704348      1728000    2606.8547       158650        89946 
31740000   0.98903003  -0.47827558      1728000    2607.6767       158700        89971 
31750000   0.98652782  -0.45152215      1728000    2608.4856       158750        89995 
31760000   0.99605595  -0.45105646      1728000    2609.2886       158800        90022 
31770000   0.96129281  -0.44732502      1728000    2610.0925       158850        90053 
31780000    1.0082154  -0.43417913      1728000    2610.9195       158900        90084 
31790000    1.0837939  -0.43980702      1728000    2611.7286       158950        90114 
31800000    1.0587083  -0.47270464      1728000    2612.5526       159000        90134 
31810000    1.0048659  -0.43714858      1728000    2613.3887       159050        90160 
31820000    1.0232656  -0.40995829      1728000    2614.1993       159100        90192 
31830000   0.99252219   -0.4315406      1728000    2614.9956       159150        90221 
31840000   0.99374496  -0.40851243      1728000    2615.8016       159200        90249 
31850000    0.9781361   -0.4227244      1728000    2616.6131       159250        90276 
31860000    1.0100555  -0.40223861      1728000    2617.4326       159300        90309 
31870000    1.0030594  -0.42236485      1728000    2618.2386       159350        90340 
31880000    1.0178494  -0.45858246      1728000    2619.0458       159400        90367 
31890000   0.98594313    -0.484554      1728000    2619.8635       159450        90393 
31900000     1.011675  -0.50326766      1728000    2620.6835       159500        90420 
31910000    0.9529506  -0.47445161      1728000    2621.5065       159550        90447 
31920000   0.97256346  -0.49638576      1728000    2622.3257       159600        90473 
31930000   0.99040821  -0.50324891      1728000    2623.1376       159650        90497 
31940000   0.96391816  -0.48650574      1728000    2623.9458       159700        90529 
31950000   0.94396581  -0.50338808      1728000    2624.7576       159750        90550 
31960000   0.99733896  -0.48841364      1728000    2625.5696       159800        90581 
31970000   0.94853747  -0.45868431      1728000    2626.3894       159850        90608 
31980000    1.0027197  -0.47418879      1728000    2627.1925       159900        90640 
31990000   0.96917392  -0.40586084      1728000    2628.0024       159950        90672 
32000000   0.99225545  -0.39219699      1728000    2628.8167       160000        90697 
32010000    1.0459924  -0.39176203      1728000    2629.6215       160050        90728 
32020000     1.031764  -0.38258445      1728000    2630.4117       160100        90767 
32030000   0.95611526  -0.37603926      1728000    2631.2006       160150        90798 
32040000    1.0127772  -0.37136215      1728000    2631.9908       160200        90839 
32050000    1.0403937  -0.38359857      1728000    2632.7896       160250        90871 
32060000    1.0367081  -0.37920611      1728000    2633.5869       160300        90902 
32070000   0.94221631  -0.38904047      1728000    2634.3836       160350        90931 
32080000    1.0700049  -0.40292581      1728000    2635.2053       160400        90962 
32090000    1.0056037  -0.39709626      1728000    2636.0147       160450        90995 
32100000    1.0360274   -0.4326722      1728000    2636.8308       160500        91023 
32110000    1.1017371  -0.39213031      1728000    2637.6405       160550        91052 
32120000    0.9562517  -0.41220122      1728000    2638.4586       160600        91081 
32130000    1.0400428  -0.40938757      1728000     2639.313       160650        91117 
32140000   0.92467528  -0.39819416      1728000    2640.1409       160700        91149 
32150000   0.92768934  -0.37019772      1728000    2640.9484       160750        91176 
32160000    1.0520911  -0.37608083      1728000    2641.7476       160800        91210 
32170000     1.001105  -0.36334631      1728000    2642.5539       160850        91243 
32180000    1.0176831  -0.36095838      1728000    2643.3627       160900        91275 
32190000    1.0290205  -0.39192929      1728000     2644.278       160950        91306 
32200000    1.0480561  -0.41742735      1728000    2645.1106       161000        91331 
32210000    1.0576118  -0.38057946      1728000    2645.9148       161050        91351 
32220000    1.0134631  -0.38792355      1728000    2646.7209       161100        91383 
32230000   0.99675428  -0.41184823      1728000    2647.5397       161150        91412 
32240000    1.0033958  -0.43050014      1728000    2648.3558       161200        91439 
32250000    1.0527247   -0.4331777      1728000    2649.1586       161250        91465 
32260000    1.0483148  -0.44872896      1728000    2649.9883       161300        91495 
32270000    1.0087554  -0.46253926      1728000    2650.8195       161350        91523 
32280000   0.99083373  -0.43798824      1728000    2651.7315       161400        91552 
32290000   0.97590228  -0.45552447      1728000    2652.5385       161450        91580 
32300000    1.0204968  -0.43516872      1728000    2653.3626       161500        91608 
32310000    1.0088237  -0.42207931      1728000    2654.1656       161550        91642 
32320000    0.9634542  -0.44620964      1728000    2654.9728       161600        91670 
32330000   0.97898313  -0.43686082      1728000    2655.8116       161650        91693 
32340000   0.93865621  -0.45587911      1728000    2656.6395       161700        91724 
32350000    1.0226672   -0.4666652      1728000    2657.4793       161750        91747 
32360000   0.97288917  -0.47516148      1728000    2658.3088       161800        91777 
32370000   0.97006824  -0.48185143      1728000    2659.1316       161850        91803 
32380000   0.93904435  -0.42678048      1728000    2659.9577       161900        91831 
32390000   0.95149102  -0.46648227      1728000    2660.8004       161950        91861 
32400000    1.0118578  -0.44367082      1728000    2661.6568       162000        91885 
32410000    1.0194414  -0.45460171      1728000    2662.4824       162050        91917 
32420000     1.043704   -0.4433163      1728000    2663.2976       162100        91947 
32430000   0.99459141    -0.437911      1728000    2664.1148       162150        91979 
32440000   0.95469581  -0.40838217      1728000    2664.9306       162200        92015 
32450000    1.0284693  -0.42011677      1728000    2665.7497       162250        92043 
32460000   0.97008435  -0.39925163      1728000    2666.6017       162300        92073 
32470000    1.0179053  -0.42258862      1728000    2667.4615       162350        92103 
32480000      1.03628  -0.44526792      1728000    2668.2765       162400        92134 
32490000   0.98322205    -0.417724      1728000    2669.1574       162450        92165 
32500000    1.0872735  -0.42585927      1728000    2670.0268       162500        92188 
32510000   0.94370499  -0.43799021      1728000    2670.8535       162550        92216 
32520000    0.9897255  -0.42750286      1728000    2671.6716       162600        92242 
32530000    1.0503627  -0.40924623      1728000    2672.4918       162650        92275 
32540000    1.0500648  -0.40661495      1728000    2673.3067       162700        92304 
32550000     1.008794  -0.40151608      1728000    2674.1094       162750        92333 
32560000    0.9948419  -0.43088643      1728000    2674.9214       162800        92366 
32570000   0.98361813  -0.40741562      1728000    2675.7277       162850        92391 
32580000    1.0177723  -0.41933915      1728000    2676.5268       162900        92420 
32590000    1.0216295  -0.44126264      1728000    2677.3306       162950        92452 
32600000    1.0075091  -0.41352381      1728000    2678.1626       163000        92486 
32610000    1.0872828   -0.4295385      1728000    2678.9795       163050        92518 
32620000   0.97698329  -0.43051137      1728000     2679.782       163100        92546 
32630000   0.99400128  -0.42982973      1728000    2680.5827       163150        92578 
32640000   0.99588082  -0.46025525      1728000    2681.3826       163200        92605 
32650000   0.97152002   -0.4429821      1728000    2682.1957       163250        92628 
32660000    1.0923065  -0.40349825      1728000    2683.0077       163300        92654 
32670000    1.0242474  -0.42884369      1728000    2683.8237       163350        92690 
32680000    1.0487628  -0.44138026      1728000    2684.6396       163400        92721 
32690000    1.0132815  -0.44547042      1728000    2685.4506       163450        92750 
32700000   0.97580843  -0.45228675      1728000    2686.2745       163500        92776 
32710000   0.98106652  -0.40793201      1728000    2687.0956       163550        92803 
32720000   0.95479296  -0.42557572      1728000    2687.8976       163600        92832 
32730000   0.95185915  -0.45803652      1728000    2688.7107       163650        92861 
32740000   0.94548386  -0.45064175      1728000    2689.5097       163700        92888 
32750000    1.0147594  -0.46618256      1728000    2690.3225       163750        92921 
32760000   0.99632928  -0.45929935      1728000    2691.1399       163800        92943 
32770000    1.0110048  -0.45687312      1728000    2691.9456       163850        92971 
32780000    1.0907645  -0.44116148      1728000    2692.7587       163900        92998 
32790000   0.98380445  -0.46614026      1728000    2693.5758       163950        93026 
32800000   0.97827707  -0.43398491      1728000    2694.4007       164000        93051 
32810000   0.99462221  -0.43707264      1728000    2695.2086       164050        93084 
32820000   0.96935571  -0.47509228      1728000    2696.0216       164100        93108 
32830000    1.0821242  -0.46471827      1728000    2696.8398       164150        93134 
32840000    1.0115038  -0.44921466      1728000    2697.6499       164200        93162 
32850000   0.99682546  -0.49402643      1728000    2698.4616       164250        93189 
32860000   0.99976697   -0.4717082      1728000    2699.2846       164300        93218 
32870000     1.039215  -0.46175128      1728000    2700.1137       164350        93247 
32880000    1.0985172  -0.45457307      1728000    2700.9307       164400        93279 
32890000    1.0469149  -0.49440743      1728000    2701.7588       164450        93303 
32900000    1.0011444  -0.47179821      1728000    2702.5956       164500        93327 
32910000    1.0125031  -0.47736578      1728000    2703.4207       164550        93356 
32920000     1.008721  -0.51593691      1728000    2704.2978       164600        93382 
32930000    1.0116091  -0.47942493      1728000    2705.1666       164650        93410 
32940000     1.075514  -0.50841745      1728000    2706.0116       164700        93429 
32950000    1.0200928  -0.48733778      1728000    2706.8535       164750        93453 
32960000   0.98085005  -0.48660133      1728000    2707.7009       164800        93481 
32970000     1.053338  -0.44767594      1728000    2708.5337       164850        93507 
32980000    1.0514713  -0.46289552      1728000    2709.3656       164900        93535 
32990000   0.99730136  -0.45267503      1728000    2710.1947       164950        93561 
33000000   0.96596183   -0.4732443      1728000    2711.0426       165000        93594 
33010000   0.99877282  -0.44874434      1728000    2711.8887       165050        93622 
33020000   0.98632457  -0.42196576      1728000    2712.7116       165100        93651 
33030000    1.0151295  -0.45520122      1728000    2713.5258       165150        93677 
33040000    1.0199553  -0.47396732      1728000    2714.3517       165200        93706 
33050000     1.033192  -0.43146882      1728000    2715.1717       165250        93734 
33060000   0.94332694  -0.46688443      1728000    2715.9726       165300        93763 
33070000   0.98291009  -0.43023164      1728000    2716.7808       165350        93786 
33080000    1.0064249  -0.45108139      1728000    2717.5797       165400        93813 
33090000     1.029351  -0.45921306      1728000    2718.3979       165450        93844 
33100000   0.97508962   -0.4502661      1728000    2719.2326       165500        93870 
33110000   0.99227413  -0.47314838      1728000    2720.0676       165550        93898 
33120000    1.0212867  -0.47229303      1728000    2720.8876       165600        93926 
33130000    1.0853866   -0.4655762      1728000    2721.6958       165650        93954 
33140000     1.056153  -0.46096305      1728000    2722.5158       165700        93980 
33150000    1.0184081  -0.44390492      1728000    2723.3199       165750        94013 
33160000   0.98781247  -0.45639337      1728000    2724.1237       165800        94044 
33170000    1.0712025  -0.44714529      1728000    2724.9276       165850        94073 
33180000   0.98761547  -0.44761357      1728000    2725.7476       165900        94098 
33190000    1.0278707  -0.43865405      1728000    2726.5639       165950        94126 
33200000   0.97978221  -0.41998172      1728000    2727.3828       166000        94156 
33210000   0.99826596  -0.42973783      1728000    2728.1938       166050        94181 
33220000    1.0102818  -0.41806987      1728000    2729.0127       166100        94208 
33230000   0.98528705   -0.3999338      1728000    2729.8267       166150        94233 
33240000   0.96752179  -0.40882319      1728000    2730.6434       166200        94264 
33250000   0.99963093  -0.41865714      1728000    2731.4597       166250        94296 
33260000    1.0570969  -0.41330814      1728000    2732.2857       166300        94327 
33270000   0.97570326  -0.37604934      1728000    2733.1007       166350        94360 
33280000    1.0511867  -0.38653214      1728000    2733.9207       166400        94387 
33290000    1.0040797  -0.40062527      1728000    2734.7613       166450        94412 
33300000    1.0476342  -0.38517777      1728000    2735.5956       166500        94448 
33310000   0.95151905  -0.40334686      1728000    2736.4209       166550        94478 
33320000    1.0071247   -0.4470271      1728000    2737.2657       166600        94510 
33330000    0.9627537  -0.45993685      1728000    2738.1055       166650        94535 
33340000    1.0245779  -0.46927982      1728000    2738.9237       166700        94562 
33350000    1.0406951  -0.45702808      1728000    2739.7628       166750        94589 
33360000   0.99660398  -0.47084263      1728000    2740.5929       166800        94617 
33370000    1.1071548  -0.49265809      1728000    2741.4125       166850        94644 
33380000   0.97986089  -0.47497678      1728000    2742.2287       166900        94671 
33390000    1.0500631  -0.46033694      1728000    2743.0479       166950        94696 
33400000   0.97770454  -0.47461579      1728000    2743.8675       167000        94727 
33410000   0.99372637  -0.46190475      1728000    2744.6927       167050        94754 
33420000    1.0043714  -0.44277522      1728000    2745.5278       167100        94778 
33430000   0.99580484  -0.44712838      1728000    2746.3597       167150        94806 
33440000    1.0667928  -0.45182012      1728000    2747.2214       167200        94836 
33450000   0.99316114  -0.44003941      1728000    2748.0578       167250        94866 
33460000    0.9850916  -0.47517899      1728000    2748.8992       167300        94896 
33470000   0.96624011  -0.46612826      1728000    2749.7257       167350        94927 
33480000    1.0629558  -0.46577066      1728000    2750.5532       167400        94953 
33490000    1.0254732   -0.4580249      1728000    2751.3828       167450        94980 
33500000   0.98401261  -0.52733791      1728000    2752.2117       167500        95009 
33510000    1.0517625  -0.46244246      1728000    2753.0275       167550        95033 
33520000   0.99103453  -0.49697854      1728000    2753.8489       167600        95060 
33530000    1.0592334  -0.51682479      1728000    2754.6825       167650        95093 
33540000   0.97433433  -0.51092506      1728000    2755.5163       167700        95112 
33550000   0.98573586  -0.47290587      1728000    2756.3545       167750        95136 
33560000    1.0119667  -0.45618087      1728000    2757.1836       167800        95169 
33570000    1.0185433  -0.48785824      1728000    2758.0255       167850        95201 
33580000    1.0259117  -0.50396621      1728000    2758.8508       167900        95228 
33590000     1.003966  -0.49470565      1728000     2759.671       167950        95257 
33600000   0.95297247  -0.49160241      1728000    2760.4993       168000        95283 
33610000    1.0305627  -0.47656333      1728000    2761.3036       168050        95320 
33620000    1.0274118  -0.47822246      1728000    2762.1109       168100        95352 
33630000   0.97343045  -0.49866658      1728000    2762.9219       168150        95388 
33640000   0.94534298  -0.53447912      1728000    2763.7518       168200        95416 
33650000   0.99277697  -0.52385783      1728000    2764.5646       168250        95440 
33660000    1.0170056  -0.49174035      1728000    2765.3797       168300        95470 
33670000   0.95347958  -0.45273612      1728000    2766.1867       168350        95498 
33680000   0.98981772  -0.43842929      1728000    2766.9948       168400        95527 
33690000   0.99262493   -0.4959254      1728000    2767.8118       168450        95562 
33700000    1.0219075  -0.46121473      1728000    2768.6395       168500        95590 
33710000     1.016026  -0.45858428      1728000    2769.4437       168550        95614 
33720000    1.0272265  -0.46299742      1728000     2770.249       168600        95636 
33730000   0.93759162  -0.44578754      1728000    2771.0457       168650        95662 
33740000   0.94645915  -0.45322059      1728000    2771.8465       168700        95692 
33750000    1.0593569  -0.45681234      1728000    2772.6517       168750        95720 
33760000   0.95877615  -0.48435816      1728000    2773.4618       168800        95752 
33770000   0.99029288  -0.48741424      1728000    2774.2697       168850        95782 
33780000   0.99742019  -0.49501567      1728000      2775.08       168900        95814 
33790000   0.96790973  -0.50952773      1728000    2775.9387       168950        95845 
33800000    1.0139191  -0.51280361      1728000    2776.7601       169000        95874 
33810000   0.96823024  -0.52597027      1728000    2777.5966       169050        95894 
33820000    1.0103158  -0.52065554      1728000    2778.4037       169100        95921 
33830000    1.0246541  -0.47787246      1728000     2779.255       169150        95946 
33840000   0.99699618  -0.50840571      1728000    2780.1031       169200        95972 
33850000     1.027437  -0.49885415      1728000    2780.9361       169250        96002 
33860000   0.98484403  -0.52471433      1728000    2781.7401       169300        96026 
33870000     1.015427  -0.49491655      1728000      2782.54       169350        96056 
33880000   0.95835067  -0.46836224      1728000     2783.337       169400        96075 
33890000   0.93885021  -0.46246791      1728000    2784.1289       169450        96107 
33900000    1.0362257  -0.47629572      1728000    2784.9429       169500        96130 
33910000   0.97146751  -0.43549726      1728000    2785.7397       169550        96159 
33920000   0.98844325  -0.44166515      1728000    2786.5329       169600        96186 
33930000   0.95505424  -0.44556624      1728000      2787.33       169650        96216 
33940000     1.047708  -0.46246214      1728000    2788.1494       169700        96251 
33950000   0.99515688  -0.43012184      1728000    2788.9597       169750        96280 
33960000     1.044806  -0.42723606      1728000     2789.784       169800        96301 
33970000   0.93282374  -0.42840219      1728000    2790.6318       169850        96326 
33980000   0.98471912  -0.42974661      1728000    2791.4468       169900        96361 
33990000     1.039367  -0.42044058      1728000    2792.2479       169950        96386 
34000000    1.0374559  -0.42719969      1728000    2793.0628       170000        96417 
34010000   0.98539894   -0.4356807      1728000    2793.8678       170050        96449 
34020000   0.94112175  -0.43867414      1728000    2794.6819       170100        96478 
34030000    1.0279406  -0.42237461      1728000    2795.4918       170150        96504 
34040000   0.95954012  -0.46232878      1728000    2796.2948       170200        96530 
34050000   0.99591654  -0.45782315      1728000    2797.1058       170250        96554 
34060000    1.0677228  -0.45889986      1728000    2797.9137       170300        96584 
34070000   0.97948341  -0.46711233      1728000    2798.7209       170350        96617 
34080000    1.0384545  -0.46305649      1728000    2799.5236       170400        96642 
34090000   0.91596552  -0.46567174      1728000     2800.333       170450        96671 
34100000   0.99271314  -0.46189304      1728000    2801.1667       170500        96700 
34110000    1.0149795  -0.42565635      1728000    2801.9798       170550        96732 
34120000    1.0572332  -0.42156914      1728000     2802.776       170600        96760 
34130000    1.0247861  -0.45507274      1728000    2803.5667       170650        96788 
34140000   0.93928937  -0.44151071      1728000    2804.3667       170700        96821 
34150000    1.0339555  -0.43474942      1728000    2805.1678       170750        96847 
34160000   0.99237923  -0.47764412      1728000    2805.9759       170800        96875 
34170000    1.0263406  -0.44303173      1728000    2806.7967       170850        96904 
34180000    1.0217535  -0.43302202      1728000    2807.6089       170900        96933 
34190000     1.000197  -0.44968841      1728000     2808.416       170950        96957 
34200000   0.98105404  -0.43069096      1728000    2809.2287       171000        96990 
34210000   0.99637871  -0.44179121      1728000    2810.0317       171050        97017 
34220000    1.0005753   -0.4827515      1728000    2810.8437       171100        97047 
34230000   0.98404511  -0.47803125      1728000     2811.649       171150        97076 
34240000   0.97694599  -0.45670946      1728000    2812.4626       171200        97104 
34250000    1.0166984  -0.46699769      1728000    2813.2797       171250        97132 
34260000   0.97078037   -0.4579864      1728000    2814.0909       171300        97156 
34270000   0.94929092  -0.46001659      1728000    2814.9018       171350        97180 
34280000   0.96930158  -0.43143366      1728000    2815.6988       171400        97208 
34290000     1.004282  -0.45194685      1728000    2816.4959       171450        97232 
34300000    1.0482045  -0.44378175      1728000    2817.3098       171500        97263 
34310000   0.99329804  -0.42886042      1728000    2818.1217       171550        97280 
34320000    1.0300666  -0.45150146      1728000    2818.9348       171600        97312 
34330000   0.97212243  -0.43186706      1728000    2819.7389       171650        97344 
34340000    1.0695303  -0.43274807      1728000    2820.5437       171700        97372 
34350000     1.039606  -0.46057991      1728000     2821.346       171750        97398 
34360000    1.0590877  -0.47225424      1728000    2822.1709       171800        97427 
34370000   0.92789073  -0.51154136      1728000    2823.0008       171850        97453 
34380000   0.98762165  -0.48272716      1728000    2823.8158       171900        97481 
34390000    1.0214699  -0.51005598      1728000     2824.623       171950        97510 
34400000   0.99480435  -0.51179164      1728000    2825.4438       172000        97536 
34410000    1.0173823  -0.50853451      1728000     2826.267       172050        97560 
34420000     1.032747  -0.53815268      1728000    2827.0989       172100        97583 
34430000     1.050323  -0.46008922      1728000    2827.9169       172150        97615 
34440000    1.0594812  -0.46773206      1728000    2828.7258       172200        97642 
34450000    1.0299594  -0.46855146      1728000     2829.528       172250        97669 
34460000    1.0341712  -0.46416675      1728000    2830.3278       172300        97695 
34470000   0.99091502  -0.47664411      1728000    2831.1278       172350        97725 
34480000    1.0115348  -0.44644403      1728000    2831.9348       172400        97752 
34490000   0.99356501  -0.45220963      1728000     2832.748       172450        97781 
34500000   0.96001944  -0.51256059      1728000    2833.5746       172500        97806 
34510000    1.0019492  -0.50706482      1728000    2834.4129       172550        97837 
34520000   0.95645368   -0.5562435      1728000    2835.2427       172600        97866 
34530000    1.0404396  -0.49071119      1728000    2836.0667       172650        97892 
34540000   0.94999105  -0.50285651      1728000    2836.8808       172700        97918 
34550000   0.98957438  -0.47855217      1728000    2837.6879       172750        97943 
34560000    1.0122411  -0.43036625      1728000    2838.4919       172800        97976 
34570000   0.99485735  -0.44746721      1728000    2839.2938       172850        98007 
34580000    1.0698708  -0.43332145      1728000    2840.0936       172900        98029 
34590000    1.0235485   -0.4087107      1728000     2840.892       172950        98059 
34600000    1.0695777  -0.42499404      1728000    2841.7005       173000        98091 
34610000    0.9872147  -0.41953123      1728000    2842.5027       173050        98128 
34620000     1.046627  -0.42636339      1728000    2843.3129       173100        98152 
34630000   0.98262008  -0.40373375      1728000    2844.1149       173150        98183 
34640000   0.88853051  -0.41882012      1728000     2844.904       173200        98212 
34650000   0.95903205  -0.41260289      1728000     2845.695       173250        98241 
34660000   0.97921603   -0.4112012      1728000    2846.4938       173300        98267 
34670000    1.0215689  -0.43078901      1728000    2847.2988       173350        98305 
34680000   0.98359863  -0.43894818      1728000    2848.0898       173400        98335 
34690000    1.0155743  -0.41695251      1728000    2848.8793       173450        98365 
34700000   0.97356384  -0.42163784      1728000     2849.684       173500        98390 
34710000    1.0230469  -0.44429913      1728000    2850.4786       173550        98414 
34720000   0.96349202  -0.45687099      1728000    2851.2789       173600        98440 
34730000   0.95283949  -0.41476236      1728000    2852.0758       173650        98466 
34740000    1.0310649   -0.4097318      1728000     2852.871       173700        98493 
34750000    1.0373222  -0.40263387      1728000    2853.6692       173750        98520 
34760000   0.96223469  -0.41604513      1728000    2854.4672       173800        98548 
34770000     0.992325  -0.42167345      1728000    2855.2648       173850        98583 
34780000    0.9975095  -0.38718907      1728000     2856.055       173900        98617 
34790000    1.0157976  -0.39299081      1728000    2856.8489       173950        98647 
34800000    1.0435394  -0.39271488      1728000    2857.6555       174000        98680 
34810000    1.0606143  -0.38583489      1728000     2858.448       174050        98714 
34820000   0.99433474  -0.41215474      1728000    2859.2489       174100        98752 
34830000   0.93435477  -0.36885509      1728000     2860.049       174150        98781 
34840000    1.0507546  -0.44449079      1728000    2860.8467       174200        98810 
34850000    1.0136726  -0.42059031      1728000    2861.6448       174250        98844 
34860000   0.99024749  -0.42600991      1728000    2862.4468       174300        98877 
34870000    1.0148325  -0.41750923      1728000      2863.25       174350        98907 
34880000   0.98214199  -0.42295608      1728000    2864.0519       174400        98933 
34890000    1.0228336  -0.43540257      1728000    2864.8563       174450        98959 
34900000   0.97031984  -0.45884634      1728000    2865.6659       174500        98988 
34910000     1.016883   -0.4241473      1728000    2866.4701       174550        99015 
34920000    0.9994174  -0.44893838      1728000    2867.2691       174600        99037 
34930000   0.99505754  -0.47008213      1728000    2868.0695       174650        99066 
34940000    0.9470282  -0.43330644      1728000    2868.8781       174700        99090 
34950000   0.96645875  -0.43949279      1728000    2869.6947       174750        99115 
34960000   0.99389332  -0.45009715      1728000     2870.509       174800        99144 
34970000    1.0282038  -0.42059364      1728000    2871.3297       174850        99180 
34980000   0.93959174  -0.43069589      1728000    2872.1518       174900        99209 
34990000   0.96012964  -0.40447474      1728000    2872.9679       174950        99242 
35000000     1.046292   -0.3983292      1728000    2873.7819       175000        99271 
35010000   0.95914549  -0.41312997      1728000     2874.576       175050        99303 
35020000    1.0602614  -0.41086543      1728000     2875.378       175100        99335 
35030000    1.0134018  -0.43166657      1728000    2876.1809       175150        99364 
35040000    1.0229801  -0.43248585      1728000    2876.9847       175200        99392 
35050000    1.0010648  -0.42528274      1728000    2877.7909       175250        99420 
35060000    1.0681204  -0.42904581      1728000    2878.5867       175300        99447 
35070000    1.0763416  -0.40825714      1728000    2879.3898       175350        99469 
35080000   0.95917265  -0.40781391      1728000    2880.1838       175400        99499 
35090000    0.9995403  -0.43622799      1728000    2881.0029       175450        99529 
35100000    1.0058241  -0.43960688      1728000    2881.8129       175500        99560 
35110000    1.0059366  -0.43491868      1728000    2882.6288       175550        99585 
35120000    1.0027913  -0.43079663      1728000    2883.4281       175600        99616 
35130000    1.0017914  -0.44001318      1728000    2884.2538       175650        99652 
35140000    1.0149986  -0.43235664      1728000    2885.0649       175700        99683 
35150000   0.96652928  -0.43732373      1728000    2885.8737       175750        99715 
35160000    1.0284771  -0.41902166      1728000    2886.6767       175800        99747 
35170000   0.92582207  -0.42979017      1728000    2887.4697       175850        99782 
35180000    1.0333534  -0.41182782      1728000     2888.273       175900        99807 
35190000   0.97820201  -0.41842209      1728000    2889.0689       175950        99833 
35200000   0.90960637  -0.41602452      1728000    2889.8878       176000        99866 
35210000    1.0453368  -0.40775983      1728000    2890.6867       176050        99901 
35220000   0.98182076  -0.41338317      1728000    2891.5269       176100        99926 
35230000      1.01887  -0.44141916      1728000    2892.3428       176150        99954 
35240000   0.99059254  -0.43327614      1728000    2893.1559       176200        99979 
35250000   0.96921616  -0.41971187      1728000     2893.969       176250       100004 
35260000    1.0538257  -0.41986356      1728000    2894.7879       176300       100025 
35270000   0.94713589  -0.42301293      1728000    2895.6028       176350       100053 
35280000   0.97745757  -0.40257027      1728000    2896.4239       176400       100081 
35290000   0.95543585  -0.42634418      1728000    2897.2624       176450       100107 
35300000    1.0050689  -0.43631788      1728000     2898.088       176500       100138 
35310000   0.98287847  -0.40767004      1728000    2898.9099       176550       100169 
35320000    1.0206105  -0.40767553      1728000    2899.7069       176600       100203 
35330000   0.97916749  -0.41691134      1728000    2900.5178       176650       100233 
35340000   0.97198746   -0.4049941      1728000     2901.318       176700       100263 
35350000    1.0642708  -0.43374534      1728000    2902.1229       176750       100289 
35360000   0.92413238  -0.40064751      1728000    2902.9286       176800       100315 
35370000   0.93400997  -0.42118132      1728000    2903.7362       176850       100343 
35380000   0.98103749  -0.44478061      1728000    2904.5494       176900       100374 
35390000    0.9903225  -0.42277656      1728000    2905.3573       176950       100403 
35400000    1.0255735  -0.45395496      1728000    2906.1709       177000       100435 
35410000    1.0462854  -0.44997968      1728000    2906.9848       177050       100460 
35420000   0.96809482  -0.44797627      1728000    2907.7919       177100       100487 
35430000    1.0028004  -0.44002205      1728000     2908.589       177150       100521 
35440000   0.99765833  -0.47294122      1728000    2909.3918       177200       100550 
35450000   0.99529116  -0.45705561      1728000    2910.1884       177250       100584 
35460000     0.984081  -0.44856127      1728000     2910.986       177300       100612 
35470000    0.9418334   -0.4572519      1728000    2911.7947       177350       100636 
35480000   0.92301622  -0.47814896      1728000    2912.5989       177400       100665 
35490000    1.0386751  -0.47820402      1728000    2913.4351       177450       100687 
35500000    1.0393186  -0.47569695      1728000    2914.2471       177500       100717 
35510000      1.03827  -0.42884772      1728000    2915.0548       177550       100741 
35520000    1.0102457  -0.43759211      1728000    2915.8599       177600       100771 
35530000    1.0117744  -0.40730674      1728000    2916.6739       177650       100795 
35540000    1.0036321  -0.41592968      1728000     2917.473       177700       100825 
35550000   0.97990929  -0.41562723      1728000    2918.2729       177750       100850 
35560000    1.0321082   -0.4212291      1728000    2919.0799       177800       100886 
35570000    1.0583181  -0.40170977      1728000    2919.8842       177850       100917 
35580000   0.97275401  -0.40389905      1728000    2920.6799       177900       100950 
35590000    1.0054376  -0.40303523      1728000    2921.4807       177950       100979 
35600000   0.98903359  -0.39633558      1728000    2922.2901       178000       101012 
35610000    1.0240625  -0.40233201      1728000    2923.0968       178050       101048 
35620000    1.0175109  -0.38568206      1728000    2923.9119       178100       101079 
35630000    0.9756199    -0.376185      1728000      2924.72       178150       101110 
35640000    1.0509182  -0.39751853      1728000     2925.517       178200       101144 
35650000   0.94241499  -0.39233127      1728000    2926.3177       178250       101173 
35660000   0.98619607  -0.38253856      1728000    2927.1259       178300       101198 
35670000    1.0250325  -0.37417967      1728000    2927.9311       178350       101226 
35680000     1.005727  -0.38408605      1728000    2928.7441       178400       101249 
35690000    1.0107003  -0.37195153      1728000    2929.5341       178450       101282 
35700000    1.0136841  -0.41297815      1728000    2930.3642       178500       101316 
35710000    1.0168894  -0.42250363      1728000    2931.1861       178550       101347 
35720000    1.0432926  -0.43404906      1728000     2932.019       178600       101372 
35730000    1.0345311   -0.4042064      1728000     2932.848       178650       101401 
35740000     1.040779  -0.40269903      1728000    2933.6529       178700       101434 
35750000    1.0021242  -0.43296083      1728000    2934.4629       178750       101461 
35760000   0.98969728  -0.43190016      1728000    2935.2789       178800       101489 
35770000    1.0505128  -0.42085511      1728000    2936.0872       178850       101518 
35780000   0.96800798  -0.43603311      1728000    2936.8969       178900       101550 
35790000    1.0424151  -0.42092572      1728000    2937.7099       178950       101578 
35800000   0.96384003  -0.41547382      1728000    2938.5191       179000       101609 
35810000    1.0482605  -0.43439918      1728000     2939.333       179050       101633 
35820000    1.0431257  -0.45186956      1728000    2940.1401       179100       101659 
35830000    1.0279732  -0.40312863      1728000    2940.9419       179150       101686 
35840000   0.98193963  -0.41609019      1728000    2941.7418       179200       101711 
35850000    1.0018674  -0.46207917      1728000    2942.5511       179250       101742 
35860000    1.0332779  -0.44311129      1728000     2943.373       179300       101765 
35870000    1.0214118  -0.47298033      1728000    2944.2139       179350       101793 
35880000   0.98054301  -0.44967626      1728000    2945.0219       179400       101827 
35890000    1.0298444  -0.43349308      1728000     2945.834       179450       101861 
35900000     1.024033  -0.40884306      1728000    2946.6451       179500       101886 
35910000    1.0033127  -0.40607201      1728000    2947.4591       179550       101903 
35920000    0.9899494  -0.41133209      1728000    2948.2729       179600       101929 
35930000     1.024799  -0.42498464      1728000    2949.0889       179650       101961 
35940000   0.99536022  -0.42483844      1728000    2949.8927       179700       101994 
35950000    1.0296524   -0.4509206      1728000    2950.7039       179750       102024 
35960000    1.0502915  -0.43300498      1728000    2951.5398       179800       102050 
35970000    1.0023848  -0.45503197      1728000    2952.3859       179850       102078 
35980000    1.0450271   -0.4113613      1728000    2953.2038       179900       102110 
35990000   0.99080674  -0.42484399      1728000    2954.0414       179950       102138 
36000000    1.0111547  -0.44649979      1728000    2954.8677       180000       102165 
36010000   0.98488783  -0.43577131      1728000    2955.6832       180050       102197 
36020000   0.93296985  -0.41929343      1728000    2956.4989       180100       102228 
36030000    0.9684842  -0.41298191      1728000    2957.3182       180150       102257 
36040000   0.98702251  -0.41680429      1728000    2958.1348       180200       102280 
36050000   0.99726715  -0.43600964      1728000    2958.9515       180250       102313 
36060000    1.0538964   -0.4713863      1728000     2959.769       180300       102344 
36070000   0.99554395  -0.43019011      1728000    2960.5908       180350       102377 
36080000   0.99742399  -0.45765129      1728000    2961.4159       180400       102395 
36090000    0.9789365  -0.42736437      1728000    2962.2409       180450       102422 
36100000   0.95747472   -0.4264556      1728000    2963.0588       180500       102454 
36110000     1.036685  -0.43574125      1728000    2963.8748       180550       102482 
36120000   0.98111849  -0.42757969      1728000    2964.6911       180600       102506 
36130000    1.0395775  -0.43415693      1728000    2965.5051       180650       102537 
36140000    1.0112704  -0.44851097      1728000    2966.3101       180700       102567 
36150000   0.97534395  -0.47760504      1728000    2967.1239       180750       102591 
36160000   0.94210674  -0.43039993      1728000    2967.9361       180800       102624 
36170000    1.0165999  -0.45939221      1728000    2968.7547       180850       102650 
36180000    1.0146848  -0.48304629      1728000    2969.5739       180900       102679 
36190000    1.0214609   -0.4790295      1728000     2970.393       180950       102703 
36200000   0.96770011  -0.45436894      1728000    2971.2169       181000       102727 
36210000    1.0317687   -0.4723269      1728000    2972.0349       181050       102756 
36220000    1.0408132   -0.4456566      1728000    2972.8591       181100       102784 
36230000   0.99435328  -0.44602974      1728000      2973.68       181150       102809 
36240000    1.0307289   -0.4287734      1728000    2974.4851       181200       102844 
36250000    1.0881922  -0.44420764      1728000     2975.305       181250       102874 
36260000    1.0070537  -0.42288468      1728000    2976.1231       181300       102896 
36270000    1.0323616  -0.41556941      1728000    2976.9678       181350       102928 
36280000   0.94350632   -0.4324975      1728000    2977.7821       181400       102958 
36290000   0.98883894  -0.41348916      1728000    2978.5948       181450       102988 
36300000   0.98135494  -0.42042835      1728000     2979.421       181500       103019 
36310000   0.95265201   -0.4021536      1728000    2980.2589       181550       103051 
36320000    1.0139407  -0.39611322      1728000    2981.0969       181600       103080 
36330000    1.0499325  -0.42010985      1728000    2981.9032       181650       103108 
36340000    1.0028534  -0.41420795      1728000     2982.691       181700       103141 
36350000   0.96461871  -0.42813759      1728000      2983.54       181750       103175 
36360000    1.0316287   -0.3933988      1728000    2984.3478       181800       103202 
36370000    1.0152251   -0.4071916      1728000    2985.1501       181850       103235 
36380000    1.0372641  -0.39347724      1728000    2985.9439       181900       103262 
36390000   0.97099205  -0.40753804      1728000     2986.753       181950       103287 
36400000    1.0116972  -0.40207592      1728000     2987.558       182000       103312 
36410000    1.0079198  -0.42614784      1728000    2988.3598       182050       103344 
36420000   0.98044734  -0.39258142      1728000    2989.1669       182100       103371 
36430000   0.99484422  -0.45212461      1728000    2989.9789       182150       103392 
36440000    1.0174438  -0.42609768      1728000    2990.8239       182200       103425 
36450000    1.0093513  -0.46203181      1728000    2991.6439       182250       103454 
36460000   0.97291523   -0.4631262      1728000     2992.464       182300       103483 
36470000   0.97963579  -0.47730306      1728000    2993.2759       182350       103511 
36480000    1.0300623  -0.49178796      1728000    2994.1039       182400       103539 
36490000    1.0180208  -0.47944429      1728000    2994.9428       182450       103561 
36500000   0.98511679  -0.48497786      1728000    2995.7668       182500       103584 
36510000   0.96928555  -0.47897823      1728000    2996.6059       182550       103615 
36520000    1.0097627  -0.48187545      1728000    2997.4179       182600       103639 
36530000    1.0307584  -0.53114472      1728000    2998.2248       182650       103669 
36540000    1.0220099  -0.48303394      1728000     2999.042       182700       103700 
36550000    1.0033644  -0.47072372      1728000    2999.8459       182750       103729 
36560000   0.99516927  -0.48925284      1728000     3000.664       182800       103761 
36570000   0.99373746  -0.48983315      1728000      3001.48       182850       103783 
36580000   0.99589603  -0.54442649      1728000    3002.2929       182900       103810 
36590000    1.0544033  -0.53918543      1728000    3003.1378       182950       103837 
36600000    1.0010302  -0.48046342      1728000    3003.9728       183000       103867 
36610000   0.99465284  -0.50965309      1728000    3004.7938       183050       103900 
36620000    1.0092403  -0.50586111      1728000    3005.6238       183100       103931 
36630000    1.0315396  -0.48712603      1728000     3006.428       183150       103957 
36640000    1.0709403  -0.45143181      1728000     3007.225       183200       103983 
36650000   0.99020596  -0.44961758      1728000     3008.024       183250       104013 
36660000    1.0308156  -0.45218786      1728000    3008.8229       183300       104040 
36670000     1.002909  -0.44752237      1728000     3009.631       183350       104068 
36680000   0.99037064  -0.42021633      1728000    3010.4249       183400       104098 
36690000    1.0507015  -0.45867681      1728000    3011.2329       183450       104132 
36700000   0.98262877  -0.45121675      1728000    3012.0529       183500       104157 
36710000    1.0082279  -0.42784214      1728000    3012.8759       183550       104182 
36720000   0.98528087  -0.43833736      1728000     3013.682       183600       104213 
36730000    1.0034004  -0.42467663      1728000    3014.4849       183650       104238 
36740000    1.0172526  -0.43957659      1728000    3015.2823       183700       104265 
36750000    1.0752594  -0.44619875      1728000    3016.0839       183750       104300 
36760000    1.0077038  -0.44029112      1728000    3016.8929       183800       104324 
36770000    1.0294888  -0.42450449      1728000     3017.733       183850       104359 
36780000   0.99442706  -0.44881752      1728000     3018.543       183900       104387 
36790000   0.96771148  -0.40222222      1728000    3019.3498       183950       104418 
36800000   0.99613292  -0.41497112      1728000    3020.1689       184000       104447 
36810000    1.0368091  -0.41193343      1728000    3020.9869       184050       104480 
36820000   0.95202934  -0.41111212      1728000     3021.802       184100       104510 
36830000   0.94311835  -0.40393812      1728000     3022.612       184150       104545 
36840000   0.99712666  -0.42615787      1728000    3023.4229       184200       104569 
36850000   0.96542666  -0.39902615      1728000     3024.256       184250       104601 
36860000    1.0243922   -0.4174632      1728000    3025.0995       184300       104635 
36870000   0.99080924  -0.39780384      1728000     3025.938       184350       104663 
36880000    1.0328884  -0.37961361      1728000    3026.7758       184400       104698 
36890000    1.0000212  -0.39008892      1728000    3027.6209       184450       104730 
36900000    1.0311368  -0.38585798      1728000     3028.431       184500       104762 
36910000   0.95015203  -0.37019403      1728000    3029.2622       184550       104793 
36920000    1.0010722  -0.41701181      1728000    3030.0851       184600       104826 
36930000   0.97747156  -0.37026812      1728000     3030.904       184650       104850 
36940000    1.0403395  -0.41347252      1728000    3031.7027       184700       104882 
36950000    1.0007689   -0.4211898      1728000    3032.5189       184750       104908 
36960000    1.0004628  -0.39524954      1728000     3033.327       184800       104936 
36970000   0.91959508  -0.39690597      1728000    3034.1468       184850       104963 
36980000   0.96919602  -0.40423515      1728000    3034.9742       184900       104996 
36990000   0.94989316  -0.41262999      1728000    3035.7992       184950       105023 
37000000    0.9847538  -0.42755059      1728000    3036.6319       185000       105049 
37010000    1.0775936  -0.40830169      1728000    3037.4665       185050       105082 
37020000     1.019875  -0.43780555      1728000    3038.2869       185100       105110 
37030000    0.9805021  -0.44736924      1728000    3039.1181       185150       105136 
37040000    1.0048184  -0.43579667      1728000    3039.9576       185200       105167 
37050000   0.98907741  -0.42926339      1728000    3040.8051       185250       105195 
37060000   0.99903982  -0.42964637      1728000    3041.6102       185300       105223 
37070000   0.95021769  -0.45536543      1728000      3042.43       185350       105243 
37080000   0.97771461  -0.46014504      1728000     3043.248       185400       105268 
37090000    1.0003675  -0.45587131      1728000    3044.0651       185450       105296 
37100000    1.0228343  -0.44925338      1728000    3044.8884       185500       105321 
37110000    1.0036516  -0.46423609      1728000    3045.6952       185550       105347 
37120000   0.96973625  -0.45846615      1728000     3046.501       185600       105379 
37130000    0.9761275  -0.45973831      1728000    3047.3072       185650       105408 
37140000    1.0652187  -0.46972877      1728000    3048.1352       185700       105439 
37150000    1.0342941  -0.44861255      1728000    3048.9491       185750       105464 
37160000   0.99102278  -0.47789253      1728000    3049.7631       185800       105493 
37170000    1.0532686  -0.43000927      1728000    3050.5902       185850       105519 
37180000   0.93272948  -0.42092826      1728000     3051.412       185900       105551 
37190000   0.96563372  -0.44973355      1728000    3052.2507       185950       105581 
37200000    1.0383476  -0.45013731      1728000     3053.077       186000       105611 
37210000    1.0756383  -0.46717836      1728000    3053.9007       186050       105647 
37220000   0.95558137  -0.47887911      1728000    3054.7059       186100       105670 
37230000    1.0034797  -0.44265476      1728000    3055.5018       186150       105699 
37240000   0.95414572  -0.42480598      1728000    3056.2911       186200       105728 
37250000    1.0097519   -0.4475723      1728000    3057.1059       186250       105761 
37260000    1.0078935  -0.43785139      1728000    3057.9372       186300       105789 
37270000    1.0591245  -0.44901219      1728000    3058.7431       186350       105819 
37280000    1.0291416  -0.41624426      1728000    3059.5577       186400       105844 
37290000    1.0015926  -0.44099907      1728000    3060.3602       186450       105873 
37300000     0.989815   -0.4364133      1728000    3061.1648       186500       105903 
37310000   0.98351585   -0.4349684      1728000     3061.966       186550       105930 
37320000   0.98886973  -0.43234092      1728000    3062.7614       186600       105964 
37330000    1.0125645  -0.41624847      1728000    3063.5751       186650       105993 
37340000   0.98601434  -0.44138815      1728000    3064.3782       186700       106019 
37350000    1.0119079  -0.45715493      1728000     3065.188       186750       106039 
37360000    1.0143486  -0.47892513      1728000    3066.0091       186800       106063 
37370000   0.95324941  -0.50241942      1728000    3066.8284       186850       106093 
37380000   0.96907218  -0.45212827      1728000     3067.647       186900       106119 
37390000   0.93735171  -0.45580928      1728000    3068.4708       186950       106155 
37400000   0.99429316  -0.43761387      1728000     3069.299       187000       106183 
37410000    1.0373946  -0.44133642      1728000    3070.0992       187050       106211 
37420000   0.99235308  -0.43018807      1728000     3070.898       187100       106239 
37430000    1.0067991  -0.41294446      1728000     3071.703       187150       106268 
37440000    1.0370581  -0.41959953      1728000    3072.5131       187200       106299 
37450000    1.0372949  -0.41475931      1728000    3073.3281       187250       106333 
37460000    1.0007298   -0.4188169      1728000    3074.1351       187300       106361 
37470000   0.94752253  -0.39723709      1728000    3074.9399       187350       106397 
37480000   0.99573662  -0.42458497      1728000    3075.7413       187400       106423 
37490000    1.0080542  -0.45397963      1728000     3076.542       187450       106450 
37500000    1.0006723  -0.45214234      1728000    3077.3592       187500       106480 
37510000    1.0499471  -0.45758608      1728000    3078.1622       187550       106507 
37520000    1.0190767  -0.47882945      1728000    3078.9858       187600       106531 
37530000    1.0673502   -0.4502538      1728000    3079.8012       187650       106556 
37540000   0.98445521  -0.47287089      1728000     3080.611       187700       106583 
37550000    1.0177216  -0.47016224      1728000     3081.427       187750       106608 
37560000    1.0289044  -0.45902764      1728000    3082.2399       187800       106639 
37570000    1.0285924  -0.46665136      1728000    3083.0442       187850       106668 
37580000    1.0283976  -0.46466025      1728000    3083.8522       187900       106694 
37590000   0.95510684  -0.47712361      1728000    3084.6586       187950       106721 
37600000    1.0402716  -0.46243796      1728000    3085.4768       188000       106750 
37610000   0.95922438  -0.46393773      1728000    3086.2776       188050       106778 
37620000   0.98472529  -0.52505338      1728000    3087.0902       188100       106804 
37630000    1.0288064   -0.4825869      1728000    3087.9025       188150       106827 
37640000   0.96606931  -0.52038989      1728000    3088.7179       188200       106854 
37650000   0.91998545  -0.50817654      1728000    3089.5403       188250       106878 
37660000    1.0300307  -0.46400961      1728000     3090.347       188300       106898 
37670000    1.0217894  -0.44502695      1728000    3091.1462       188350       106924 
37680000    1.0345935  -0.45366909      1728000     3091.965       188400       106945 
37690000    1.0001846   -0.4233536      1728000    3092.7638       188450       106975 
37700000      1.03749  -0.45039043      1728000    3093.5883       188500       107005 
37710000    1.0531269  -0.47470657      1728000    3094.4012       188550       107032 
37720000   0.94872661  -0.44229004      1728000    3095.2401       188600       107058 
37730000   0.99047062  -0.41578952      1728000    3096.0458       188650       107090 
37740000    1.0487259  -0.42407881      1728000     3096.846       188700       107120 
37750000    1.0067014  -0.41751199      1728000    3097.6482       188750       107152 
37760000    1.0159601  -0.42497356      1728000    3098.4532       188800       107177 
37770000    1.0098694   -0.4012363      1728000    3099.2591       188850       107207 
37780000   0.96470012   -0.4150185      1728000    3100.0628       188900       107236 
37790000   0.97875773  -0.41034115      1728000    3100.8673       188950       107265 
37800000   0.98348297  -0.43034949      1728000    3101.6762       189000       107296 
37810000    1.0280689  -0.41897648      1728000    3102.4782       189050       107328 
37820000   0.99742311  -0.42601065      1728000      3103.32       189100       107358 
37830000    1.0115992  -0.42060762      1728000    3104.1282       189150       107388 
37840000   0.99612986   -0.4204274      1728000    3104.9343       189200       107422 
37850000   0.98127749  -0.44296669      1728000    3105.7393       189250       107451 
37860000    1.0259059  -0.42073769      1728000    3106.5399       189300       107474 
37870000    1.0169843   -0.4174774      1728000    3107.3343       189350       107503 
37880000   0.97860636  -0.42181536      1728000    3108.1237       189400       107530 
37890000    1.0145221  -0.43599786      1728000    3108.9189       189450       107567 
37900000   0.94600153  -0.44281217      1728000    3109.7261       189500       107591 
37910000    1.0631721  -0.45086411      1728000    3110.5299       189550       107620 
37920000     1.047134  -0.42998026      1728000     3111.329       189600       107649 
37930000    1.0178092  -0.44236422      1728000    3112.1294       189650       107678 
37940000    1.0042781  -0.44986255      1728000     3112.941       189700       107706 
37950000    1.0140386   -0.4567937      1728000    3113.7542       189750       107735 
37960000   0.97715707  -0.46477314      1728000    3114.5633       189800       107761 
37970000   0.98241194  -0.46177075      1728000    3115.3783       189850       107791 
37980000    1.0104254  -0.48424804      1728000    3116.1913       189900       107814 
37990000    1.0288275  -0.44457053      1728000    3117.0095       189950       107833 
38000000   0.98773456  -0.41620995      1728000    3117.8483       190000       107856 
38010000    1.0136017  -0.45408258      1728000    3118.6515       190050       107881 
38020000    1.0051704   -0.4482584      1728000    3119.4596       190100       107909 
38030000    1.0016798  -0.44394375      1728000     3120.269       190150       107939 
38040000     1.066259  -0.46812263      1728000    3121.0931       190200       107966 
38050000    1.0252459  -0.46133725      1728000    3121.9085       190250       108001 
38060000    0.9769822  -0.45063783      1728000    3122.7133       190300       108032 
38070000   0.97116326  -0.47093326      1728000    3123.5235       190350       108058 
38080000   0.98693237  -0.53189561      1728000    3124.3396       190400       108092 
38090000   0.96707276  -0.48091213      1728000    3125.1642       190450       108122 
38100000   0.97900056  -0.49264786      1728000     3125.996       190500       108152 
38110000   0.97026374  -0.46979885      1728000    3126.8203       190550       108178 
38120000   0.99842846  -0.45067019      1728000      3127.63       190600       108206 
38130000   0.95150313  -0.44059468      1728000     3128.442       190650       108235 
38140000    1.0078689  -0.44302579      1728000    3129.2693       190700       108262 
38150000    1.0115235  -0.40843117      1728000     3130.088       190750       108295 
38160000    1.0236644  -0.45410774      1728000    3130.9032       190800       108328 
38170000    1.0036204  -0.44333013      1728000    3131.7383       190850       108355 
38180000    1.0352347  -0.43681014      1728000    3132.5554       190900       108380 
38190000    1.0668671   -0.4402094      1728000    3133.3603       190950       108408 
38200000    1.0492903  -0.44271721      1728000    3134.1716       191000       108438 
38210000    1.0458168  -0.45734067      1728000    3134.9873       191050       108470 
38220000    1.0076498  -0.46209619      1728000    3135.8018       191100       108496 
38230000   0.94053982  -0.45237678      1728000    3136.6163       191150       108525 
38240000    1.0000622   -0.4579188      1728000    3137.4583       191200       108549 
38250000   0.97284493  -0.43737281      1728000    3138.2743       191250       108570 
38260000   0.96890181  -0.45196861      1728000    3139.0783       191300       108593 
38270000   0.98353709  -0.45741475      1728000    3139.9061       191350       108617 
38280000    1.0366207  -0.42388599      1728000    3140.7343       191400       108641 
38290000    1.0367546  -0.43265752      1728000    3141.5543       191450       108671 
38300000    1.0008831  -0.45902395      1728000    3142.4044       191500       108697 
38310000   0.99503863  -0.48189635      1728000    3143.2352       191550       108715 
38320000   0.99884521  -0.45900427      1728000    3144.0613       191600       108742 
38330000    1.0891285  -0.46790719      1728000    3144.8903       191650       108773 
38340000   0.97450102  -0.46621651      1728000      3145.73       191700       108797 
38350000    1.0610539  -0.46714858      1728000     3146.565       191750       108820 
38360000    1.0323295  -0.44968176      1728000    3147.3773       191800       108852 
38370000     1.033917  -0.46270593      1728000    3148.2012       191850       108879 
38380000    1.0248787  -0.47024336      1728000    3149.0277       191900       108906 
38390000   0.95756988  -0.47142624      1728000    3149.8561       191950       108929 
38400000    1.0321054  -0.44316857      1728000    3150.6712       192000       108960 
38410000    1.0016237  -0.45205556      1728000    3151.4733       192050       108986 
38420000    1.0001832  -0.44405316      1728000    3152.2691       192100       109017 
38430000   0.98497804  -0.43196257      1728000    3153.0713       192150       109048 
38440000    1.0275399  -0.43592929      1728000    3153.8663       192200       109080 
38450000   0.96306492  -0.43176459      1728000    3154.6621       192250       109112 
38460000   0.94984615  -0.45071574      1728000    3155.4623       192300       109139 
38470000     1.040949  -0.45576194      1728000    3156.2723       192350       109161 
38480000    1.0192477  -0.45935998      1728000    3157.0701       192400       109193 
38490000    0.9694445  -0.43917302      1728000    3157.8752       192450       109221 
38500000    1.0271873   -0.4322139      1728000    3158.6814       192500       109250 
38510000   0.99604682  -0.44062072      1728000    3159.4902       192550       109278 
38520000    1.0724175  -0.42470141      1728000    3160.2953       192600       109305 
38530000    0.9749056  -0.45095214      1728000    3161.0973       192650       109335 
38540000   0.98183055  -0.41911583      1728000    3161.9142       192700       109362 
38550000   0.99246772  -0.43896135      1728000    3162.7461       192750       109391 
38560000     1.038554  -0.43757708      1728000    3163.5653       192800       109418 
38570000   0.92963955   -0.4298389      1728000    3164.3773       192850       109447 
38580000   0.95536697  -0.42883338      1728000    3165.1973       192900       109475 
38590000    1.0558852  -0.41037981      1728000    3166.0063       192950       109507 
38600000   0.93371464  -0.41468415      1728000    3166.8102       193000       109536 
38610000   0.98780143  -0.39885463      1728000    3167.6042       193050       109566 
38620000    0.9724275  -0.39883185      1728000    3168.3983       193100       109598 
38630000   0.99278832  -0.39718256      1728000    3169.2033       193150       109630 
38640000   0.96582512  -0.40828846      1728000    3169.9972       193200       109664 
38650000    1.0057539  -0.41916838      1728000    3170.8051       193250       109694 
38660000   0.96879027  -0.41631258      1728000    3171.6179       193300       109719 
38670000    1.0428088  -0.39487742      1728000    3172.4351       193350       109749 
38680000    1.0232473  -0.41980364      1728000     3173.253       193400       109782 
38690000    1.0213371  -0.39468812      1728000    3174.0712       193450       109813 
38700000    1.0180669  -0.43560546      1728000    3174.9023       193500       109846 
38710000    1.0566449  -0.41719665      1728000    3175.7073       193550       109881 
38720000   0.98862846  -0.43124623      1728000    3176.5231       193600       109908 
38730000    1.0204317   -0.4438094      1728000    3177.4004       193650       109942 
38740000    1.0315679  -0.40158133      1728000    3178.2172       193700       109973 
38750000   0.98192099  -0.41418262      1728000    3179.0393       193750       109997 
38760000   0.95834604  -0.42720097      1728000    3179.8589       193800       110032 
38770000   0.98143189  -0.42264239      1728000    3180.6831       193850       110065 
38780000    1.0447725  -0.41734621      1728000    3181.5102       193900       110094 
38790000   0.98733824  -0.42563672      1728000    3182.3264       193950       110124 
38800000    1.0708195  -0.43555032      1728000    3183.1461       194000       110149 
38810000   0.94835014  -0.46055801      1728000     3183.959       194050       110182 
38820000    1.0543983   -0.4770884      1728000    3184.7747       194100       110213 
38830000   0.99121114   -0.4694158      1728000    3185.7058       194150       110236 
38840000   0.96042047  -0.46190931      1728000    3186.5043       194200       110263 
38850000    0.9933842  -0.49540923      1728000    3187.3233       194250       110287 
38860000   0.94575375  -0.48368823      1728000    3188.1453       194300       110315 
38870000   0.95522066  -0.48865179      1728000     3188.999       194350       110337 
38880000   0.97725536  -0.46029602      1728000    3189.8532       194400       110360 
38890000   0.94384103  -0.45489552      1728000    3190.6628       194450       110391 
38900000    1.0494097   -0.4586875      1728000    3191.4782       194500       110416 
38910000   0.99920108  -0.45137629      1728000    3192.3113       194550       110439 
38920000    1.0177483  -0.44729112      1728000    3193.1312       194600       110470 
38930000   0.97519333  -0.49206102      1728000    3193.9437       194650       110501 
38940000    1.0485238  -0.49988486      1728000    3194.7652       194700       110526 
38950000   0.97054298  -0.44501004      1728000    3195.5752       194750       110548 
38960000   0.98345763  -0.45314849      1728000    3196.3843       194800       110576 
38970000    1.0094266  -0.45886497      1728000    3197.1942       194850       110605 
38980000    1.0302266   -0.4617327      1728000    3198.0083       194900       110632 
38990000     1.045783  -0.42246151      1728000    3198.8293       194950       110665 
39000000   0.96162475  -0.42518694      1728000    3199.6374       195000       110699 
39010000   0.95321964  -0.42392523      1728000    3200.4739       195050       110724 
39020000   0.99017951  -0.42035702      1728000    3201.2981       195100       110751 
39030000    1.0013144  -0.41287485      1728000    3202.1377       195150       110779 
39040000   0.95474593  -0.41014148      1728000    3202.9414       195200       110814 
39050000    1.0149702  -0.40743365      1728000    3203.7612       195250       110845 
39060000   0.93853369  -0.40819204      1728000    3204.5631       195300       110876 
39070000    1.0248378  -0.42617026      1728000    3205.3784       195350       110905 
39080000   0.94276751  -0.45021085      1728000    3206.1912       195400       110939 
39090000   0.96279441  -0.41677105      1728000     3207.037       195450       110967 
39100000   0.98893469  -0.42286289      1728000     3207.851       195500       110998 
39110000    1.0210652  -0.40903173      1728000    3208.6714       195550       111030 
39120000    1.0156229  -0.40574313      1728000    3209.4762       195600       111068 
39130000    1.0014525  -0.39905276      1728000    3210.2808       195650       111099 
39140000   0.96533521  -0.41243342      1728000    3211.0871       195700       111132 
39150000    1.0276237  -0.43134885      1728000    3211.8813       195750       111161 
39160000    1.0213934  -0.46244473      1728000    3212.6863       195800       111196 
39170000    1.0086521  -0.46243109      1728000    3213.4908       195850       111225 
39180000    1.0071254  -0.47544786      1728000    3214.2984       195900       111254 
39190000    1.0120823   -0.4585781      1728000    3215.1035       195950       111284 
39200000    1.0025913  -0.46327369      1728000    3215.9103       196000       111313 
39210000    1.0508568  -0.46570838      1728000    3216.7163       196050       111342 
39220000    1.0181443  -0.48286881      1728000    3217.5263       196100       111370 
39230000     1.041889  -0.49805953      1728000    3218.3333       196150       111402 
39240000   0.98462307  -0.49085388      1728000    3219.1434       196200       111432 
39250000   0.97559783  -0.48451321      1728000    3219.9541       196250       111459 
39260000    1.0248534  -0.48783111      1728000    3220.7823       196300       111488 
39270000    1.0623786  -0.50391114      1728000    3221.6172       196350       111506 
39280000   0.98010584   -0.4599555      1728000    3222.4399       196400       111535 
39290000   0.99120917  -0.44936634      1728000    3223.2972       196450       111564 
39300000    1.0029682  -0.46568626      1728000    3224.1712       196500       111594 
39310000   0.99719913  -0.44891247      1728000    3224.9823       196550       111629 
39320000   0.98855995  -0.42993919      1728000    3225.7854       196600       111653 
39330000    1.0492936  -0.43407355      1728000    3226.5875       196650       111682 
39340000   0.93998407  -0.46154749      1728000    3227.3934       196700       111709 
39350000   0.98442871  -0.42432571      1728000    3228.2104       196750       111739 
39360000    1.0030713  -0.41274341      1728000    3229.0153       196800       111765 
39370000    1.0019289   -0.4128728      1728000    3229.9306       196850       111799 
39380000   0.99974274  -0.42403227      1728000    3230.7863       196900       111830 
39390000   0.93681622   -0.4099173      1728000    3231.5905       196950       111858 
39400000   0.99395192  -0.41956224      1728000    3232.4117       197000       111890 
39410000   0.98865628  -0.41491515      1728000    3233.2197       197050       111916 
39420000   0.97728321  -0.41159446      1728000    3234.0443       197100       111941 
39430000    1.0274956  -0.39597266      1728000    3234.9119       197150       111971 
39440000   0.95574994  -0.38187952      1728000    3235.8122       197200       112002 
39450000   0.98813866  -0.38349572      1728000    3236.6282       197250       112033 
39460000    1.0076618  -0.37948611      1728000    3237.4314       197300       112065 
39470000   0.99036103  -0.37784604      1728000    3238.2444       197350       112096 
39480000    1.0011043  -0.36899308      1728000    3239.0382       197400       112126 
39490000    1.0702016  -0.39899941      1728000    3239.8584       197450       112149 
39500000    1.0175151  -0.40112925      1728000    3240.6935       197500       112182 
39510000    1.0035483  -0.38755273      1728000    3241.5052       197550       112213 
39520000    1.0283183  -0.36610388      1728000    3242.2933       197600       112249 
39530000    1.0437867  -0.41143099      1728000    3243.0862       197650       112283 
39540000    1.0247516  -0.43333979      1728000    3243.8892       197700       112316 
39550000      1.00266  -0.41341034      1728000    3244.6992       197750       112344 
39560000    1.0041649  -0.41137335      1728000    3245.5022       197800       112375 
39570000   0.99471887  -0.44111749      1728000    3246.3293       197850       112405 
39580000   0.95818067  -0.42084494      1728000    3247.1393       197900       112436 
39590000   0.96249798  -0.41727036      1728000    3247.9452       197950       112464 
39600000   0.99324801  -0.45018846      1728000    3248.7562       198000       112502 
39610000    1.0398808  -0.43824237      1728000    3249.5681       198050       112530 
39620000    1.0671466  -0.41742566      1728000      3250.38       198100       112559 
39630000   0.97074633  -0.41567418      1728000    3251.2073       198150       112586 
39640000   0.96950712  -0.41129327      1728000    3252.0345       198200       112618 
39650000   0.95024319   -0.4011515      1728000    3252.8658       198250       112654 
39660000   0.98983116  -0.40344109      1728000     3253.679       198300       112688 
39670000    1.0391873  -0.42373616      1728000    3254.5143       198350       112723 
39680000    1.0627296  -0.43311613      1728000    3255.3332       198400       112750 
39690000   0.99935107  -0.40497489      1728000    3256.1512       198450       112782 
39700000    1.0207657  -0.39234017      1728000    3256.9802       198500       112803 
39710000   0.97622817  -0.42655241      1728000    3257.8071       198550       112833 
39720000    1.0118199  -0.35613205      1728000    3258.6183       198600       112862 
39730000   0.97987788  -0.36563931      1728000    3259.4233       198650       112895 
39740000    1.0290598  -0.37918147      1728000    3260.2507       198700       112923 
39750000   0.97057318  -0.36903525      1728000    3261.0673       198750       112957 
39760000    1.0319347  -0.39380702      1728000    3261.8638       198800       112988 
39770000     1.000999  -0.40374553      1728000    3262.6822       198850       113015 
39780000   0.98808367  -0.43203581      1728000    3263.4972       198900       113049 
39790000    1.0002543  -0.43102465      1728000    3264.3552       198950       113080 
39800000   0.92964048  -0.42096446      1728000    3265.2138       199000       113109 
39810000    1.0002229  -0.42113061      1728000    3266.0416       199050       113137 
39820000    1.0170741  -0.38403946      1728000    3266.8598       199100       113164 
39830000   0.96639093  -0.37691535      1728000    3267.6882       199150       113195 
39840000    1.0333882  -0.38388642      1728000    3268.5009       199200       113223 
39850000     1.027632  -0.39856154      1728000    3269.3077       199250       113248 
39860000    1.0872074  -0.40543903      1728000    3270.1086       199300       113282 
39870000   0.96798726  -0.37693285      1728000    3270.9063       199350       113309 
39880000    1.0122844  -0.41538824      1728000    3271.7041       199400       113343 
39890000   0.99889193  -0.40437048      1728000    3272.5024       199450       113371 
39900000    1.0384325  -0.41178066      1728000     3273.315       199500       113400 
39910000    1.0136496  -0.41247455      1728000    3274.1323       199550       113421 
39920000   0.97515088  -0.41626124      1728000    3274.9814       199600       113450 
39930000   0.95955113  -0.41600145      1728000    3275.8226       199650       113476 
39940000   0.96664095  -0.39260234      1728000    3276.6445       199700       113510 
39950000   0.98271047  -0.39333279      1728000    3277.4665       199750       113533 
39960000   0.97170839  -0.42059739      1728000    3278.3393       199800       113562 
39970000   0.98326207  -0.42348677      1728000    3279.1759       199850       113587 
39980000    1.0321339  -0.42861796      1728000    3280.0272       199900       113618 
39990000    1.0168269  -0.43132118      1728000    3280.8552       199950       113642 
40000000   0.96459691  -0.45420195      1728000    3281.6996       200000       113666 
40010000   0.96629708  -0.47056419      1728000    3282.5321       200050       113692 
40020000    1.0124096   -0.4939112      1728000    3283.3454       200100       113713 
40030000    1.0147519  -0.47078034      1728000    3284.1583       200150       113735 
40040000    1.0072489  -0.48254253      1728000    3284.9729       200200       113763 
40050000    1.0832781     -0.45344      1728000    3285.7931       200250       113791 
40060000    1.0126555  -0.47226736      1728000    3286.6168       200300       113822 
40070000    1.0043854  -0.51044991      1728000     3287.458       200350       113855 
40080000     1.053717  -0.49864518      1728000    3288.2962       200400       113880 
40090000    1.0028838  -0.53281496      1728000    3289.1503       200450       113901 
40100000    1.0083392  -0.50445322      1728000    3289.9909       200500       113928 
40110000    1.0088663  -0.51642968      1728000    3290.8223       200550       113959 
40120000    1.0662771  -0.55660498      1728000    3291.6754       200600       113986 
40130000   0.96864409   -0.5312611      1728000    3292.5284       200650       114004 
40140000     1.097966  -0.50964313      1728000    3293.3753       200700       114029 
40150000   0.92473633  -0.47795015      1728000    3294.2163       200750       114054 
40160000    1.0347747  -0.48117337      1728000    3295.0671       200800       114078 
40170000    0.9980674  -0.45801762      1728000    3295.8933       200850       114109 
40180000   0.97265367  -0.45359949      1728000    3296.7211       200900       114134 
40190000   0.98889633  -0.45135904      1728000    3297.5605       200950       114163 
40200000    0.9891976  -0.42448627      1728000    3298.3793       201000       114195 
40210000   0.98243045   -0.4330934      1728000    3299.1902       201050       114224 
40220000    1.0455216  -0.42590533      1728000    3299.9944       201100       114258 
40230000   0.95289038   -0.4037065      1728000    3300.8013       201150       114287 
40240000   0.99620481  -0.40110899      1728000    3301.6054       201200       114313 
40250000   0.99221526  -0.40025295      1728000    3302.4321       201250       114344 
40260000   0.97996375  -0.39223088      1728000    3303.2473       201300       114371 
40270000   0.99991274   -0.3949851      1728000    3304.0473       201350       114402 
40280000    1.0365787  -0.37096053      1728000    3304.8756       201400       114425 
40290000   0.96576849  -0.38115738      1728000    3305.7189       201450       114453 
40300000   0.95873389  -0.39098978      1728000    3306.5458       201500       114488 
40310000   0.98780025  -0.38451169      1728000      3307.38       201550       114516 
40320000   0.96711663   -0.3830093      1728000    3308.2033       201600       114550 
40330000   0.99666643  -0.36503464      1728000    3309.0124       201650       114583 
40340000    1.0456237  -0.37015833      1728000    3309.8261       201700       114611 
40350000   0.95519638   -0.3816227      1728000    3310.6382       201750       114646 
40360000    0.9937269   -0.3968417      1728000    3311.4472       201800       114677 
40370000     1.036644  -0.40169383      1728000    3312.2651       201850       114703 
40380000    1.0310328  -0.38333075      1728000    3313.0712       201900       114740 
40390000   0.95717918  -0.40034433      1728000    3313.8982       201950       114772 
40400000    1.0294901  -0.40304805      1728000    3314.7273       202000       114800 
40410000   0.99861121  -0.40032177      1728000    3315.5543       202050       114835 
40420000     1.057328  -0.38822937      1728000    3316.3742       202100       114862 
40430000    1.0374563  -0.39034968      1728000     3317.233       202150       114891 
40440000   0.97316332  -0.41568834      1728000    3318.0822       202200       114923 
40450000    1.0535702  -0.41977185      1728000    3318.9157       202250       114950 
40460000    1.0140352  -0.38349275      1728000    3319.7699       202300       114980 
40470000    1.0651777   -0.4359371      1728000    3320.5795       202350       115011 
40480000    1.0611636  -0.40347144      1728000    3321.4141       202400       115035 
40490000    1.0030006  -0.40505138      1728000    3322.2171       202450       115065 
40500000    1.0343671  -0.41474266      1728000    3323.0365       202500       115095 
40510000    1.0737058  -0.41053051      1728000    3323.8605       202550       115127 
40520000    1.0237763  -0.41166704      1728000    3324.6588       202600       115153 
40530000    1.0133767  -0.38875091      1728000    3325.4616       202650       115177 
40540000   0.98470449  -0.39244275      1728000    3326.2901       202700       115205 
40550000     1.019567  -0.40476066      1728000    3327.1373       202750       115237 
40560000    1.0476261  -0.40384094      1728000    3327.9834       202800       115271 
40570000   0.96356606  -0.35729823      1728000    3328.7992       202850       115301 
40580000    1.0032052  -0.38240078      1728000    3329.6075       202900       115336 
40590000    1.0117841  -0.36143639      1728000    3330.4302       202950       115369 
40600000    1.0038121  -0.41134958      1728000    3331.2671       203000       115404 
40610000   0.92975163  -0.39074584      1728000    3332.0782       203050       115434 
40620000    1.0286225  -0.41893474      1728000    3332.8881       203100       115458 
40630000     1.030747   -0.4152427      1728000    3333.6943       203150       115490 
40640000   0.96160985  -0.40967038      1728000    3334.5263       203200       115516 
40650000   0.95370089  -0.38894681      1728000    3335.3413       203250       115548 
40660000   0.97681728  -0.41448576      1728000    3336.1444       203300       115582 
40670000   0.96211441  -0.41318379      1728000    3336.9503       203350       115611 
40680000   0.92519369  -0.41676172      1728000    3337.7564       203400       115644 
40690000    1.0264694  -0.40018618      1728000    3338.5553       203450       115670 
40700000    1.0312351  -0.41580882      1728000    3339.3573       203500       115697 
40710000   0.99329272  -0.44014289      1728000    3340.1612       203550       115726 
40720000    1.0288105  -0.43499771      1728000    3340.9674       203600       115755 
40730000   0.96201091  -0.43478214      1728000    3341.7673       203650       115781 
40740000    1.0035312  -0.42305532      1728000    3342.5823       203700       115811 
40750000   0.98854585  -0.43623227      1728000    3343.3904       203750       115842 
40760000     1.002718  -0.47616167      1728000    3344.2064       203800       115875 
40770000   0.98551185  -0.43034606      1728000    3345.0213       203850       115901 
40780000      0.96898   -0.4449996      1728000    3345.8232       203900       115932 
40790000     1.001709  -0.42994113      1728000    3346.6274       203950       115956 
40800000    1.0082823  -0.41921552      1728000    3347.4464       204000       115987 
40810000   0.98780541  -0.40826621      1728000    3348.2564       204050       116011 
40820000   0.99100741  -0.42087352      1728000    3349.0629       204100       116038 
40830000    1.0159217  -0.44696198      1728000    3349.8713       204150       116061 
40840000    1.0063488  -0.45042602      1728000    3350.6744       204200       116092 
40850000      1.01997  -0.45783004      1728000    3351.4774       204250       116116 
40860000    1.0488209  -0.46609311      1728000    3352.2964       204300       116140 
40870000    1.0065036  -0.44714199      1728000    3353.1083       204350       116167 
40880000    1.0210058  -0.43929147      1728000    3353.9221       204400       116194 
40890000     1.018128  -0.46291371      1728000    3354.7492       204450       116225 
40900000    1.0030085  -0.50528719      1728000     3355.582       204500       116256 
40910000    1.0048954  -0.47696451      1728000    3356.4013       204550       116286 
40920000    1.0036629  -0.47529811      1728000    3357.2172       204600       116309 
40930000    1.0144435   -0.4788449      1728000    3358.0363       204650       116339 
40940000    1.0154154  -0.49311824      1728000    3358.8524       204700       116366 
40950000   0.97676391  -0.49448566      1728000    3359.6863       204750       116396 
40960000    0.9772362  -0.50760076      1728000    3360.5285       204800       116414 
40970000   0.99026403  -0.55884424      1728000    3361.3809       204850       116443 
40980000   0.98435649  -0.53738408      1728000    3362.2523       204900       116468 
40990000    1.0417873  -0.54255753      1728000    3363.1054       204950       116495 
41000000   0.99575387  -0.50917009      1728000    3363.9813       205000       116525 
41010000   0.99904376   -0.4993046      1728000    3364.8043       205050       116555 
41020000    1.0478067  -0.51983919      1728000    3365.6373       205100       116584 
41030000    1.0032985  -0.51581266      1728000    3366.4533       205150       116608 
41040000   0.96562233  -0.49727583      1728000    3367.2633       205200       116630 
41050000    1.0422745  -0.47861187      1728000    3368.0733       205250       116662 
41060000    1.0074067  -0.46317567      1728000    3368.9005       205300       116690 
41070000    1.0941908  -0.45465631      1728000    3369.7083       205350       116716 
41080000   0.99922264  -0.48860424      1728000    3370.5174       205400       116748 
41090000    1.0143932  -0.48681223      1728000    3371.3192       205450       116781 
41100000   0.98564857  -0.46535755      1728000    3372.1424       205500       116802 
41110000    1.0140875  -0.46662693      1728000    3372.9681       205550       116824 
41120000    1.0574787  -0.46186302      1728000    3373.7953       205600       116855 
41130000   0.98808031  -0.45787503      1728000    3374.6333       205650       116879 
41140000    0.9786846  -0.43306379      1728000    3375.4673       205700       116905 
41150000   0.99896444  -0.44762029      1728000    3376.2833       205750       116935 
41160000    1.0489612  -0.46146073      1728000    3377.0994       205800       116964 
41170000     1.006259  -0.44461408      1728000    3377.9424       205850       116990 
41180000   0.99518154   -0.4561824      1728000    3378.7403       205900       117021 
41190000   0.98138393  -0.48020579      1728000    3379.5404       205950       117050 
41200000   0.94529802  -0.48323137      1728000    3380.3603       206000       117078 
41210000    1.0294634   -0.4752944      1728000    3381.1624       206050       117105 
41220000    1.0008058  -0.46358034      1728000    3381.9811       206100       117127 
41230000    1.0492335  -0.47113663      1728000    3382.8141       206150       117145 
41240000    1.0535521  -0.47237719      1728000    3383.6185       206200       117172 
41250000    1.0173065   -0.4750904      1728000    3384.4323       206250       117198 
41260000    1.0936962  -0.48604963      1728000    3385.2325       206300       117220 
41270000    1.0067016  -0.49655303      1728000    3386.0307       206350       117249 
41280000    1.0047371  -0.47609703      1728000    3386.8333       206400       117278 
41290000     1.076924  -0.48476297      1728000    3387.6584       206450       117302 
41300000    1.0194317  -0.47464508      1728000    3388.4694       206500       117329 
41310000    1.0264282  -0.47636381      1728000    3389.2852       206550       117359 
41320000   0.97017882   -0.5090374      1728000    3390.1003       206600       117387 
41330000   0.95684509  -0.45631846      1728000    3390.9181       206650       117405 
41340000    1.0236148  -0.44348213      1728000    3391.7143       206700       117432 
41350000      1.01716  -0.43960504      1728000     3392.517       206750       117457 
41360000    1.0591999  -0.39473964      1728000    3393.3203       206800       117488 
41370000   0.94655893  -0.42011829      1728000    3394.1541       206850       117512 
41380000    1.0000141  -0.43072995      1728000    3394.9732       206900       117536 
41390000    1.0627097  -0.42942945      1728000    3395.7862       206950       117565 
41400000   0.96148925  -0.39156819      1728000    3396.6022       207000       117591 
41410000   0.96737843  -0.40691445      1728000    3397.4074       207050       117624 
41420000    1.0009864   -0.4087248      1728000    3398.2244       207100       117662 
41430000   0.95279916  -0.40714392      1728000    3399.0232       207150       117688 
41440000    1.0238487  -0.40604724      1728000    3399.8198       207200       117718 
41450000    1.0631823  -0.39850891      1728000    3400.6213       207250       117747 
41460000   0.95041314  -0.39331656      1728000    3401.4232       207300       117780 
41470000    0.9746969  -0.41792663      1728000    3402.2213       207350       117812 
41480000   0.98982881  -0.41096892      1728000    3403.0194       207400       117845 
41490000    1.0515549  -0.41584664      1728000    3403.8219       207450       117875 
41500000   0.95620908  -0.43336956      1728000    3404.6502       207500       117899 
41510000    1.0043698  -0.41353929      1728000    3405.4619       207550       117927 
41520000    1.0008702   -0.4078387      1728000    3406.3015       207600       117963 
41530000    1.0298481  -0.39409814      1728000    3407.1327       207650       117991 
41540000    1.0266824   -0.4263235      1728000    3407.9406       207700       118015 
41550000    1.0446249  -0.41145928      1728000    3408.7574       207750       118047 
41560000    1.0799498  -0.40724506      1728000    3409.5661       207800       118073 
41570000    1.0080784  -0.38628554      1728000    3410.3874       207850       118103 
41580000    1.0036657  -0.37908978      1728000     3411.214       207900       118137 
41590000    1.0072717  -0.42183852      1728000    3412.0134       207950       118169 
41600000    1.0048452  -0.41564397      1728000    3412.8293       208000       118201 
41610000   0.98079101  -0.41719165      1728000    3413.6243       208050       118239 
41620000   0.97827559  -0.41603354      1728000    3414.4225       208100       118274 
41630000    0.9799141  -0.42777258      1728000    3415.2314       208150       118298 
41640000   0.98517709  -0.41419341      1728000    3416.0402       208200       118321 
41650000     1.014815  -0.45128668      1728000    3416.8454       208250       118347 
41660000   0.96097352  -0.41068692      1728000    3417.6704       208300       118378 
41670000   0.96757745  -0.40310693      1728000    3418.4733       208350       118406 
41680000    1.0286754  -0.41224467      1728000    3419.2714       208400       118430 
41690000   0.99826001   -0.3993541      1728000    3420.0655       208450       118457 
41700000    1.0169446  -0.41593743      1728000    3420.8735       208500       118490 
41710000    1.0110007  -0.41214217      1728000    3421.6813       208550       118520 
41720000    1.0100694  -0.42969021      1728000    3422.4894       208600       118549 
41730000    1.0045601  -0.43987425      1728000    3423.3025       208650       118579 
41740000    1.0459319  -0.41843395      1728000    3424.1092       208700       118617 
41750000   0.95966685  -0.42783231      1728000    3424.9223       208750       118649 
41760000   0.99900178  -0.42555413      1728000    3425.7243       208800       118675 
41770000    1.0363888  -0.45004563      1728000    3426.5424       208850       118705 
41780000   0.99329384  -0.44285953      1728000    3427.3654       208900       118730 
41790000   0.99299567  -0.43564967      1728000    3428.1913       208950       118758 
41800000    1.0241889  -0.46825553      1728000    3429.0196       209000       118785 
41810000   0.97104973  -0.44072617      1728000    3429.8503       209050       118817 
41820000    1.0839851  -0.42831345      1728000    3430.6627       209100       118846 
41830000   0.96498784  -0.44700215      1728000    3431.4756       209150       118875 
41840000   0.99977194  -0.47679908      1728000    3432.3062       209200       118905 
41850000   0.96456888   -0.4700002      1728000    3433.1362       209250       118932 
41860000    1.0375451  -0.49471538      1728000    3433.9691       209300       118961 
41870000    1.1105357  -0.49720564      1728000    3434.7984       209350       118992 
41880000   0.93115853  -0.45478849      1728000    3435.6164       209400       119020 
41890000    1.0321513  -0.47460358      1728000    3436.4364       209450       119044 
41900000    1.0250011  -0.46581216      1728000    3437.2613       209500       119070 
41910000   0.95904439  -0.45128408      1728000    3438.0738       209550       119094 
41920000   0.97231289  -0.44457357      1728000    3438.8824       209600       119125 
41930000     1.052083  -0.43508363      1728000    3439.6995       209650       119149 
41940000    0.9613744  -0.45600258      1728000    3440.5099       209700       119178 
41950000   0.98398308  -0.47679919      1728000    3441.3254       209750       119205 
41960000   0.95868061  -0.44716934      1728000    3442.1434       209800       119240 
41970000    1.0566748   -0.4398155      1728000    3442.9557       209850       119268 
41980000    1.0470197  -0.46133339      1728000    3443.7834       209900       119298 
41990000   0.96753284  -0.48617112      1728000    3444.6064       209950       119324 
42000000   0.99196718  -0.48552524      1728000    3445.4533       210000       119350 
42010000    1.0382512  -0.45190868      1728000    3446.2844       210050       119379 
42020000   0.96222194  -0.45971201      1728000    3447.1054       210100       119405 
42030000   0.94266326  -0.44692355      1728000    3447.9128       210150       119432 
42040000    1.0056602  -0.44399194      1728000    3448.7225       210200       119457 
42050000   0.98473292  -0.45850605      1728000    3449.5433       210250       119487 
42060000   0.93511633  -0.44219609      1728000    3450.3739       210300       119512 
42070000    1.0123801  -0.46542937      1728000    3451.2017       210350       119545 
42080000    1.0951062  -0.47358036      1728000    3452.0465       210400       119574 
42090000   0.99704305  -0.48774148      1728000    3452.8657       210450       119601 
42100000   0.96757933  -0.45802167      1728000    3453.6978       210500       119626 
42110000    1.0207618  -0.50780146      1728000    3454.5264       210550       119653 
42120000   0.97621813  -0.50252133      1728000    3455.3576       210600       119674 
42130000   0.93146328  -0.44254626      1728000    3456.1867       210650       119695 
42140000   0.92824546  -0.46205171      1728000    3457.0276       210700       119722 
42150000    1.0295837  -0.45027373      1728000    3457.8602       210750       119750 
42160000   0.96748107  -0.45008463      1728000    3458.6865       210800       119781 
42170000   0.99427501  -0.45650491      1728000    3459.5023       210850       119807 
42180000    1.0409798  -0.40705095      1728000    3460.3125       210900       119829 
42190000    1.0522342  -0.42918755      1728000    3461.1305       210950       119858 
42200000    1.0151019  -0.43324567      1728000    3461.9652       211000       119883 
42210000    1.0150329  -0.41611428      1728000    3462.7833       211050       119907 
42220000   0.95150286  -0.40934304      1728000    3463.6004       211100       119935 
42230000    1.0647039  -0.43449991      1728000    3464.4185       211150       119965 
42240000   0.96744646  -0.43845817      1728000    3465.2333       211200       119995 
42250000   0.96393353  -0.41961488      1728000    3466.0383       211250       120021 
42260000   0.98998795  -0.43953188      1728000    3466.8368       211300       120051 
42270000   0.97577615  -0.46102173      1728000    3467.6454       211350       120083 
42280000    1.0321162  -0.43016201      1728000    3468.4495       211400       120115 
42290000    1.0398224  -0.43771382      1728000    3469.2595       211450       120141 
42300000   0.99473227  -0.42954577      1728000    3470.0695       211500       120170 
42310000   0.97205193  -0.42273079      1728000    3470.8676       211550       120207 
42320000   0.99928293  -0.42456917      1728000    3471.6808       211600       120235 
42330000    1.0033007  -0.40431138      1728000    3472.4916       211650       120262 
42340000    1.0123418  -0.41996655      1728000    3473.2985       211700       120289 
42350000    1.0062649   -0.4079058      1728000    3474.1084       211750       120314 
42360000   0.97086771   -0.4352812      1728000    3474.9015       211800       120344 
42370000    1.0226985  -0.43696384      1728000    3475.7114       211850       120379 
42380000    1.0025874  -0.43147352      1728000    3476.5112       211900       120406 
42390000   0.99915752  -0.44505144      1728000    3477.3203       211950       120431 
42400000   0.99055443  -0.46477372      1728000    3478.1285       212000       120464 
42410000     0.993036  -0.42230103      1728000    3478.9446       212050       120487 
42420000   0.97292035  -0.42182935      1728000    3479.7493       212100       120514 
42430000   0.94422771  -0.42601167      1728000    3480.5454       212150       120553 
42440000   0.95710197  -0.40134954      1728000    3481.3469       212200       120577 
42450000   0.97926205  -0.42139445      1728000    3482.1453       212250       120602 
42460000   0.98351852  -0.43025797      1728000    3482.9709       212300       120631 
42470000   0.97121691  -0.42034564      1728000    3483.7844       212350       120664 
42480000    1.0901581  -0.42355556      1728000    3484.6063       212400       120688 
42490000   0.97364431  -0.40945615      1728000    3485.4207       212450       120721 
42500000    1.0512618  -0.43118519      1728000    3486.2275       212500       120752 
42510000    1.0156755  -0.47080039      1728000    3487.0354       212550       120782 
42520000   0.97915366  -0.43733409      1728000    3487.8514       212600       120809 
42530000   0.99295412  -0.47707836      1728000    3488.6775       212650       120833 
42540000     1.016287  -0.46988677      1728000    3489.5035       212700       120864 
42550000   0.94441501  -0.45228996      1728000    3490.3214       212750       120892 
42560000   0.93887474  -0.46966418      1728000    3491.1364       212800       120919 
42570000   0.98814715  -0.47292133      1728000    3491.9514       212850       120948 
42580000   0.93474297  -0.46689165      1728000    3492.7605       212900       120972 
42590000    1.0113692  -0.45056213      1728000    3493.6004       212950       120994 
42600000   0.96201459  -0.44171179      1728000    3494.4314       213000       121021 
42610000    1.0045343  -0.44317602      1728000    3495.2683       213050       121044 
42620000   0.98730847  -0.43835537      1728000    3496.0863       213100       121075 
42630000   0.95512532  -0.41094032      1728000    3496.9053       213150       121103 
42640000    1.0502447  -0.40840397      1728000    3497.7245       213200       121128 
42650000    1.0116795  -0.44085599      1728000    3498.5365       213250       121165 
42660000    1.0304823  -0.41083708      1728000    3499.3494       213300       121189 
42670000   0.93566949  -0.44093266      1728000     3500.159       213350       121217 
42680000   0.99921809  -0.42163711      1728000    3501.0181       213400       121248 
42690000    1.0134397  -0.42552942      1728000    3501.8343       213450       121283 
42700000   0.92302119  -0.39285758      1728000    3502.6413       213500       121310 
42710000    1.0734105  -0.40692617      1728000    3503.4517       213550       121332 
42720000    1.0609967  -0.41389929      1728000    3504.2655       213600       121359 
42730000    1.0329578  -0.39619414      1728000    3505.0624       213650       121383 
42740000    1.0121591  -0.41816792      1728000    3505.8655       213700       121411 
42750000   0.96743034  -0.38780003      1728000    3506.6586       213750       121444 
42760000   0.96763313  -0.42912492      1728000    3507.4565       213800       121480 
42770000    1.0135193  -0.41621776      1728000    3508.2626       213850       121507 
42780000   0.96853185  -0.44268586      1728000    3509.0676       213900       121532 
42790000    1.0390623  -0.41702239      1728000    3509.8813       213950       121561 
42800000   0.98435734  -0.43809889      1728000    3510.7024       214000       121587 
42810000   0.98792948  -0.38721299      1728000    3511.5125       214050       121615 
42820000   0.96082437  -0.41569124      1728000    3512.3266       214100       121649 
42830000   0.94689971  -0.41372535      1728000    3513.1456       214150       121676 
42840000   0.96064311  -0.41887887      1728000    3513.9554       214200       121706 
42850000   0.98735693  -0.45995352      1728000    3514.7635       214250       121734 
42860000    1.0331887  -0.44667473      1728000    3515.5784       214300       121759 
42870000   0.99348525  -0.43424292      1728000    3516.3956       214350       121787 
42880000   0.96832302  -0.45594628      1728000    3517.2252       214400       121818 
42890000   0.97071295  -0.42122243      1728000    3518.0505       214450       121850 
42900000   0.99177147  -0.42513962      1728000    3518.8795       214500       121880 
42910000    1.0195277  -0.44703241      1728000    3519.6995       214550       121907 
42920000    1.0387624  -0.40053089      1728000    3520.5174       214600       121940 
42930000    1.0476621  -0.41120175      1728000    3521.3306       214650       121971 
42940000    1.0073968  -0.42844286      1728000    3522.1355       214700       121994 
42950000    1.0209297  -0.43883258      1728000    3522.9604       214750       122020 
42960000   0.96752972   -0.4332239      1728000    3523.7708       214800       122054 
42970000    1.0065899  -0.40370153      1728000    3524.5764       214850       122077 
42980000   0.97320802  -0.41364246      1728000    3525.3849       214900       122103 
42990000   0.99730172  -0.43352308      1728000    3526.2012       214950       122131 
43000000   0.97107588  -0.42226801      1728000    3527.0346       215000       122155 
43010000    1.0171466  -0.41383376      1728000     3527.838       215050       122185 
43020000    1.0623279  -0.42765272      1728000    3528.6544       215100       122217 
43030000   0.99932553  -0.42905634      1728000    3529.4676       215150       122251 
43040000   0.95657585  -0.43056641      1728000    3530.2715       215200       122285 
43050000   0.99458037  -0.40585898      1728000    3531.0795       215250       122313 
43060000   0.96391469  -0.40589835      1728000    3531.8826       215300       122346 
43070000   0.97695037  -0.37583491      1728000    3532.6853       215350       122374 
43080000   0.92476572  -0.41013451      1728000    3533.4975       215400       122399 
43090000   0.94069946  -0.39069445      1728000    3534.3224       215450       122430 
43100000   0.98833033  -0.39344239      1728000    3535.1384       215500       122459 
43110000    1.0281631  -0.42659307      1728000    3535.9556       215550       122485 
43120000   0.94111508  -0.41657653      1728000    3536.7675       215600       122514 
43130000     1.002915  -0.40565731      1728000    3537.5775       215650       122549 
43140000   0.98753819  -0.41992801      1728000    3538.3753       215700       122575 
43150000    1.0428402  -0.43824913      1728000    3539.1995       215750       122599 
43160000    1.0514685  -0.44827321      1728000    3540.0206       215800       122630 
43170000   0.97640184  -0.43097881      1728000    3540.8353       215850       122656 
43180000   0.97546631  -0.44375902      1728000    3541.6454       215900       122685 
43190000    1.0739356   -0.4327602      1728000    3542.4534       215950       122715 
43200000    1.0483127  -0.41621267      1728000    3543.2626       216000       122744 
43210000    1.0329796  -0.41931759      1728000    3544.0686       216050       122773 
43220000    1.0265957  -0.42945083      1728000    3544.8755       216100       122806 
43230000   0.99868537  -0.45551438      1728000    3545.6906       216150       122834 
43240000   0.97107615  -0.44685164      1728000    3546.5136       216200       122863 
43250000    1.0275095  -0.43050863      1728000    3547.3401       216250       122890 
43260000    1.0275687  -0.40575812      1728000    3548.1585       216300       122920 
43270000    1.0022539  -0.42547098      1728000    3548.9626       216350       122950 
43280000    1.0418309  -0.41313671      1728000    3549.7714       216400       122987 
43290000    1.0302458  -0.39938882      1728000    3550.5775       216450       123018 
43300000    1.0274026   -0.4297327      1728000    3551.4108       216500       123050 
43310000    1.0419582  -0.42897549      1728000    3552.2334       216550       123080 
43320000     1.033986  -0.41893858      1728000    3553.0465       216600       123106 
43330000   0.98001709  -0.40634716      1728000    3553.8446       216650       123136 
43340000    1.0165361  -0.46856711      1728000    3554.6473       216700       123172 
43350000    0.9745512  -0.44955811      1728000    3555.4496       216750       123204 
43360000   0.97609299  -0.42316494      1728000    3556.2615       216800       123236 
43370000   0.94885106  -0.44243962      1728000    3557.0776       216850       123267 
43380000    0.9728005  -0.43155746      1728000    3557.8865       216900       123304 
43390000      1.01503  -0.43230805      1728000    3558.6896       216950       123337 
43400000    0.9734884  -0.41534871      1728000    3559.4892       217000       123364 
43410000   0.99006881  -0.41939487      1728000    3560.3081       217050       123395 
43420000    1.0321444  -0.43160796      1728000    3561.1046       217100       123428 
43430000   0.99993224   -0.4195338      1728000    3561.9375       217150       123452 
43440000    1.0343297  -0.42772858      1728000    3562.7456       217200       123487 
43450000    1.0534839  -0.44000761      1728000    3563.5604       217250       123517 
43460000    0.9978612  -0.41976208      1728000    3564.3776       217300       123552 
43470000   0.97043972  -0.40521439      1728000    3565.1758       217350       123584 
43480000   0.94916263  -0.39713817      1728000    3565.9879       217400       123615 
43490000   0.94500736  -0.41434886      1728000    3566.7994       217450       123644 
43500000   0.98250818  -0.41433163      1728000    3567.6434       217500       123669 
43510000     1.003989  -0.43063605      1728000    3568.4605       217550       123695 
43520000    1.0572675  -0.44370042      1728000    3569.2954       217600       123723 
43530000     1.012739  -0.44817088      1728000    3570.1335       217650       123748 
43540000    1.0512566  -0.44087182      1728000    3570.9552       217700       123775 
43550000    1.0319545  -0.46910792      1728000    3571.7983       217750       123803 
43560000     1.055383  -0.45051871      1728000    3572.6523       217800       123832 
43570000   0.99418985  -0.45420355      1728000    3573.5314       217850       123866 
43580000    1.0229054  -0.44790554      1728000    3574.3406       217900       123895 
43590000   0.98039369  -0.45209761      1728000    3575.1525       217950       123917 
43600000   0.95410816  -0.46300274      1728000    3575.9839       218000       123946 
43610000    1.0373411  -0.45543851      1728000    3576.8429       218050       123970 
43620000   0.99584971  -0.44576577      1728000    3577.6604       218100       123999 
43630000    1.0581319  -0.45995185      1728000    3578.4699       218150       124025 
43640000    1.0038116  -0.43854936      1728000    3579.2773       218200       124052 
43650000   0.98256673  -0.43438002      1728000    3580.0985       218250       124076 
43660000    1.0004573  -0.46946329      1728000    3580.9253       218300       124106 
43670000   0.96881346  -0.47468374      1728000    3581.7606       218350       124138 
43680000   0.99586701  -0.47737145      1728000    3582.5756       218400       124164 
43690000   0.98103701  -0.40746605      1728000    3583.3735       218450       124192 
43700000   0.95989093  -0.41439195      1728000    3584.1875       218500       124225 
43710000    1.0342809  -0.42638887      1728000    3584.9923       218550       124257 
43720000    1.0208853  -0.43980895      1728000    3585.7995       218600       124286 
43730000    1.0236662  -0.45855514      1728000    3586.6086       218650       124315 
43740000    1.0016471   -0.4639855      1728000    3587.4275       218700       124340 
43750000   0.94779285   -0.4829576      1728000    3588.2404       218750       124369 
43760000    1.0190416  -0.45716476      1728000    3589.0636       218800       124397 
43770000   0.96909345  -0.46733947      1728000    3589.8785       218850       124426 
43780000   0.97959517  -0.44364435      1728000    3590.6966       218900       124457 
43790000   0.96429612  -0.43638527      1728000    3591.5186       218950       124482 
43800000   0.98854761  -0.47399614      1728000    3592.3606       219000       124506 
43810000    1.0477422  -0.47329671      1728000    3593.1806       219050       124529 
43820000    1.0687267   -0.4621077      1728000    3594.0045       219100       124553 
43830000   0.99411719  -0.43286581      1728000    3594.8175       219150       124578 
43840000    1.0763412  -0.46787808      1728000    3595.6416       219200       124609 
43850000    1.1051155  -0.45888633      1728000    3596.4557       219250       124639 
43860000    1.0020825  -0.43661125      1728000    3597.2675       219300       124667 
43870000    1.0217537  -0.47065439      1728000    3598.0834       219350       124694 
43880000    1.0169902  -0.46940295      1728000    3598.9244       219400       124723 
43890000   0.95893246  -0.43955251      1728000    3599.7476       219450       124749 
43900000   0.98283847  -0.44701311      1728000    3600.5825       219500       124778 
43910000   0.96045044   -0.4411234      1728000    3601.3812       219550       124809 
43920000   0.96429881  -0.43440603      1728000    3602.1884       219600       124839 
43930000   0.97677728  -0.44349544      1728000    3603.0088       219650       124871 
43940000   0.98013811  -0.43141567      1728000    3603.8209       219700       124896 
43950000    1.0206604  -0.46142561      1728000    3604.6469       219750       124927 
43960000   0.99276666  -0.41443243      1728000    3605.4792       219800       124949 
43970000    1.0541408  -0.42346211      1728000     3606.294       219850       124975 
43980000   0.97871953  -0.43834873      1728000    3607.1175       219900       125008 
43990000   0.91033198  -0.44955501      1728000     3607.942       219950       125028 
44000000   0.97318068  -0.46403767      1728000    3608.7938       220000       125057 
44010000   0.94079822    -0.469627      1728000    3609.6116       220050       125081 
44020000     1.004797  -0.49000028      1728000    3610.4318       220100       125101 
44030000    1.0194866  -0.43990452      1728000    3611.2396       220150       125135 
44040000    1.0346589  -0.45531399      1728000    3612.0438       220200       125166 
44050000    1.0074937  -0.42625439      1728000    3612.9051       220250       125197 
44060000    1.0203071  -0.44406393      1728000    3613.7343       220300       125225 
44070000    1.0328882  -0.48064191      1728000    3614.5727       220350       125251 
44080000    1.0137439  -0.47980031      1728000    3615.3932       220400       125279 
44090000    1.0497251   -0.4654198      1728000    3616.2107       220450       125304 
44100000   0.98878543    -0.433501      1728000    3617.0507       220500       125323 
44110000   0.97424204  -0.45800289      1728000    3617.8876       220550       125354 
44120000   0.97525176  -0.42220489      1728000    3618.7195       220600       125385 
44130000    1.0410719  -0.45455861      1728000    3619.5374       220650       125416 
44140000   0.99373833  -0.47691145      1728000    3620.3748       220700       125448 
44150000   0.98445062  -0.45550125      1728000    3621.1954       220750       125474 
44160000   0.96953913  -0.46128059      1728000    3622.0116       220800       125502 
44170000      1.06055  -0.46289833      1728000    3622.8257       220850       125532 
44180000    1.0731575  -0.42469942      1728000    3623.6497       220900       125566 
44190000   0.99422825  -0.43453297      1728000    3624.4656       220950       125598 
44200000    1.0769602  -0.41114504      1728000    3625.2976       221000       125626 
44210000   0.99286669  -0.43776787      1728000    3626.1335       221050       125653 
44220000   0.96770082  -0.42524884      1728000    3626.9826       221100       125678 
44230000    0.9410949  -0.39459267      1728000    3627.8003       221150       125712 
44240000     1.008677  -0.40433855      1728000    3628.6225       221200       125745 
44250000    1.0444465  -0.38078293      1728000    3629.4308       221250       125776 
44260000    1.0247836  -0.39984633      1728000     3630.242       221300       125804 
44270000    1.0451564  -0.40388018      1728000    3631.0649       221350       125836 
44280000    1.0357869  -0.38314143      1728000    3631.8842       221400       125871 
44290000    1.0297024  -0.42590815      1728000    3632.7345       221450       125901 
44300000   0.97782774  -0.42309206      1728000    3633.5456       221500       125934 
44310000    1.0186374   -0.4224026      1728000    3634.3586       221550       125965 
44320000    1.0124316  -0.41394301      1728000    3635.1704       221600       125999 
44330000    1.0789415  -0.44603972      1728000    3635.9956       221650       126028 
44340000    1.0420501  -0.44327552      1728000    3636.8236       221700       126051 
44350000   0.96466744   -0.4474263      1728000    3637.6636       221750       126080 
44360000   0.98258405  -0.41426391      1728000    3638.4896       221800       126111 
44370000   0.99878443  -0.42970729      1728000    3639.3484       221850       126141 
44380000    1.0126029  -0.41423926      1728000    3640.1992       221900       126168 
44390000    1.0390757  -0.43636174      1728000    3641.0296       221950       126199 
44400000    1.0464132  -0.43844453      1728000    3641.8776       222000       126225 
44410000   0.96336748  -0.43547425      1728000    3642.7297       222050       126255 
44420000   0.95499107  -0.40845154      1728000    3643.5395       222100       126292 
44430000   0.95313626  -0.41038489      1728000    3644.3575       222150       126320 
44440000     1.060989   -0.4160065      1728000    3645.1757       222200       126354 
44450000   0.93802683  -0.41054723      1728000    3645.9907       222250       126379 
44460000    1.0201027  -0.41285823      1728000    3646.8547       222300       126411 
44470000   0.97836337   -0.4070557      1728000    3647.6867       222350       126438 
44480000     1.050057  -0.40042074      1728000    3648.5037       222400       126468 
44490000    0.9895891  -0.40171991      1728000    3649.3389       222450       126498 
44500000    1.0344519  -0.41120938      1728000    3650.1756       222500       126526 
44510000   0.93040043  -0.40492486      1728000    3650.9996       222550       126549 
44520000    1.0260429  -0.41016901      1728000    3651.8295       222600       126581 
44530000    1.0683431  -0.42737167      1728000    3652.6575       222650       126609 
44540000    1.0506458  -0.42699269      1728000    3653.5015       222700       126636 
44550000     1.001622  -0.44275377      1728000    3654.3076       222750       126664 
44560000     1.041483  -0.46016023      1728000    3655.1227       222800       126691 
44570000    1.0465833  -0.45858373      1728000    3655.9568       222850       126718 
44580000    1.0098431  -0.46175911      1728000    3656.7794       222900       126748 
44590000     1.017444  -0.48944991      1728000    3657.6054       222950       126779 
44600000    1.0692387  -0.45172723      1728000    3658.4315       223000       126804 
44610000    1.0552262  -0.47796852      1728000    3659.2397       223050       126834 
44620000   0.98386107  -0.46906301      1728000    3660.0658       223100       126864 
44630000    0.9832987  -0.46884776      1728000    3660.8837       223150       126887 
44640000    1.0268871  -0.45631408      1728000    3661.7207       223200       126911 
44650000    1.0065297  -0.46160299      1728000    3662.5479       223250       126937 
44660000   0.96958718  -0.47070104      1728000    3663.3638       223300       126968 
44670000   0.97932818  -0.48736755      1728000    3664.1906       223350       126994 
44680000   0.98188751  -0.46079327      1728000    3665.0216       223400       127027 
44690000   0.99140187  -0.45321174      1728000    3665.8526       223450       127054 
44700000     1.000593  -0.45855604      1728000    3666.6965       223500       127088 
44710000    1.0316698  -0.45933427      1728000    3667.5186       223550       127112 
44720000   0.97314787  -0.44326254      1728000    3668.3405       223600       127140 
44730000    1.0534428  -0.43506924      1728000    3669.1567       223650       127167 
44740000   0.96069786  -0.42300291      1728000    3669.9676       223700       127199 
44750000   0.99514763  -0.41240469      1728000    3670.7862       223750       127227 
44760000    1.0376102  -0.42280956      1728000    3671.6117       223800       127253 
44770000    1.0500259  -0.39915523      1728000    3672.4406       223850       127281 
44780000    1.0013527  -0.42745519      1728000    3673.2727       223900       127312 
44790000    1.0235075   -0.4130146      1728000    3674.1085       223950       127344 
44800000   0.97449132  -0.43831989      1728000    3674.9386       224000       127376 
44810000    0.9168775  -0.44455333      1728000    3675.7734       224050       127407 
44820000    1.0315548  -0.45252245      1728000    3676.6123       224100       127431 
44830000    1.0179066  -0.44776874      1728000    3677.4476       224150       127460 
44840000    1.0037653  -0.46304171      1728000    3678.2917       224200       127490 
44850000    1.0072896  -0.45833193      1728000    3679.1065       224250       127514 
44860000   0.96063487  -0.44678386      1728000    3679.9273       224300       127545 
44870000    1.0430809  -0.45712378      1728000     3680.771       224350       127574 
44880000    1.0438946  -0.48132787      1728000    3681.6045       224400       127603 
44890000    1.0832687  -0.52716363      1728000    3682.4337       224450       127631 
44900000    1.0052831  -0.47755814      1728000     3683.267       224500       127654 
44910000    1.0789328  -0.49311879      1728000    3684.0766       224550       127683 
44920000    1.0369972  -0.46306046      1728000    3684.8963       224600       127713 
44930000    1.0203826  -0.46812275      1728000    3685.7109       224650       127740 
44940000    1.0013457  -0.45520751      1728000    3686.5241       224700       127764 
44950000   0.97647771  -0.46708661      1728000    3687.3396       224750       127793 
44960000   0.97576501  -0.47906556      1728000    3688.1467       224800       127821 
44970000   0.97576338  -0.48890837      1728000    3688.9696       224850       127851 
44980000    1.0469887  -0.46395273      1728000    3689.7926       224900       127877 
44990000   0.97585437  -0.44381291      1728000    3690.6149       224950       127901 
45000000    1.0228647  -0.44050524      1728000    3691.4417       225000       127936 
45010000    1.0109801  -0.44601694      1728000    3692.2576       225050       127964 
45020000   0.99498776  -0.45743857      1728000    3693.0747       225100       127996 
45030000     0.960288  -0.48233661      1728000    3693.8987       225150       128023 
45040000    0.9545888  -0.46485319      1728000    3694.7147       225200       128043 
45050000   0.97456376  -0.51596475      1728000    3695.5327       225250       128067 
45060000   0.99294371  -0.48550482      1728000    3696.3596       225300       128087 
45070000   0.99021131  -0.48357735      1728000    3697.1986       225350       128114 
45080000    1.0142869  -0.45817965      1728000    3698.0087       225400       128142 
45090000   0.99704268  -0.47211378      1728000    3698.8327       225450       128168 
45100000   0.92847633  -0.46880797      1728000    3699.6605       225500       128197 
45110000   0.99700217  -0.50326442      1728000    3700.4758       225550       128225 
45120000   0.91291795  -0.51691127      1728000    3701.2978       225600       128249 
45130000   0.94280007  -0.49394144      1728000    3702.1287       225650       128282 
45140000   0.99865707  -0.52153447      1728000    3702.9597       225700       128308 
45150000    1.0063852  -0.49217974      1728000    3703.8028       225750       128333 
45160000   0.99617734   -0.5302009      1728000    3704.6582       225800       128365 
45170000   0.96188566   -0.4712624      1728000    3705.4936       225850       128387 
45180000    0.9806091  -0.43309649      1728000    3706.3187       225900       128415 
45190000   0.99940181  -0.42065071      1728000    3707.1398       225950       128444 
45200000    1.0001883  -0.44664486      1728000    3707.9614       226000       128474 
45210000    1.0050523  -0.44896136      1728000    3708.7908       226050       128502 
45220000    1.0483404   -0.4533204      1728000     3709.649       226100       128527 
45230000   0.95197284  -0.46272675      1728000    3710.5038       226150       128555 
45240000    1.0052182  -0.45702256      1728000     3711.344       226200       128586 
45250000    1.0454897  -0.44575704      1728000    3712.1815       226250       128609 
45260000   0.96266075   -0.4092408      1728000    3713.0046       226300       128640 
45270000   0.97935977  -0.39769158      1728000    3713.8288       226350       128669 
45280000    1.0146168  -0.44135119      1728000    3714.6521       226400       128697 
45290000    1.0527507  -0.41681074      1728000    3715.4898       226450       128724 
45300000   0.99555978   -0.4113516      1728000    3716.3249       226500       128755 
45310000   0.98194078  -0.41955965      1728000     3717.154       226550       128782 
45320000   0.92971415  -0.41882626      1728000    3717.9904       226600       128806 
45330000    0.9544754  -0.39287512      1728000    3718.8166       226650       128837 
45340000    1.0374805  -0.39408709      1728000    3719.6209       226700       128866 
45350000   0.98789483  -0.41783794      1728000     3720.433       226750       128898 
45360000    0.9405825  -0.42661593      1728000    3721.2454       226800       128923 
45370000    1.0531819  -0.41963909      1728000    3722.0545       226850       128955 
45380000   0.98562253  -0.43365783      1728000    3722.8962       226900       128987 
45390000   0.96888269   -0.4152376      1728000    3723.7176       226950       129014 
45400000    1.0285575  -0.42120149      1728000    3724.5397       227000       129044 
45410000    1.0173802  -0.42393909      1728000    3725.3721       227050       129073 
45420000    1.0421192   -0.4460204      1728000    3726.2463       227100       129103 
45430000   0.94452488   -0.4439647      1728000    3727.1006       227150       129128 
45440000     1.036184  -0.44838498      1728000    3727.9518       227200       129154 
45450000   0.97149065   -0.4567536      1728000    3728.7736       227250       129184 
45460000    0.9714882  -0.42766367      1728000    3729.5918       227300       129216 
45470000    1.0463809  -0.44175498      1728000    3730.4487       227350       129244 
45480000    1.0444363  -0.42927896      1728000    3731.2621       227400       129276 
45490000    1.0348751  -0.44206801      1728000     3732.097       227450       129305 
45500000    0.9522532  -0.46890446      1728000    3732.9325       227500       129334 
45510000    1.0253023  -0.42159691      1728000    3733.7598       227550       129362 
45520000    1.0261171  -0.43354726      1728000    3734.5966       227600       129392 
45530000   0.95396695  -0.44865083      1728000    3735.4198       227650       129422 
45540000    1.0073823  -0.46840433      1728000     3736.238       227700       129461 
45550000   0.99787945  -0.48751691      1728000     3737.083       227750       129486 
45560000    1.0061417  -0.43914498      1728000    3737.8876       227800       129520 
45570000    1.0387656  -0.41962885      1728000    3738.6919       227850       129552 
45580000   0.94537198  -0.44687208      1728000    3739.4989       227900       129580 
45590000   0.97988405  -0.40498099      1728000    3740.3018       227950       129611 
45600000    1.0814753  -0.40462197      1728000    3741.1118       228000       129640 
45610000    1.0244371   -0.4094353      1728000    3741.9376       228050       129673 
45620000   0.96084023  -0.41786713      1728000    3742.7469       228100       129702 
45630000    1.0212532  -0.39177855      1728000    3743.5899       228150       129735 
45640000     1.057204  -0.42704555      1728000      3744.42       228200       129769 
45650000   0.93714492  -0.43879728      1728000    3745.2697       228250       129797 
45660000    1.0141428  -0.41475788      1728000    3746.0939       228300       129829 
45670000   0.97989156  -0.45024593      1728000    3746.9338       228350       129856 
45680000    1.0084766  -0.45126064      1728000    3747.7488       228400       129885 
45690000    1.0556376  -0.46046405      1728000    3748.5607       228450       129914 
45700000    1.0053669  -0.46094141      1728000    3749.4007       228500       129944 
45710000   0.99767538  -0.45623117      1728000    3750.2459       228550       129971 
45720000   0.95567902  -0.43279856      1728000    3751.0776       228600       130002 
45730000   0.93346228  -0.45770097      1728000    3751.9148       228650       130037 
45740000   0.93220692  -0.48602744      1728000    3752.7279       228700       130059 
45750000   0.92805528  -0.43997071      1728000    3753.5753       228750       130081 
45760000   0.99665374  -0.43745601      1728000    3754.4057       228800       130108 
45770000    0.9971959  -0.45179412      1728000    3755.2239       228850       130134 
45780000    1.0173925  -0.43372516      1728000    3756.0311       228900       130160 
45790000    1.0299647  -0.45698501      1728000    3756.8502       228950       130192 
45800000    1.0327551  -0.44479401      1728000    3757.6796       229000       130221 
45810000    1.0166524  -0.44349115      1728000    3758.4888       229050       130250 
45820000   0.99525469  -0.44517327      1728000    3759.2937       229100       130279 
45830000     1.003128  -0.44666861      1728000    3760.0914       229150       130310 
45840000   0.99330671  -0.44086514      1728000    3760.9177       229200       130339 
45850000    1.0244345   -0.4279998      1728000    3761.7229       229250       130367 
45860000    1.0079397  -0.45765962      1728000    3762.5401       229300       130393 
45870000   0.99092851   -0.4664062      1728000    3763.3629       229350       130418 
45880000    1.0092657  -0.44320903      1728000    3764.1844       229400       130447 
45890000    1.0227679  -0.44542272      1728000    3765.0151       229450       130478 
45900000   0.97540424  -0.43698668      1728000    3765.8393       229500       130507 
45910000   0.98203863   -0.4327451      1728000    3766.6606       229550       130540 
45920000    1.0104976  -0.42221764      1728000    3767.4989       229600       130565 
45930000   0.96191326   -0.3993282      1728000    3768.3047       229650       130592 
45940000   0.98051862  -0.40166456      1728000      3769.12       229700       130619 
45950000   0.96501137  -0.43695552      1728000    3769.9292       229750       130653 
45960000   0.97809655  -0.43128731      1728000    3770.7622       229800       130686 
45970000    1.0282864  -0.41288627      1728000    3771.5925       229850       130710 
45980000    0.9731586  -0.43576785      1728000    3772.4327       229900       130735 
45990000    1.0072942  -0.46338231      1728000    3773.2689       229950       130765 
46000000   0.99782391  -0.44703864      1728000    3774.1097       230000       130793 
46010000    1.0495074  -0.39865052      1728000     3774.927       230050       130819 
46020000    1.0488207  -0.41090698      1728000    3775.7557       230100       130850 
46030000    1.0021874  -0.40723881      1728000     3776.589       230150       130874 
46040000   0.96649311  -0.39755816      1728000    3777.4126       230200       130905 
46050000   0.97885909  -0.40050187      1728000    3778.2227       230250       130942 
46060000   0.93870358  -0.40275009      1728000    3779.0327       230300       130978 
46070000    1.0375147  -0.39046778      1728000    3779.8517       230350       131009 
46080000    1.0426704  -0.39906915      1728000    3780.6749       230400       131041 
46090000   0.96198684  -0.39797248      1728000    3781.4917       230450       131076 
46100000    1.0850921   -0.4026717      1728000    3782.3127       230500       131105 
46110000    0.9742867  -0.40745322      1728000    3783.1188       230550       131136 
46120000   0.96971582   -0.3851674      1728000    3783.9261       230600       131171 
46130000    0.9638242  -0.42558354      1728000     3784.758       230650       131203 
46140000    1.0034341   -0.4088327      1728000    3785.5842       230700       131230 
46150000    1.0325731  -0.41555699      1728000    3786.4047       230750       131260 
46160000    1.0257863  -0.39285107      1728000    3787.2413       230800       131288 
46170000   0.97945296  -0.39146797      1728000    3788.0469       230850       131315 
46180000    1.0437272  -0.41474017      1728000     3788.847       230900       131344 
46190000    1.0798443  -0.40093055      1728000      3789.65       230950       131373 
46200000   0.94740998  -0.38548838      1728000    3790.4709       231000       131410 
46210000    1.0424757  -0.39585851      1728000    3791.2817       231050       131439 
46220000   0.96209777  -0.39448636      1728000    3792.0956       231100       131472 
46230000   0.98109987  -0.38310491      1728000    3792.9058       231150       131502 
46240000   0.94467611   -0.3784824      1728000     3793.716       231200       131524 
46250000   0.97014194  -0.42651207      1728000    3794.5279       231250       131559 
46260000   0.99771899  -0.38024872      1728000    3795.3438       231300       131579 
46270000   0.91436854  -0.42188374      1728000    3796.1555       231350       131607 
46280000     1.009294  -0.39658265      1728000    3796.9798       231400       131635 
46290000   0.99941574  -0.38641526      1728000    3797.8152       231450       131666 
46300000    1.0482618  -0.41108246      1728000    3798.6298       231500       131701 
46310000    1.0598126  -0.40207042      1728000    3799.4527       231550       131726 
46320000    1.0219168  -0.39473111      1728000    3800.2728       231600       131753 
46330000    1.0059038   -0.4040549      1728000    3801.0781       231650       131785 
46340000    1.0257676  -0.39992429      1728000    3801.8883       231700       131818 
46350000    1.0156147  -0.42346778      1728000    3802.6962       231750       131847 
46360000    0.9710486  -0.44750847      1728000    3803.5212       231800       131872 
46370000    1.0023834   -0.4156548      1728000    3804.3402       231850       131901 
46380000   0.99560689  -0.44148607      1728000     3805.148       231900       131931 
46390000    1.0285999  -0.44143273      1728000    3805.9591       231950       131961 
46400000   0.96158208  -0.45100626      1728000    3806.7832       232000       131987 
46410000    1.0223264  -0.42721044      1728000    3807.6104       232050       132016 
46420000    1.0109559  -0.42636171      1728000    3808.4359       232100       132040 
46430000   0.99719333  -0.47839348      1728000    3809.2581       232150       132069 
46440000    1.0039242  -0.45186065      1728000    3810.0859       232200       132094 
46450000    1.0331931  -0.46244921      1728000     3810.916       232250       132128 
46460000    1.0449537  -0.43832338      1728000      3811.75       232300       132158 
46470000     1.026922  -0.44685999      1728000     3812.572       232350       132188 
46480000    1.0206709  -0.46502824      1728000    3813.3971       232400       132220 
46490000   0.99180297  -0.46026454      1728000    3814.2108       232450       132251 
46500000    1.0523169  -0.46990899      1728000    3815.0499       232500       132281 
46510000   0.92473237  -0.45389202      1728000    3815.8738       232550       132308 
46520000    1.0126736  -0.46558971      1728000     3816.695       232600       132339 
46530000    1.0367301  -0.48747274      1728000    3817.5138       232650       132364 
46540000   0.94019294   -0.4753817      1728000     3818.336       232700       132390 
46550000    1.0366009  -0.47436474      1728000    3819.1589       232750       132414 
46560000    1.0315347  -0.47537799      1728000    3819.9759       232800       132444 
46570000   0.94727996  -0.46352908      1728000     3820.832       232850       132468 
46580000    1.0236188  -0.45106635      1728000     3821.658       232900       132492 
46590000   0.98144872  -0.48716765      1728000    3822.4748       232950       132525 
46600000   0.96046893  -0.50517991      1728000    3823.3218       233000       132551 
46610000   0.98713583  -0.50382683      1728000    3824.1929       233050       132577 
46620000    1.0319718   -0.4710143      1728000     3825.022       233100       132609 
46630000   0.98207697  -0.50207538      1728000    3825.8571       233150       132633 
46640000    1.0009817  -0.47747299      1728000     3826.683       233200       132666 
46650000    1.0581332  -0.45575453      1728000     3827.506       233250       132697 
46660000    1.0083767  -0.46535111      1728000    3828.3537       233300       132724 
46670000    1.0102262  -0.45571686      1728000    3829.1965       233350       132745 
46680000   0.95706169  -0.41599655      1728000    3830.0359       233400       132771 
46690000    0.9839255  -0.42017777      1728000    3830.8509       233450       132806 
46700000    1.0714914   -0.4646768      1728000    3831.6837       233500       132832 
46710000    1.0130298  -0.42753303      1728000     3832.518       233550       132862 
46720000    1.0171772  -0.45252386      1728000    3833.3428       233600       132893 
46730000   0.99272958  -0.42565237      1728000    3834.1829       233650       132915 
46740000    0.9553891  -0.42407697      1728000    3835.0188       233700       132945 
46750000    1.0046927  -0.41363924      1728000    3835.8541       233750       132975 
46760000    1.0399801   -0.4118132      1728000    3836.6741       233800       133006 
46770000    1.0422532  -0.41995743      1728000    3837.4797       233850       133039 
46780000     1.065312  -0.42785833      1728000     3838.289       233900       133071 
46790000   0.96626445  -0.46556962      1728000    3839.0972       233950       133091 
46800000      1.06305   -0.4253492      1728000    3839.9254       234000       133119 
46810000   0.98203605  -0.44933487      1728000    3840.7353       234050       133148 
46820000    1.0476603  -0.43522293      1728000     3841.539       234100       133175 
46830000    0.9406883  -0.44873503      1728000    3842.3585       234150       133203 
46840000   0.96727992  -0.41610851      1728000    3843.1722       234200       133235 
46850000   0.98363403  -0.39971265      1728000    3843.9916       234250       133273 
46860000     1.024056  -0.36899869      1728000    3844.8018       234300       133305 
46870000   0.96555281  -0.41194549      1728000    3845.6111       234350       133335 
46880000    1.0566833   -0.4105171      1728000    3846.4259       234400       133366 
46890000   0.95967405  -0.44790958      1728000    3847.2331       234450       133395 
46900000   0.95279715  -0.42204403      1728000    3848.0631       234500       133421 
46910000    1.0448477  -0.40898492      1728000    3848.8798       234550       133450 
46920000    1.0056222  -0.40596531      1728000    3849.6892       234600       133480 
46930000   0.98056116  -0.43664153      1728000    3850.5097       234650       133511 
46940000    1.0321092  -0.45846023      1728000     3851.328       234700       133542 
46950000    1.0403668   -0.4336138      1728000    3852.1481       234750       133573 
46960000   0.99894311  -0.45472953      1728000     3852.956       234800       133604 
46970000   0.95851119  -0.45440156      1728000    3853.7693       234850       133633 
46980000   0.97929873  -0.45119542      1728000    3854.5852       234900       133661 
46990000   0.92418969  -0.43464467      1728000     3855.388       234950       133689 
47000000    0.9562485  -0.43679001      1728000    3856.2148       235000       133712 
47010000   0.98760333   -0.4569221      1728000    3857.0366       235050       133735 
47020000    1.0120856  -0.42957847      1728000    3857.8648       235100       133764 
47030000   0.98777369  -0.44603253      1728000    3858.6729       235150       133794 
47040000    1.0242382  -0.43722324      1728000    3859.4773       235200       133824 
47050000    1.0261198   -0.4570193      1728000       3860.3       235250       133852 
47060000    1.0063538  -0.46404351      1728000    3861.1229       235300       133878 
47070000    0.9752493  -0.49716273      1728000    3861.9438       235350       133911 
47080000   0.94718786  -0.49581672      1728000    3862.7629       235400       133936 
47090000   0.99701129  -0.47744849      1728000    3863.5879       235450       133963 
47100000    1.0780601  -0.50194674      1728000    3864.4179       235500       133981 
47110000    1.0002239  -0.48204251      1728000    3865.2449       235550       134008 
47120000    1.0370138  -0.48875573      1728000    3866.0918       235600       134036 
47130000    1.0255568  -0.46161421      1728000    3866.9258       235650       134065 
47140000    1.0765327  -0.44584859      1728000    3867.7648       235700       134092 
47150000   0.95377775  -0.44271735      1728000    3868.5777       235750       134120 
47160000   0.97520244   -0.4418787      1728000    3869.3917       235800       134150 
47170000   0.98017615  -0.45795699      1728000    3870.1998       235850       134181 
47180000     1.011107   -0.4399354      1728000    3871.0059       235900       134208 
47190000    1.0626644  -0.43651809      1728000    3871.8285       235950       134239 
47200000     1.006858  -0.43582569      1728000    3872.6588       236000       134268 
47210000      1.03918  -0.42472471      1728000    3873.4827       236050       134296 
47220000   0.93209066  -0.41604351      1728000    3874.2888       236100       134329 
47230000    1.0070354  -0.43167598      1728000    3875.0879       236150       134358 
47240000   0.97665605  -0.41640458      1728000    3875.9037       236200       134385 
47250000    1.0615064  -0.46025108      1728000    3876.8078       236250       134412 
47260000    1.0329612  -0.46203309      1728000    3877.6464       236300       134442 
47270000   0.98225107  -0.41996278      1728000    3878.4428       236350       134471 
47280000    1.0424293  -0.47299103      1728000     3879.287       236400       134502 
47290000    1.1060895  -0.43695599      1728000    3880.1325       236450       134528 
47300000     1.001237  -0.44609886      1728000    3881.0759       236500       134557 
47310000    1.0349758  -0.46582055      1728000    3881.9166       236550       134587 
47320000   0.98201916  -0.43607303      1728000    3882.7269       236600       134616 
47330000    1.0528023  -0.44607134      1728000    3883.5227       236650       134649 
47340000    1.0388152  -0.41735264      1728000    3884.3159       236700       134675 
47350000   0.96421242   -0.4230675      1728000    3885.1169       236750       134697 
47360000    1.0197376  -0.45714447      1728000    3885.9338       236800       134727 
47370000    1.1279775  -0.45314116      1728000    3886.7699       236850       134755 
47380000    1.0248813  -0.43674441      1728000    3887.5837       236900       134787 
47390000    1.0297438  -0.44001157      1728000    3888.3969       236950       134813 
47400000      1.03406  -0.44679305      1728000    3889.2267       237000       134839 
47410000   0.97189628  -0.43981192      1728000    3890.0759       237050       134862 
47420000    1.0767146  -0.45053645      1728000    3890.9039       237100       134887 
47430000    1.0206268  -0.45130257      1728000    3891.7169       237150       134912 
47440000    1.0269102  -0.44142691      1728000    3892.5507       237200       134943 
47450000   0.94244466  -0.44370406      1728000    3893.3659       237250       134973 
47460000   0.94303308  -0.48591382      1728000    3894.1788       237300       134998 
47470000   0.98153957  -0.47148394      1728000    3894.9949       237350       135035 
47480000    1.0672112  -0.46896252      1728000     3895.834       237400       135068 
47490000    0.9561294  -0.44874804      1728000    3896.6657       237450       135099 
47500000   0.96764116  -0.47899699      1728000    3897.4921       237500       135128 
47510000   0.95269019  -0.48906946      1728000    3898.3349       237550       135152 
47520000    1.0307614  -0.48025641      1728000    3899.1816       237600       135179 
47530000    1.0036902  -0.47026916      1728000    3900.0199       237650       135205 
47540000   0.99307347  -0.48260739      1728000    3900.8515       237700       135237 
47550000     1.006261  -0.47926722      1728000     3901.696       237750       135266 
47560000   0.94494818  -0.46701385      1728000    3902.5199       237800       135297 
47570000    1.0284991  -0.48465455      1728000    3903.3449       237850       135322 
47580000   0.96156487   -0.5015491      1728000    3904.1948       237900       135348 
47590000   0.97555621  -0.48489838      1728000    3905.0406       237950       135379 
47600000    1.0269941  -0.47798008      1728000     3905.894       238000       135406 
47610000   0.94367138  -0.45335912      1728000    3906.7359       238050       135427 
47620000    1.0008763  -0.46509184      1728000    3907.5607       238100       135451 
47630000   0.97179292  -0.44771018      1728000    3908.3707       238150       135485 
47640000   0.97018337  -0.44982016      1728000     3909.182       238200       135515 
47650000    1.0130181  -0.46444489      1728000     3909.994       238250       135547 
47660000   0.96691549  -0.49048529      1728000    3910.8011       238300       135579 
47670000     1.023769  -0.48960076      1728000    3911.6189       238350       135604 
47680000   0.93407989  -0.46158046      1728000     3912.426       238400       135628 
47690000   0.99571095  -0.47241526      1728000    3913.2471       238450       135653 
47700000    1.0681903  -0.46683729      1728000    3914.0569       238500       135682 
47710000   0.96241248   -0.5025553      1728000     3914.893       238550       135704 
47720000    1.0004661  -0.50871209      1728000    3915.7261       238600       135732 
47730000    1.0162016  -0.52229947      1728000     3916.539       238650       135758 
47740000   0.95512557  -0.49744189      1728000    3917.3811       238700       135784 
47750000   0.94945243  -0.49262178      1728000    3918.2339       238750       135814 
47760000    1.0166157  -0.49537038      1728000    3919.0714       238800       135840 
47770000    1.0276095  -0.49552878      1728000    3919.8879       238850       135872 
47780000   0.96697978  -0.49248587      1728000     3920.732       238900       135897 
47790000    1.0351851   -0.4861566      1728000    3921.5721       238950       135921 
47800000   0.97691213  -0.49244106      1728000    3922.4189       239000       135949 
47810000    1.0005178  -0.50106586      1728000    3923.2497       239050       135978 
47820000   0.99369199  -0.52238266      1728000    3924.0641       239100       136000 
47830000   0.93288261  -0.48187742      1728000    3924.8888       239150       136027 
47840000     1.022024   -0.4744899      1728000    3925.7131       239200       136055 
47850000    1.0538992  -0.45621699      1728000    3926.5167       239250       136083 
47860000    1.0171133  -0.45868906      1728000    3927.3169       239300       136107 
47870000    1.0793063  -0.50216552      1728000    3928.1317       239350       136133 
47880000    1.0229486  -0.45628476      1728000    3928.9641       239400       136160 
47890000   0.99610663  -0.46000601      1728000    3929.7788       239450       136184 
47900000    1.0285585  -0.46608168      1728000     3930.615       239500       136210 
47910000   0.94087332  -0.50773232      1728000    3931.4757       239550       136238 
47920000    1.0217359  -0.49132281      1728000    3932.3101       239600       136265 
47930000   0.97963434   -0.4827327      1728000    3933.1337       239650       136286 
47940000    1.0384689  -0.52248676      1728000     3933.975       239700       136308 
47950000   0.98868929   -0.5322242      1728000     3934.809       239750       136331 
47960000    1.0593834  -0.50686597      1728000     3935.648       239800       136359 
47970000     1.100596  -0.52623465      1728000    3936.4748       239850       136387 
47980000    1.0707329  -0.50419416      1728000    3937.3001       239900       136410 
47990000    1.0503498   -0.5166875      1728000    3938.1311       239950       136436 
48000000   0.98027921  -0.56702442      1728000    3938.9791       240000       136456 
48010000   0.99190205  -0.51876318      1728000    3939.8169       240050       136483 
48020000    1.0627844  -0.49420539      1728000    3940.6453       240100       136512 
48030000     1.030851  -0.51963187      1728000    3941.4769       240150       136540 
48040000    1.0269012  -0.48631453      1728000    3942.3262       240200       136561 
48050000    1.0072584  -0.49471794      1728000    3943.1535       240250       136585 
48060000   0.99976798  -0.48770802      1728000    3943.9821       240300       136614 
48070000   0.98731698  -0.45588382      1728000    3944.8179       240350       136640 
48080000    1.0141595  -0.48482605      1728000    3945.6409       240400       136663 
48090000    1.0154739  -0.49822288      1728000    3946.4669       240450       136685 
48100000    1.0331339  -0.50441166      1728000    3947.2981       240500       136702 
48110000    1.0555727  -0.49856166      1728000    3948.1062       240550       136727 
48120000   0.99991612  -0.48866819      1728000    3948.9104       240600       136762 
48130000   0.99761234  -0.45667337      1728000    3949.7231       240650       136790 
48140000    1.0251336   -0.4818876      1728000    3950.5372       240700       136816 
48150000    1.0015801  -0.50415828      1728000    3951.3551       240750       136835 
48160000    1.0532531  -0.49169031      1728000     3952.174       240800       136859 
48170000   0.96745846  -0.50142155      1728000    3952.9959       240850       136887 
48180000    0.9972223    -0.516872      1728000    3953.8207       240900       136911 
48190000      0.96494  -0.50464527      1728000    3954.6531       240950       136935 
48200000    1.0162318  -0.45637721      1728000    3955.4849       241000       136961 
48210000   0.94213006  -0.47888442      1728000    3956.3022       241050       136987 
48220000    1.0589906   -0.4478383      1728000    3957.1169       241100       137019 
48230000    1.0388266  -0.47527869      1728000    3957.9511       241150       137043 
48240000    1.0855539  -0.45840268      1728000    3958.7691       241200       137069 
48250000   0.99953271   -0.4998079      1728000    3959.5808       241250       137095 
48260000    1.0132382  -0.47451041      1728000    3960.3902       241300       137127 
48270000    1.0433168  -0.43858102      1728000    3961.1981       241350       137149 
48280000    1.0325331  -0.46812219      1728000    3962.0148       241400       137180 
48290000   0.98390857  -0.48518355      1728000    3962.8341       241450       137211 
48300000    1.0044321  -0.50683709      1728000    3963.6649       241500       137241 
48310000      1.01202  -0.50200026      1728000    3964.5018       241550       137265 
48320000    1.0478373  -0.49581658      1728000    3965.3302       241600       137289 
48330000    1.0275227  -0.48606914      1728000    3966.1541       241650       137318 
48340000   0.96531307  -0.51182317      1728000    3966.9957       241700       137343 
48350000   0.94391973  -0.51668885      1728000    3967.8312       241750       137370 
48360000    1.0435535  -0.48786608      1728000    3968.6579       241800       137395 
48370000   0.96936872  -0.48562268      1728000    3969.4631       241850       137421 
48380000   0.99435696  -0.48655791      1728000    3970.2771       241900       137447 
48390000   0.95534157  -0.45554456      1728000    3971.0842       241950       137472 
48400000   0.98561843   -0.4702318      1728000     3971.906       242000       137505 
48410000    1.0168361  -0.44588794      1728000     3972.728       242050       137533 
48420000    1.0095688  -0.46230545      1728000    3973.5639       242100       137554 
48430000   0.97454718   -0.4542939      1728000    3974.3751       242150       137591 
48440000    1.0098328  -0.44821639      1728000    3975.1928       242200       137618 
48450000   0.98312998  -0.44625688      1728000    3976.0351       242250       137645 
48460000    1.0501662  -0.42715985      1728000    3976.8671       242300       137672 
48470000   0.97523977  -0.46712536      1728000    3977.6901       242350       137700 
48480000   0.99115542  -0.45174818      1728000     3978.496       242400       137731 
48490000     1.004767  -0.47420671      1728000       3979.3       242450       137758 
48500000   0.98566309  -0.50340199      1728000      3980.12       242500       137785 
48510000    1.0144417  -0.49038519      1728000    3980.9981       242550       137809 
48520000   0.96313719  -0.51596817      1728000    3981.8234       242600       137836 
48530000    1.0087015  -0.52698198      1728000    3982.6858       242650       137860 
48540000    1.0118363  -0.55368315      1728000    3983.5749       242700       137886 
48550000   0.99633194  -0.52126815      1728000     3984.393       242750       137907 
48560000   0.97198318  -0.54318286      1728000    3985.2342       242800       137933 
48570000     1.009819  -0.56355189      1728000    3986.0713       242850       137954 
48580000    0.9630361  -0.56924097      1728000    3986.9186       242900       137970 
48590000   0.97527597  -0.57687467      1728000    3987.7601       242950       137991 
48600000   0.97358105   -0.5267739      1728000    3988.6011       243000       138018 
48610000   0.97388842  -0.54613659      1728000    3989.4332       243050       138047 
48620000    1.0658045   -0.4963391      1728000    3990.2662       243100       138074 
48630000    1.0068131  -0.50884773      1728000    3991.1131       243150       138104 
48640000   0.95713394  -0.49340131      1728000    3991.9811       243200       138129 
48650000   0.96165587  -0.53467831      1728000     3992.819       243250       138158 
48660000    1.0645637  -0.48815906      1728000    3993.6622       243300       138188 
48670000    1.0484571  -0.50129262      1728000    3994.5127       243350       138214 
48680000    1.0185776  -0.49630431      1728000    3995.3503       243400       138240 
48690000   0.96576314  -0.49639422      1728000    3996.1974       243450       138262 
48700000   0.94483057  -0.53581096      1728000    3997.0461       243500       138291 
48710000     1.007966  -0.52340739      1728000    3997.8929       243550       138316 
48720000    1.0347126  -0.45078535      1728000    3998.7579       243600       138343 
48730000   0.99704773  -0.44775564      1728000    3999.6382       243650       138369 
48740000    1.0018027  -0.47842571      1728000    4000.5799       243700       138403 
48750000    0.9856601  -0.44987162      1728000    4001.4202       243750       138431 
48760000    1.0143725  -0.46868879      1728000     4002.307       243800       138461 
48770000   0.96459359  -0.46278488      1728000     4003.168       243850       138490 
48780000    1.0035021  -0.47012483      1728000    4004.0091       243900       138521 
48790000   0.98284616  -0.49822116      1728000    4004.8238       243950       138555 
48800000    1.0259323  -0.46557995      1728000     4005.661       244000       138584 
48810000    1.0039304  -0.48070067      1728000    4006.5027       244050       138612 
48820000     1.034266   -0.4775018      1728000    4007.3222       244100       138645 
48830000    1.0717495  -0.50877546      1728000    4008.1211       244150       138677 
48840000   0.97661683  -0.50792056      1728000    4008.9542       244200       138704 
48850000   0.98182399   -0.4951737      1728000    4009.7711       244250       138732 
48860000   0.98897862  -0.54435311      1728000    4010.6011       244300       138757 
48870000   0.98931449  -0.50577783      1728000    4011.4352       244350       138779 
48880000   0.99296139  -0.52038535      1728000    4012.2662       244400       138807 
48890000   0.99033589  -0.46600069      1728000    4013.0872       244450       138839 
48900000   0.94868884  -0.49775921      1728000      4013.94       244500       138862 
48910000    1.0055392  -0.49092386      1728000    4014.7997       244550       138889 
48920000   0.96010804  -0.47397492      1728000     4015.642       244600       138914 
48930000   0.99418876  -0.50208629      1728000    4016.4712       244650       138940 
48940000    1.0249171  -0.47844667      1728000    4017.3079       244700       138966 
48950000   0.96308843  -0.51057002      1728000     4018.178       244750       138991 
48960000   0.99378363  -0.47415461      1728000    4019.0303       244800       139009 
48970000    1.0620277  -0.47633194      1728000    4019.8953       244850       139034 
48980000   0.99441916  -0.48358433      1728000    4020.7349       244900       139060 
48990000   0.97800707  -0.48240869      1728000    4021.5657       244950       139089 
49000000    1.0675053  -0.47079828      1728000    4022.4079       245000       139111 
49010000   0.98319395  -0.48399578      1728000    4023.2261       245050       139141 
49020000    1.0355222  -0.46298965      1728000    4024.0434       245100       139168 
49030000    1.0549765  -0.47234488      1728000    4024.8424       245150       139203 
49040000   0.99459732  -0.44447228      1728000    4025.6541       245200       139232 
49050000    1.0037153   -0.4697854      1728000     4026.466       245250       139256 
49060000   0.97941071  -0.46026728      1728000     4027.286       245300       139281 
49070000    1.0006149  -0.45154622      1728000    4028.0989       245350       139307 
49080000   0.99345713   -0.4237227      1728000    4028.9182       245400       139336 
49090000    1.0482785  -0.48252144      1728000     4029.726       245450       139367 
49100000   0.98809704   -0.4750951      1728000     4030.552       245500       139389 
49110000    0.9556562  -0.47520245      1728000     4031.369       245550       139419 
49120000    1.0041018  -0.46890119      1728000    4032.1741       245600       139447 
49130000    1.0115352  -0.47976773      1728000    4032.9911       245650       139475 
49140000   0.92776871  -0.48335127      1728000    4033.8122       245700       139511 
49150000    1.0028667   -0.4674142      1728000     4034.662       245750       139537 
49160000   0.96793218  -0.48447776      1728000     4035.493       245800       139568 
49170000    1.0251612  -0.48101744      1728000     4036.334       245850       139594 
49180000    1.0246578  -0.45328623      1728000    4037.1772       245900       139619 
49190000    1.0012873  -0.44002686      1728000    4038.0103       245950       139649 
49200000   0.98819196  -0.43485771      1728000    4038.8449       246000       139676 
49210000   0.99129935  -0.42924738      1728000    4039.6848       246050       139705 
49220000   0.98952343  -0.44720374      1728000    4040.5191       246100       139733 
49230000   0.99028107  -0.42851091      1728000     4041.347       246150       139762 
49240000   0.96713118  -0.42655757      1728000    4042.1611       246200       139793 
49250000   0.98689193  -0.41462048      1728000    4042.9841       246250       139820 
49260000   0.99256757  -0.44370182      1728000    4043.8049       246300       139854 
49270000    1.0444234  -0.48519227      1728000    4044.6363       246350       139884 
49280000    1.0400402  -0.41585871      1728000     4045.475       246400       139915 
49290000   0.94905371  -0.43056285      1728000    4046.3041       246450       139944 
49300000   0.99071182  -0.40375415      1728000     4047.129       246500       139974 
49310000    1.0261385  -0.40481051      1728000    4047.9411       246550       140003 
49320000    1.0500907  -0.44266811      1728000    4048.7481       246600       140035 
49330000    1.0351287  -0.43276475      1728000    4049.5631       246650       140070 
49340000   0.92210612  -0.45245384      1728000    4050.3792       246700       140101 
49350000    1.0352566  -0.41707086      1728000    4051.1929       246750       140131 
49360000    1.0045987  -0.43667842      1728000     4052.013       246800       140157 
49370000   0.95738595  -0.43495298      1728000    4052.8511       246850       140189 
49380000    1.0293409  -0.41512553      1728000    4053.6661       246900       140223 
49390000    1.0562661  -0.45348254      1728000    4054.4862       246950       140249 
49400000   0.98662103  -0.47667892      1728000    4055.3081       247000       140282 
49410000   0.99257525  -0.46058464      1728000    4056.1221       247050       140308 
49420000    1.0374335  -0.46515698      1728000    4056.9357       247100       140335 
49430000    1.0052136     -0.45986      1728000    4057.7572       247150       140362 
49440000   0.97988453  -0.43828035      1728000    4058.5861       247200       140385 
49450000    1.0309477  -0.42598525      1728000    4059.3932       247250       140409 
49460000   0.98715231  -0.41681348      1728000    4060.2059       247300       140438 
49470000     1.003154  -0.43675111      1728000    4061.0121       247350       140474 
49480000    1.0075903  -0.42301443      1728000    4061.8092       247400       140506 
49490000   0.95834837  -0.43686871      1728000    4062.6152       247450       140531 
49500000    1.0750324  -0.45625963      1728000    4063.4739       247500       140562 
49510000   0.97508264  -0.44853911      1728000    4064.2832       247550       140585 
49520000    1.0028942  -0.46256556      1728000    4065.1022       247600       140614 
49530000   0.97830134  -0.43797225      1728000    4065.9522       247650       140638 
49540000   0.96203168  -0.39545524      1728000    4066.7722       247700       140666 
49550000   0.95759238  -0.42968993      1728000     4067.609       247750       140686 
49560000    1.0317942  -0.40981677      1728000    4068.4412       247800       140710 
49570000    1.0510396  -0.45192836      1728000    4069.2839       247850       140744 
49580000   0.97588083  -0.42851617      1728000     4070.097       247900       140774 
49590000    1.0426164  -0.44595957      1728000    4070.9592       247950       140801 
49600000    1.0118736  -0.45165392      1728000    4071.7683       248000       140835 
49610000    1.0870774  -0.45536355      1728000    4072.5752       248050       140864 
49620000   0.99544429  -0.44222255      1728000    4073.3702       248100       140891 
49630000    0.9783805  -0.43087123      1728000    4074.1813       248150       140919 
49640000   0.96612678  -0.46883754      1728000     4074.999       248200       140943 
49650000   0.98019706  -0.47017227      1728000    4075.8153       248250       140973 
49660000    1.0183155  -0.43831024      1728000    4076.6402       248300       141005 
49670000    1.0015831   -0.4391567      1728000     4077.455       248350       141029 
49680000   0.98284059  -0.45194087      1728000    4078.2982       248400       141056 
49690000   0.95639152  -0.44648216      1728000    4079.1119       248450       141087 
49700000    1.0049577  -0.43180543      1728000     4079.962       248500       141115 
49710000    1.0003063  -0.44969203      1728000    4080.8007       248550       141142 
49720000    1.0195679  -0.45243342      1728000    4081.6385       248600       141172 
49730000   0.96771074  -0.43014907      1728000    4082.4381       248650       141201 
49740000      1.01701  -0.41849853      1728000    4083.2629       248700       141227 
49750000    1.0092697  -0.42337057      1728000    4084.0672       248750       141261 
49760000   0.96782369  -0.44557501      1728000    4084.8764       248800       141292 
49770000    1.0135146  -0.42705693      1728000    4085.6806       248850       141316 
49780000    1.0243329  -0.45238241      1728000    4086.4839       248900       141345 
49790000    1.0018399  -0.44723986      1728000    4087.2812       248950       141379 
49800000    1.0106775  -0.45615812      1728000    4088.0762       249000       141409 
49810000    1.0834958   -0.4666818      1728000     4088.866       249050       141437 
49820000   0.98212609  -0.46114063      1728000    4089.6623       249100       141462 
49830000   0.98051965  -0.49333344      1728000    4090.4682       249150       141489 
49840000    1.0187517  -0.46593915      1728000     4091.284       249200       141515 
49850000   0.97218095  -0.49598271      1728000    4092.0951       249250       141546 
49860000    1.0256739  -0.48247647      1728000    4092.9093       249300       141573 
49870000   0.98809285  -0.47159234      1728000    4093.7213       249350       141602 
49880000    1.0398824  -0.49611289      1728000    4094.5344       249400       141628 
49890000   0.97125891   -0.5062739      1728000    4095.3401       249450       141658 
49900000    1.0069864  -0.48512858      1728000    4096.1561       249500       141683 
49910000   0.96150277  -0.53367088      1728000    4096.9651       249550       141708 
49920000     1.011385  -0.48732636      1728000    4097.7952       249600       141740 
49930000   0.98856847  -0.49135769      1728000    4098.6071       249650       141763 
49940000   0.97370927  -0.51681777      1728000    4099.4233       249700       141790 
49950000    1.0174825  -0.49245734      1728000    4100.2481       249750       141815 
49960000   0.99965205  -0.46586694      1728000    4101.0791       249800       141840 
49970000    1.0199242  -0.46646732      1728000    4101.9002       249850       141869 
49980000    1.0504847  -0.51478762      1728000    4102.7214       249900       141903 
49990000    1.0285653  -0.49055979      1728000    4103.5482       249950       141924 
50000000    1.0174216    -0.479001      1728000    4104.3711       250000       141947 
Loop time of 4104.37 on 1 procs for 50000000 steps with 500 atoms

Performance: 10525358.951 tau/day, 12182.128 timesteps/s
99.3% CPU use with 1 MPI tasks x 1 OpenMP threads

MPI task timing breakdown:
Section |  min time  |  avg time  |  max time  |%varavg| %total
---------------------------------------------------------------
Pair    | 732.27     | 732.27     | 732.27     |   0.0 | 17.84
Bond    | 1050.9     | 1050.9     | 1050.9     |   0.0 | 25.60
Neigh   | 800.81     | 800.81     | 800.81     |   0.0 | 19.51
Comm    | 32.081     | 32.081     | 32.081     |   0.0 |  0.78
Output  | 14.684     | 14.684     | 14.684     |   0.0 |  0.36
Modify  | 1423.9     | 1423.9     | 1423.9     |   0.0 | 34.69
Other   |            | 49.8       |            |       |  1.21

Nlocal:    500 ave 500 max 500 min
Histogram: 1 0 0 0 0 0 0 0 0 0
Nghost:    0 ave 0 max 0 min
Histogram: 1 0 0 0 0 0 0 0 0 0
Neighs:    1664 ave 1664 max 1664 min
Histogram: 1 0 0 0 0 0 0 0 0 0

Total # of neighbors = 1664
Ave neighs/atom = 3.328
Ave special neighs/atom = 5.976
Neighbor list builds = 2659339
Dangerous builds = 0

################
## ULOOP    ####
################
clear
OMP_NUM_THREADS environment is not set. Defaulting to 1 thread. (../comm.cpp:87)
  using 1 OpenMP thread(s) per MPI task
variable rname delete
variable simname delete
variable folder delete
variable seed delete
variable E delete
variable RW delete
variable SimOutType delete
variable SimInType delete
variable jn delete
variable jf delete

next jbn
Increment via next: value 2 on partition 0
jump SELF #last line!!!

### If e.g. I run this on 10 partitions of 1 processor,
### and initialise the variable with 'uloop N'
### it will run 10 simulations with 'jobnumber' taking
### values 1-10. Then when a particular simulation finishes, the
### script will be run again with the next value of jobnumber,
### until N simulations have been run.
## SO ULOOP IS "SERIAL" BUT FOR SURE 10x1 PROCs ARE ALWAYS BUSY
Total wall time: 1:08:34
