LAMMPS (1 Feb 2019)
OMP_NUM_THREADS environment is not set. Defaulting to 1 thread. (../comm.cpp:87)
  using 1 OpenMP thread(s) per MPI task
####################################
####	ULOOP			####
####################################
variable jbn uloop 1  # run n simulations
variable startfrom equal 0
variable jn equal ${jbn}+${startfrom}
variable jn equal 1+${startfrom}
variable jn equal 1+0
print ${jn}
print 1
1
variable seed equal (${jn}+4)*51-2*${jbn}
variable seed equal (1+4)*51-2*${jbn}
variable seed equal (1+4)*51-2*1
variable seedr equal (${jn}+2)*22
variable seedr equal (1+2)*22

#
variable N equal 2000
timestep 0.01
variable Dt equal 100000
variable Temp equal 1.0
variable Norm equal 0.88585294441338
if "${jn} <= 2" then "variable E equal 1.1"
variable E equal 1.1
if "${jn} > 2 && ${jn} <= 4" then "variable E equal 1.5"
if "${jn} > 4 && ${jn} <= 6" then "variable E equal 2.0"
if "${jn} > 6 && ${jn} <= 8" then "variable E equal 2.5"
if "${jn} > 8 && ${jn} <= 10" then "variable E equal 3.0"
if "${jn} > 10 && ${jn} <= 12" then "variable E equal 3.5"
if "${jn} > 12 && ${jn} <= 14" then "variable E equal 4.0"
if "${jn} > 14 && ${jn} <= 16" then "variable E equal 4.5"
if "${jn} > 16 && ${jn} <= 18" then "variable E equal 5.0"

#
####################################
####	DEFINTIONS 	########
####################################
#
variable N equal 500
variable folder index RW_Dt${Dt}_E${E}
variable folder index RW_Dt100000_E${E}
variable folder index RW_Dt100000_E1.1
shell mkdir ${folder}
shell mkdir RW_Dt100000_E1.1
variable SimOutType index RW${jn}Dt${Dt}E${E}
variable SimOutType index RW1Dt${Dt}E${E}
variable SimOutType index RW1Dt100000E${E}
variable SimOutType index RW1Dt100000E1.1
variable rname index INIT/Poly.N${N}.dat
variable rname index INIT/Poly.N500.dat
variable simname index Poly.N${N}.${SimOutType}
variable simname index Poly.N500.${SimOutType}
variable simname index Poly.N500.RW1Dt100000E1.1
#
units lj
atom_style angle
boundary        p p p
neighbor 1.3 bin
neigh_modify every 5 delay 5 check yes
#
restart 1000000 ${folder}/Restart.neutr.${simname}.
restart 1000000 RW_Dt100000_E1.1/Restart.neutr.${simname}.
restart 1000000 RW_Dt100000_E1.1/Restart.neutr.Poly.N500.RW1Dt100000E1.1.
print ${rname}
print INIT/Poly.N500.dat
INIT/Poly.N500.dat
read_data ${rname}
read_data INIT/Poly.N500.dat
  orthogonal box = (-50 -50 -50) to (50 50 50)
  1 by 1 by 1 MPI processor grid
  reading atoms ...
  500 atoms
  scanning bonds ...
  1 = max bonds/atom
  scanning angles ...
  1 = max angles/atom
  reading bonds ...
  499 bonds
  reading angles ...
  498 angles
  2 = max # of 1-2 neighbors
  2 = max # of 1-3 neighbors
  4 = max # of 1-4 neighbors
  6 = max # of special neighbors

####################################
####	GROUPS	             #######
####################################
group blue type 1
500 atoms in group blue
group red type 2
0 atoms in group red
group grey type 3
0 atoms in group grey

change_box all x final -60 60 y final -60 60 z final -60 60 boundary f f f units box
  orthogonal box = (-60 -50 -50) to (60 50 50)
  orthogonal box = (-60 -60 -50) to (60 60 50)
  orthogonal box = (-60 -60 -60) to (60 60 60)

####################################
####	ANGLE	             #######
####################################
angle_style   cosine
angle_coeff  1 3.0  #20 sigma for realistic DNA (1 bead = 2.5 nm)

####################################
####	PAIRS	             #######
####################################
pair_style  soft 2.5
pair_modify     shift yes
pair_coeff      * * 20 1.12246152962189

variable prefactor equal ramp(0,50)
fix pushapart all adapt 1 pair soft a * * v_prefactor

####################################
####	FENE	             #######
####################################
bond_style   fene
special_bonds fene#<=== I M P O R T A N T (new command)
  2 = max # of 1-2 neighbors
  6 = max # of special neighbors
bond_coeff   1  30.0   1.6  1.0  1.0

####################################
####	FIXES	             #######
####################################
fix 1 all   nve
fix 2 all  langevin   1.0 1.0   1.0   ${seed}
fix 2 all  langevin   1.0 1.0   1.0   253

####################################
####	WALL	             #######
####################################
fix WALL all wall/lj126 xhi EDGE 1.0 1.0 1.122462048 xlo EDGE 1.0 1.0 1.122462048 yhi EDGE 1.0 1.0 1.122462048 ylo EDGE 1.0 1.0 1.122462048 zhi EDGE 1.0 1.0 1.122462048 zlo EDGE 1.0 1.0 1.122462048 units box

####################################
####	RESET TIME             #######
####################################
reset_timestep 0

####################################
####	SWAP - ATOMS         #######
####################################
##HERE I USE fix atom/swap to attempt an atom swap between types
## In theory, I don't need to do a loop as the fix does it every
## N timesteps
##FIRST Dt IS NOT SWAPPING ANYWAY!
group Polymer type 1 2 3
500 atoms in group Polymer
fix Aswap Polymer atom/swap ${Dt} ${N} ${seed} ${Temp} semi-grand yes types 1 2 3 mu 0.0 0.0 0.0
fix Aswap Polymer atom/swap 100000 ${N} ${seed} ${Temp} semi-grand yes types 1 2 3 mu 0.0 0.0 0.0
fix Aswap Polymer atom/swap 100000 500 ${seed} ${Temp} semi-grand yes types 1 2 3 mu 0.0 0.0 0.0
fix Aswap Polymer atom/swap 100000 500 253 ${Temp} semi-grand yes types 1 2 3 mu 0.0 0.0 0.0
fix Aswap Polymer atom/swap 100000 500 253 1 semi-grand yes types 1 2 3 mu 0.0 0.0 0.0
variable Swaps equal f_Aswap[2]/1.0
variable Attempts equal f_Aswap[1]/1.0

####################################
####    THERMO AND INTEGRATION
####################################
timestep 0.01
thermo 10000
thermo_style   custom   step  temp  epair vol cpu v_Attempts v_Swaps

####################################
####	EQUILIBRATION        #######
####################################
#THIS IS TO TEST
#PUT LARGER NUMBER WHEN DOING ACTUAL SIMULATIONS
run 100000
Neighbor list info ...
  update every 5 steps, delay 5 steps, check yes
  max neighbors/atom: 2000, page size: 100000
  master list distance cutoff = 2.42246
  ghost atom cutoff = 2.42246
  binsize = 1.21123, bins = 100 100 100
  1 neighbor lists, perpetual/occasional/extra = 1 0 0
  (1) pair soft, perpetual
      attributes: half, newton on
      pair build: half/bin/newton
      stencil: half/bin/3d/newton
      bin: standard
Per MPI rank memory allocation (min/avg/max) = 9.234 | 9.234 | 9.234 Mbytes
Step Temp E_pair Volume CPU v_Attempts v_Swaps 
       0            0            0      1728000            0            0            0 
   10000    1.0294079 0.0064934185      1728000    1.0270469          500          500 
   20000    0.9987672   0.01265543      1728000    1.8569548          500          500 
   30000    1.0377049 0.0053002516      1728000    2.6861129          500          500 
   40000   0.96298537   0.00420477      1728000     3.504066          500          500 
   50000   0.95514074 4.5880284e-05      1728000    4.3279979          500          500 
   60000   0.97827728 4.9670865e-05      1728000    5.1603348          500          500 
   70000   0.96772811 0.00068691548      1728000     5.976218          500          500 
   80000    1.0272917 0.0015087736      1728000    6.7862589          500          500 
   90000    1.0539828 0.0015163033      1728000    7.6082499          500          500 
  100000   0.98519253 0.0023363482      1728000    8.4231229          500          500 
Loop time of 8.42711 on 1 procs for 100000 steps with 500 atoms

Performance: 10252625.211 tau/day, 11866.464 timesteps/s
99.6% CPU use with 1 MPI tasks x 1 OpenMP threads

MPI task timing breakdown:
Section |  min time  |  avg time  |  max time  |%varavg| %total
---------------------------------------------------------------
Pair    | 0.62298    | 0.62298    | 0.62298    |   0.0 |  7.39
Bond    | 2.4513     | 2.4513     | 2.4513     |   0.0 | 29.09
Neigh   | 2.3491     | 2.3491     | 2.3491     |   0.0 | 27.88
Comm    | 0.11128    | 0.11128    | 0.11128    |   0.0 |  1.32
Output  | 0.025898   | 0.025898   | 0.025898   |   0.0 |  0.31
Modify  | 2.7705     | 2.7705     | 2.7705     |   0.0 | 32.88
Other   |            | 0.09604    |            |       |  1.14

Nlocal:    500 ave 500 max 500 min
Histogram: 1 0 0 0 0 0 0 0 0 0
Nghost:    0 ave 0 max 0 min
Histogram: 1 0 0 0 0 0 0 0 0 0
Neighs:    847 ave 847 max 847 min
Histogram: 1 0 0 0 0 0 0 0 0 0

Total # of neighbors = 847
Ave neighs/atom = 1.694
Ave special neighs/atom = 1.996
Neighbor list builds = 4475
Dangerous builds = 0


unfix pushapart
unfix Aswap
reset_timestep 0

#######################################################
####	PAIRS -- REPULSIVE + REDS FERROMAGN 	#######
#######################################################
#ENERGYSCALE
variable Et equal ${E}/${Norm}
variable Et equal 1.1/${Norm}
variable Et equal 1.1/0.88585294441338

pair_style  lj/cut 1.8
pair_modify     shift yes
pair_coeff      * *  1.0 1.0 1.12246152962189

pair_coeff      1 1  ${Et} 1.0 1.8
pair_coeff      1 1  1.24174108912448 1.0 1.8
pair_coeff      1 2  1.0 1.0 1.12246152962189
pair_coeff      1 3  1.0 1.0 1.12246152962189

pair_coeff      2 2  ${Et} 1.0 1.8
pair_coeff      2 2  1.24174108912448 1.0 1.8
pair_coeff      2 3  1.0 1.0 1.12246152962189

pair_coeff      3 3  1.0 1.0 1.12246152962189
#######################################################


########################
## PER PRIMI VICINI   ##
########################
bond_style harmonic
special_bonds lj 1 1 1
  2 = max # of 1-2 neighbors
  2 = max # of 1-3 neighbors
  4 = max # of 1-4 neighbors
  6 = max # of special neighbors
bond_coeff 1 200 1.12246
#bond_style fene
#special_bonds fene
#bond_coeff 1 30 1.6 1.0 1.0

########################
## RECOLOR #############
########################
group Polymer type 1 2 3
500 atoms in group Polymer
variable smooth equal 10
variable dtsmooth equal ${Dt}/${smooth}
variable dtsmooth equal 100000/${smooth}
variable dtsmooth equal 100000/10
variable Nsmooth equal ${N}/${smooth}
variable Nsmooth equal 500/${smooth}
variable Nsmooth equal 500/10
fix Aswap Polymer atom/swap ${dtsmooth} ${Nsmooth} ${seedr} ${Temp} semi-grand yes types 1 2 3 mu 0.0 0.0 0.0
fix Aswap Polymer atom/swap 10000 ${Nsmooth} ${seedr} ${Temp} semi-grand yes types 1 2 3 mu 0.0 0.0 0.0
fix Aswap Polymer atom/swap 10000 50 ${seedr} ${Temp} semi-grand yes types 1 2 3 mu 0.0 0.0 0.0
fix Aswap Polymer atom/swap 10000 50 66 ${Temp} semi-grand yes types 1 2 3 mu 0.0 0.0 0.0
fix Aswap Polymer atom/swap 10000 50 66 1 semi-grand yes types 1 2 3 mu 0.0 0.0 0.0
variable Swaps equal f_Aswap[2]/1.0
variable Attempts equal f_Aswap[1]/1.0

####################################
####    DUMPS                 #######
####################################
##VMD
#dump 1 all custom 1000 ${folder}/${simname}.lammpstrj id mol type x y z
#dump_modify  1   format "%d %d %d %.5f %.5f %.5f"

##DAT
dump 2 all custom 100000 ${folder}/${simname}.* id type x y z ix iy iz
dump 2 all custom 100000 RW_Dt100000_E1.1/${simname}.* id type x y z ix iy iz
dump 2 all custom 100000 RW_Dt100000_E1.1/Poly.N500.RW1Dt100000E1.1.* id type x y z ix iy iz
#dump_modify   2   format "%d %d %.5f %.5f %.5f %d %d %d"

##CFG
#dump 3 all cfg 1000 ${folder}/CFG/${simname}.tot.*.cfg mass type xs ys zs id mol type
#dump_modify 3 element N C O Ca Xe

##XYZ
dump 4 all xyz 100000 XYZ_${simname}.xyz
dump 4 all xyz 100000 XYZ_Poly.N500.RW1Dt100000E1.1.xyz
dump_modify 4 element C O N Xe

###########################
thermo 10000
thermo_style   custom   step  temp  epair vol cpu v_Attempts v_Swaps
run 50000000
Neighbor list info ...
  update every 5 steps, delay 5 steps, check yes
  max neighbors/atom: 2000, page size: 100000
  master list distance cutoff = 3.1
  ghost atom cutoff = 3.1
  binsize = 1.55, bins = 78 78 78
  1 neighbor lists, perpetual/occasional/extra = 1 0 0
  (1) pair lj/cut, perpetual
      attributes: half, newton on
      pair build: half/bin/newton
      stencil: half/bin/3d/newton
      bin: standard
Per MPI rank memory allocation (min/avg/max) = 9.566 | 9.566 | 9.566 Mbytes
Step Temp E_pair Volume CPU v_Attempts v_Swaps 
       0   0.98519253    2.0962907      1728000            0            0            0 
   10000   0.97217662  -0.42286615      1728000   0.82126689           50           41 
   20000    1.0604532  -0.44221707      1728000    1.6572888          100           79 
   30000    1.0097828  -0.49707699      1728000     2.491307          150          107 
   40000    1.0476428  -0.53922144      1728000     9.995214          200          133 
   50000     0.964972  -0.54606981      1728000    10.853337          250          164 
   60000   0.99324059  -0.57483394      1728000    11.720882          300          197 
   70000    1.0258815  -0.60100031      1728000    12.589978          350          225 
   80000   0.97982453  -0.65501942      1728000    13.467163          400          253 
   90000   0.96552416  -0.70389644      1728000    14.392192          450          283 
  100000   0.94714555  -0.77796851      1728000    15.322008          500          309 
  110000    1.0369824  -0.79184361      1728000    16.403349          550          328 
  120000    1.0155769  -0.73749806      1728000    17.376705          600          353 
  130000    1.0130432  -0.81931836      1728000    18.349722          650          375 
  140000     1.001437  -0.74242123      1728000    19.298456          700          396 
  150000    1.0383475  -0.74786302      1728000    20.240495          750          416 
  160000   0.96629374  -0.81788989      1728000    21.166222          800          442 
  170000   0.93490842  -0.84012255      1728000    22.096475          850          472 
  180000   0.97605511  -0.86088435      1728000    23.046516          900          492 
  190000    1.0288438  -0.94646773      1728000    24.013584          950          516 
  200000    1.0905767  -0.88976091      1728000    24.988576         1000          538 
  210000   0.95192582  -0.90865365      1728000     25.99761         1050          558 
  220000    1.0115738  -0.91561352      1728000    26.979594         1100          577 
  230000   0.96979475  -0.89842039      1728000    27.964587         1150          594 
  240000    1.0341182  -0.88507499      1728000    28.932608         1200          616 
  250000   0.96684111  -0.91549745      1728000    29.902606         1250          638 
  260000   0.98831491  -0.97537439      1728000    30.909589         1300          663 
  270000   0.94040511  -0.94335095      1728000    31.899577         1350          687 
  280000   0.99234689   -1.0177274      1728000    32.908533         1400          704 
  290000   0.98505345  -0.95334076      1728000    33.908511         1450          727 
  300000    1.0199151   -1.2455186      1728000    34.969499         1500          746 
  310000   0.92031546   -1.2323596      1728000    36.100536         1550          768 
  320000   0.92825594   -1.2796188      1728000    37.213176         1600          792 
  330000    1.0095968   -1.2558023      1728000    38.342068         1650          809 
  340000    1.0158385   -1.3120828      1728000    39.456184         1700          828 
  350000   0.95783248   -1.2708326      1728000    40.592253         1750          846 
  360000    1.0290712   -1.2476633      1728000    41.724153         1800          866 
  370000   0.98636418    -1.357782      1728000    42.822275         1850          885 
  380000    1.0308355   -1.3024697      1728000    43.943352         1900          903 
  390000   0.98575435   -1.3674633      1728000    45.074172         1950          923 
  400000    1.0402294   -1.3859564      1728000     46.21337         2000          939 
  410000   0.98139093   -1.4411082      1728000    47.384122         2050          952 
  420000   0.95862379   -1.4199431      1728000    48.545191         2100          967 
  430000    1.0216558   -1.3391869      1728000    49.671351         2150          984 
  440000    1.0598554   -1.3879448      1728000    50.802977         2200         1005 
  450000   0.98786252    -1.379848      1728000    51.936271         2250         1024 
  460000    1.0309078   -1.3813319      1728000    53.103204         2300         1037 
  470000    1.0144351   -1.4577875      1728000    54.270086         2350         1049 
  480000    1.0051139   -1.4507359      1728000    55.439141         2400         1061 
  490000   0.95991336   -1.5469251      1728000    56.614304         2450         1072 
  500000    1.0240198   -1.5630496      1728000    57.804278         2500         1086 
  510000    0.9706533   -1.7270098      1728000    59.070089         2550         1104 
  520000    1.0301193    -1.795265      1728000    60.372271         2600         1116 
  530000   0.99624839    -1.572816      1728000    61.591166         2650         1132 
  540000    1.0280755   -1.8028816      1728000     62.84931         2700         1146 
  550000   0.96624816   -1.7842602      1728000    64.121164         2750         1156 
  560000   0.95871444   -1.8438603      1728000    65.446042         2800         1164 
  570000    1.0038466   -1.9215619      1728000    66.777123         2850         1175 
  580000    1.0193607   -1.7793999      1728000     68.11412         2900         1187 
  590000   0.97124616   -1.8283899      1728000    69.432137         2950         1194 
  600000   0.99827414   -1.9526672      1728000    70.796165         3000         1203 
  610000    1.0372251   -2.0920303      1728000    72.144199         3050         1212 
  620000    1.0158988   -2.2483952      1728000    73.573167         3100         1219 
  630000   0.99231593   -2.0070657      1728000    74.965061         3150         1228 
  640000    0.9783335   -2.0717366      1728000    76.330342         3200         1239 
  650000   0.95493518   -1.9143147      1728000    77.708029         3250         1249 
  660000   0.94518268   -2.0096059      1728000    79.097114         3300         1263 
  670000   0.98300564   -2.2168862      1728000    80.519452         3350         1275 
  680000    1.0005795   -2.1339837      1728000    81.996156         3400         1285 
  690000   0.96598573   -2.1772329      1728000    83.482288         3450         1298 
  700000    1.0142019   -2.2298801      1728000    84.956411         3500         1305 
  710000   0.99810626   -2.2332125      1728000    86.408225         3550         1310 
  720000   0.99294362   -2.1288013      1728000    87.877112         3600         1320 
  730000   0.98604563    -2.192066      1728000    89.330183         3650         1327 
  740000    1.0217783   -2.1376947      1728000    90.846103         3700         1335 
  750000    1.0360819   -2.1378247      1728000    92.305138         3750         1341 
  760000    1.0043404   -2.0590868      1728000    93.776305         3800         1348 
  770000    1.0104779    -2.068263      1728000    95.205188         3850         1359 
  780000    1.0015147   -2.1017919      1728000    96.659077         3900         1369 
  790000    1.0106183   -2.0664681      1728000    98.107388         3950         1377 
  800000    1.0542041   -2.0019764      1728000    99.569412         4000         1384 
  810000    1.0248671   -2.0446078      1728000    100.97636         4050         1393 
  820000    0.9791688   -2.0956497      1728000    102.41134         4100         1401 
  830000   0.98711983   -2.2569602      1728000    103.85919         4150         1415 
  840000    1.0004561   -2.1306123      1728000    105.28227         4200         1425 
  850000    1.0133709   -2.2463121      1728000    106.74022         4250         1437 
  860000   0.98912438   -2.1557436      1728000    108.19334         4300         1448 
  870000    1.0446923   -2.1438467      1728000    109.60121         4350         1461 
  880000   0.99351319   -2.2181222      1728000    111.02513         4400         1465 
  890000   0.99980257   -2.3120063      1728000    112.49093         4450         1467 
  900000    1.0304918   -2.2164653      1728000    113.98229         4500         1479 
  910000   0.98989821   -2.3942149      1728000    115.46825         4550         1490 
  920000     1.013101   -2.3718973      1728000    117.00026         4600         1498 
  930000   0.96297722   -2.2139705      1728000     118.5242         4650         1504 
  940000   0.97202827   -2.2689411      1728000    119.99913         4700         1512 
  950000   0.99921971   -2.3713356      1728000    121.47816         4750         1522 
  960000    1.0124055   -2.3465357      1728000     122.9722         4800         1528 
  970000    1.0810818    -2.106678      1728000     124.4634         4850         1533 
  980000   0.94158562   -2.2955157      1728000    125.93115         4900         1543 
  990000    1.0143054   -2.4373514      1728000    127.42426         4950         1549 
 1000000     1.025345   -2.4189197      1728000    128.94536         5000         1554 
 1010000    1.0046485   -2.4055507      1728000    130.45643         5050         1557 
 1020000    1.0132635   -2.3486768      1728000    131.96427         5100         1563 
 1030000    1.0444308   -2.5703663      1728000    133.49656         5150         1568 
 1040000   0.98692929   -2.4421354      1728000    135.01824         5200         1577 
 1050000   0.96797781   -2.4320874      1728000    136.52019         5250         1584 
 1060000   0.93372235   -2.4194035      1728000    138.02613         5300         1594 
 1070000   0.96946909   -2.4456533      1728000    139.55128         5350         1599 
 1080000   0.88700495    -2.479683      1728000    141.10425         5400         1607 
 1090000    1.0200296   -2.4504336      1728000    142.64033         5450         1613 
 1100000   0.98469449   -2.5444328      1728000    144.20525         5500         1617 
 1110000   0.95569982     -2.59893      1728000    145.77052         5550         1623 
 1120000   0.96685637   -2.5170941      1728000    147.31733         5600         1631 
 1130000    1.0341946   -2.4679383      1728000    148.85428         5650         1638 
 1140000    1.0232639   -2.6159424      1728000    150.41639         5700         1644 
 1150000    1.0378428   -2.5835789      1728000    151.95818         5750         1654 
 1160000    1.0389222   -2.4719757      1728000    153.52039         5800         1657 
 1170000    1.0590725   -2.5608301      1728000    155.13633         5850         1662 
 1180000    1.0446254   -2.5180597      1728000    156.67732         5900         1668 
 1190000   0.99304016   -2.5717727      1728000    158.22553         5950         1675 
 1200000    1.0120211   -2.5614907      1728000    159.80119         6000         1680 
 1210000    1.0366834    -2.533564      1728000    161.36627         6050         1687 
 1220000    1.0152445   -2.5883815      1728000    162.95332         6100         1692 
 1230000    1.0065542   -2.5404222      1728000    164.52742         6150         1695 
 1240000   0.98751182   -2.5185263      1728000    166.10644         6200         1700 
 1250000   0.99832166   -2.5586036      1728000    167.68442         6250         1708 
 1260000    1.0295977   -2.5807505      1728000    169.25143         6300         1714 
 1270000    1.0332458   -2.5826511      1728000    170.81446         6350         1719 
 1280000    1.0259407   -2.5532915      1728000    172.37127         6400         1727 
 1290000    1.0002075   -2.4732953      1728000    173.96133         6450         1734 
 1300000    0.9880188     -2.58748      1728000    175.52933         6500         1739 
 1310000   0.97725126   -2.5701035      1728000    177.09246         6550         1745 
 1320000    1.0112565   -2.4190865      1728000    178.64612         6600         1750 
 1330000   0.97245845   -2.3411602      1728000    180.19937         6650         1759 
 1340000    1.0255764   -2.5703858      1728000    181.75028         6700         1770 
 1350000    1.0206498   -2.5590402      1728000    183.32123         6750         1775 
 1360000    1.0090791   -2.5891424      1728000    184.90333         6800         1784 
 1370000     1.069636   -2.6490677      1728000    186.48246         6850         1787 
 1380000    1.0526197   -2.4607359      1728000    188.05718         6900         1793 
 1390000   0.97212268   -2.4747392      1728000    189.62923         6950         1797 
 1400000      1.00054   -2.5067001      1728000    191.19404         7000         1804 
 1410000   0.88447694   -2.4802913      1728000    192.75345         7050         1806 
 1420000   0.94422088   -2.5955945      1728000    194.31325         7100         1809 
 1430000   0.96022944   -2.5958486      1728000    195.90031         7150         1815 
 1440000    1.0646975    -2.575068      1728000    197.47231         7200         1823 
 1450000   0.98988652   -2.5536658      1728000    199.02832         7250         1833 
 1460000    1.0198272   -2.6330307      1728000    200.58737         7300         1842 
 1470000   0.95827596   -2.5628759      1728000    202.18245         7350         1845 
 1480000    1.0193444   -2.6563209      1728000    203.77818         7400         1850 
 1490000   0.98873841   -2.6537322      1728000    205.37408         7450         1850 
 1500000    1.0196425   -2.6643597      1728000    207.00234         7500         1855 
 1510000    1.0082518   -2.7064696      1728000    208.69722         7550         1858 
 1520000   0.99600186   -2.5713438      1728000    210.29132         7600         1865 
 1530000    1.0565789   -2.6283764      1728000    211.86687         7650         1869 
 1540000    1.0222494   -2.6360238      1728000    213.44785         7700         1876 
 1550000   0.98230018   -2.5835883      1728000     215.0472         7750         1881 
 1560000   0.99087397   -2.7624609      1728000    216.64551         7800         1885 
 1570000   0.97644977   -2.7012294      1728000    218.23528         7850         1886 
 1580000   0.98790243   -2.8287558      1728000    219.85724         7900         1892 
 1590000    1.0332588   -2.7554784      1728000    221.49337         7950         1893 
 1600000    0.9780811   -2.6149364      1728000    223.08839         8000         1897 
 1610000    1.0661237   -2.6964448      1728000    224.72313         8050         1901 
 1620000   0.92534599   -2.7963237      1728000    226.34934         8100         1903 
 1630000    1.0269586   -2.7737265      1728000    227.97438         8150         1908 
 1640000   0.93479376   -2.7795228      1728000     229.6175         8200         1910 
 1650000   0.99342552    -2.702849      1728000    231.21834         8250         1918 
 1660000   0.94825766   -2.7949465      1728000    232.81537         8300         1921 
 1670000   0.93167429   -2.7161964      1728000    234.43506         8350         1929 
 1680000   0.98294392    -2.691254      1728000    236.05229         8400         1931 
 1690000    1.0309544   -2.6446195      1728000    237.66437         8450         1934 
 1700000   0.92454241   -2.6365748      1728000    239.29737         8500         1939 
 1710000   0.95715678   -2.7289878      1728000    240.92843         8550         1945 
 1720000   0.95293179   -2.6378943      1728000    242.54732         8600         1951 
 1730000     1.029061   -2.6258787      1728000    244.15151         8650         1955 
 1740000    0.9973455   -2.6892911      1728000    245.75455         8700         1957 
 1750000    1.0370286   -2.6857416      1728000    247.35456         8750         1960 
 1760000   0.96210744   -2.6805257      1728000    248.94524         8800         1965 
 1770000   0.95511467   -2.5272976      1728000    250.54458         8850         1974 
 1780000    1.0264188   -2.5850036      1728000    252.13256         8900         1979 
 1790000   0.99468375   -2.7360149      1728000    253.74635         8950         1985 
 1800000    1.0203755   -2.7463249      1728000    255.38335         9000         1991 
 1810000    1.0090968   -2.6961365      1728000    257.01634         9050         1993 
 1820000    1.0119014   -2.5520213      1728000     258.7033         9100         2002 
 1830000    1.0032997   -2.6436034      1728000    260.40095         9150         2007 
 1840000   0.97182738   -2.7222304      1728000    262.00778         9200         2011 
 1850000   0.99628697   -2.6913427      1728000    263.63239         9250         2018 
 1860000    1.0459928   -2.6014521      1728000    265.21779         9300         2022 
 1870000   0.96635021   -2.6172344      1728000     266.8237         9350         2028 
 1880000   0.97118391   -2.7495976      1728000    268.46849         9400         2032 
 1890000    1.0096426   -2.7121278      1728000    270.08741         9450         2036 
 1900000   0.95037582   -2.6794276      1728000    271.76591         9500         2045 
 1910000     1.045631   -2.7431797      1728000    273.40073         9550         2052 
 1920000    1.0378064   -2.6561478      1728000    275.02835         9600         2059 
 1930000    0.9782482   -2.6251862      1728000    276.64558         9650         2065 
 1940000    1.0126057    -2.740115      1728000    278.27644         9700         2071 
 1950000    1.0013314   -2.8607902      1728000    279.92322         9750         2077 
 1960000    1.0259004   -2.5677067      1728000    281.54346         9800         2087 
 1970000   0.97586217   -2.8299878      1728000    283.19346         9850         2095 
 1980000    1.0677096   -2.7445646      1728000    284.83439         9900         2101 
 1990000    1.0164962   -2.8278536      1728000    286.51324         9950         2105 
 2000000    1.0240377   -2.8689585      1728000    288.18254        10000         2113 
 2010000    1.0679816   -2.7715176      1728000    289.82544        10050         2124 
 2020000    1.0313192   -2.7077984      1728000    291.48044        10100         2127 
 2030000    1.0176861   -2.5607919      1728000    293.11132        10150         2131 
 2040000   0.98816448   -2.6904549      1728000    294.76575        10200         2134 
 2050000    1.0206513   -2.7653762      1728000    296.39035        10250         2139 
 2060000    1.0165842   -2.8263367      1728000    298.03655        10300         2145 
 2070000   0.96201414   -2.8363505      1728000    299.67224        10350         2148 
 2080000    1.0155746    -2.804305      1728000    301.35549        10400         2153 
 2090000    1.0254314   -2.7694787      1728000    303.01137        10450         2160 
 2100000    1.0230878   -2.8165124      1728000    304.69145        10500         2167 
 2110000    1.0352665   -2.6151822      1728000    306.38861        10550         2174 
 2120000    1.1399361   -2.7741314      1728000    308.00424        10600         2180 
 2130000   0.95001994   -2.7010044      1728000    309.68437        10650         2188 
 2140000   0.97826923   -2.7381855      1728000    311.30246        10700         2197 
 2150000    1.0611765   -2.7633825      1728000    312.93547        10750         2203 
 2160000   0.97025156   -2.8598305      1728000    314.56966        10800         2207 
 2170000   0.91174772   -2.6884039      1728000    316.17439        10850         2214 
 2180000    1.0352153   -2.6697757      1728000    317.77837        10900         2216 
 2190000    1.0511995   -2.8448069      1728000    319.42452        10950         2222 
 2200000    1.0066593   -2.7878706      1728000    321.12852        11000         2226 
 2210000    1.0033298    -2.835991      1728000     322.7834        11050         2230 
 2220000    1.0099234   -2.8798856      1728000    324.41856        11100         2236 
 2230000    1.0068786   -2.6578889      1728000    326.04339        11150         2240 
 2240000   0.99825842   -2.7074248      1728000    327.63567        11200         2245 
 2250000   0.98802796   -2.7512812      1728000    329.24141        11250         2251 
 2260000    1.0816416   -2.6821667      1728000    330.85967        11300         2259 
 2270000   0.98008752   -2.7666817      1728000    332.49553        11350         2263 
 2280000    1.0565109   -2.7301163      1728000    334.11667        11400         2266 
 2290000     1.024724   -2.6749788      1728000    335.73257        11450         2275 
 2300000   0.96879585    -2.771535      1728000    337.38445        11500         2281 
 2310000   0.95036028   -2.7181723      1728000     339.0156        11550         2285 
 2320000   0.98962814   -2.7371977      1728000    340.66239        11600         2287 
 2330000   0.95967948   -2.8276902      1728000    342.29029        11650         2293 
 2340000    0.9788434   -2.7730461      1728000    343.92442        11700         2298 
 2350000    1.0517123   -2.7644101      1728000    345.53746        11750         2305 
 2360000    1.0136748   -2.7497604      1728000    347.19975        11800         2311 
 2370000    0.9265709   -2.8624719      1728000    348.84143        11850         2319 
 2380000    1.0618427   -2.7023902      1728000    350.49245        11900         2326 
 2390000     1.047927   -2.6845194      1728000    352.14944        11950         2332 
 2400000    1.0081665   -2.7600152      1728000    353.79123        12000         2338 
 2410000    1.0343618   -2.8995307      1728000    355.46777        12050         2340 
 2420000    1.0197961   -2.8490952      1728000    357.11868        12100         2342 
 2430000    1.0277274   -2.8392565      1728000    358.77129        12150         2346 
 2440000    1.0477606   -2.9486742      1728000    360.42534        12200         2353 
 2450000    1.0127456   -2.7932329      1728000    362.06667        12250         2358 
 2460000   0.98583121   -2.7672425      1728000    363.72535        12300         2361 
 2470000   0.97445208   -2.7965705      1728000    365.38744        12350         2364 
 2480000   0.99752299   -2.8109192      1728000    367.04438        12400         2366 
 2490000   0.95253669   -2.8499008      1728000    368.66253        12450         2369 
 2500000      1.02315   -2.7091385      1728000    370.32272        12500         2380 
 2510000    1.0004042   -2.8753144      1728000    371.97259        12550         2384 
 2520000   0.98438429   -2.8888592      1728000    373.64545        12600         2390 
 2530000   0.92042616   -2.8806277      1728000    375.35627        12650         2393 
 2540000    1.0477627   -2.9258893      1728000    377.04741        12700         2396 
 2550000   0.99800882    -2.801057      1728000     378.7279        12750         2400 
 2560000     1.046413   -2.9950298      1728000    380.41231        12800         2403 
 2570000      1.05108   -2.9041226      1728000    382.06872        12850         2405 
 2580000    1.0157651   -2.9511739      1728000    383.73258        12900         2408 
 2590000    1.0835075   -2.9150075      1728000     385.4146        12950         2413 
 2600000   0.94335271   -3.0374676      1728000    387.09459        13000         2419 
 2610000   0.97985036   -2.9846408      1728000    388.79344        13050         2425 
 2620000   0.99048839   -3.0430177      1728000     390.4986        13100         2428 
 2630000   0.99561773   -3.0734206      1728000    392.19048        13150         2430 
 2640000    0.9955273   -2.8743016      1728000    393.89547        13200         2431 
 2650000   0.97461628   -2.9105305      1728000    395.58051        13250         2436 
 2660000   0.98977366   -2.8555118      1728000    397.28389        13300         2440 
 2670000    1.0495268   -2.9207331      1728000     398.9555        13350         2447 
 2680000   0.96084835   -2.8321886      1728000    400.67758        13400         2449 
 2690000   0.98370721   -2.9084938      1728000    402.36956        13450         2455 
 2700000   0.98800626   -3.0177427      1728000    404.06741        13500         2458 
 2710000    1.0943492    -2.859138      1728000    405.75661        13550         2462 
 2720000    0.9244458    -2.914611      1728000    407.46351        13600         2465 
 2730000    1.0047066   -2.7390168      1728000    409.13667        13650         2467 
 2740000    1.0684388   -2.9471084      1728000    410.82647        13700         2469 
 2750000   0.95984167   -2.9678075      1728000    412.51463        13750         2475 
 2760000    1.0139462   -3.0157082      1728000    414.18938        13800         2479 
 2770000     1.000925   -3.0274734      1728000    415.88249        13850         2484 
 2780000   0.96720875   -2.9406102      1728000    417.55828        13900         2487 
 2790000   0.97094345   -3.0225466      1728000    419.25549        13950         2489 
 2800000    1.0006926    -2.986074      1728000    420.94143        14000         2493 
 2810000    1.0298245   -2.9150122      1728000     422.6377        14050         2495 
 2820000    1.0195078   -2.9607921      1728000    424.32655        14100         2496 
 2830000    1.0232467    -2.931557      1728000    426.02658        14150         2499 
 2840000     1.004615   -2.9362433      1728000    427.71665        14200         2501 
 2850000   0.97079984   -2.8793196      1728000    429.38957        14250         2503 
 2860000    1.0025803   -2.7758196      1728000    431.05358        14300         2508 
 2870000   0.96747801    -2.879666      1728000    432.72042        14350         2512 
 2880000     1.023198    -2.915032      1728000     434.3775        14400         2515 
 2890000    1.0010288   -2.9538382      1728000    436.06075        14450         2516 
 2900000    1.0041158    -2.886395      1728000    437.75177        14500         2519 
 2910000    1.0967999   -3.0291317      1728000    439.43538        14550         2523 
 2920000   0.96223907   -2.8932133      1728000    441.13255        14600         2524 
 2930000     1.040852   -2.9668674      1728000    442.83677        14650         2528 
 2940000    1.0094804    -2.952151      1728000    444.54454        14700         2529 
 2950000    1.0239467   -2.9438631      1728000    446.22972        14750         2531 
 2960000   0.94950461   -2.9779682      1728000    447.90244        14800         2535 
 2970000   0.97269645   -2.9928136      1728000    449.60371        14850         2538 
 2980000   0.91275317   -2.8707402      1728000    451.27762        14900         2539 
 2990000    1.0306447   -2.8871349      1728000    452.93967        14950         2543 
 3000000     1.027109   -2.9421776      1728000    454.66554        15000         2548 
 3010000   0.96871715   -3.0180937      1728000    456.37858        15050         2549 
 3020000    1.0139402   -2.8919551      1728000    458.07547        15100         2550 
 3030000    1.0364093   -3.0121004      1728000    459.73672        15150         2553 
 3040000   0.95454779   -2.8757074      1728000    461.41564        15200         2556 
 3050000   0.96821467   -2.9627012      1728000    463.11173        15250         2565 
 3060000   0.94513579   -2.8691172      1728000    464.80059        15300         2570 
 3070000    1.0327676   -2.7948582      1728000    466.50172        15350         2577 
 3080000   0.96778693   -2.9229704      1728000    468.17673        15400         2581 
 3090000     1.049198   -2.8938541      1728000    469.86975        15450         2584 
 3100000    1.0642343   -2.9083183      1728000    471.56651        15500         2589 
 3110000    1.0420408   -2.8977471      1728000     473.2427        15550         2592 
 3120000   0.97415663   -2.7734707      1728000    474.89958        15600         2595 
 3130000     1.042626   -2.7646797      1728000    476.55067        15650         2598 
 3140000   0.98910473   -2.8287574      1728000    478.25761        15700         2601 
 3150000     1.016508   -2.9978704      1728000    479.91975        15750         2606 
 3160000    1.0203493   -2.9230891      1728000    481.60363        15800         2611 
 3170000   0.97886164   -2.9866227      1728000    483.31047        15850         2618 
 3180000   0.97077418   -3.0905079      1728000    485.01458        15900         2620 
 3190000   0.96957771   -2.9699457      1728000    486.70968        15950         2621 
 3200000    1.0059642   -2.9741221      1728000    488.42872        16000         2626 
 3210000    1.0300332    -3.050798      1728000    490.12245        16050         2627 
 3220000   0.97154525   -2.9871674      1728000    491.81207        16100         2628 
 3230000   0.93933363   -2.9411022      1728000    493.52255        16150         2634 
 3240000   0.97304917   -2.9980253      1728000    495.22472        16200         2637 
 3250000      1.00732   -2.9286287      1728000    496.95347        16250         2643 
 3260000    1.0544537   -3.1577429      1728000    498.64945        16300         2645 
 3270000    1.0543503   -3.0476611      1728000    500.36824        16350         2650 
 3280000   0.94145542   -2.8446901      1728000    502.06323        16400         2652 
 3290000   0.98906613   -3.0774884      1728000    503.75068        16450         2654 
 3300000   0.99369001   -2.9883859      1728000    505.46466        16500         2655 
 3310000    1.0079832   -3.0516356      1728000    507.16753        16550         2656 
 3320000     1.034319   -2.9342721      1728000    508.88355        16600         2660 
 3330000    1.0003389   -2.8378928      1728000    510.57864        16650         2663 
 3340000    1.0291624   -2.9093017      1728000    512.27152        16700         2666 
 3350000    1.0015864   -3.0233011      1728000    513.98267        16750         2670 
 3360000    1.0209089   -3.0019818      1728000    515.68375        16800         2675 
 3370000   0.99691108   -3.0193964      1728000    517.35771        16850         2679 
 3380000    1.0081159   -2.8674804      1728000    519.05658        16900         2679 
 3390000    1.0001684      -3.1065      1728000    520.76685        16950         2684 
 3400000    1.0619031   -3.1098161      1728000    522.48079        17000         2688 
 3410000    1.0317546     -2.87703      1728000    524.18034        17050         2690 
 3420000     1.022197    -2.992043      1728000    525.85683        17100         2695 
 3430000    1.0977155   -3.0014952      1728000    527.55581        17150         2696 
 3440000   0.99465439    -2.972184      1728000    529.26967        17200         2698 
 3450000   0.97668727   -2.9757313      1728000    530.95868        17250         2698 
 3460000   0.98607754   -2.9359379      1728000    532.64861        17300         2702 
 3470000    1.0047643   -2.7990326      1728000    534.34573        17350         2705 
 3480000   0.99175851   -2.8651876      1728000    536.08729        17400         2711 
 3490000   0.99168352   -2.8978467      1728000    537.75676        17450         2716 
 3500000    1.0052635    -2.990782      1728000    539.50567        17500         2720 
 3510000    0.9594697   -2.9711047      1728000    541.20249        17550         2722 
 3520000    1.0281365   -2.9736835      1728000    542.89562        17600         2723 
 3530000    1.0191914   -2.8754885      1728000    544.58874        17650         2726 
 3540000    1.0768036   -3.0383297      1728000    546.28759        17700         2731 
 3550000    1.0264108   -2.8734879      1728000    547.99656        17750         2736 
 3560000    1.0859442   -3.0075651      1728000    549.69376        17800         2742 
 3570000    0.9607306   -3.0951591      1728000     551.3857        17850         2745 
 3580000   0.95353172   -3.0445968      1728000    553.09259        17900         2746 
 3590000   0.98948794   -3.0311404      1728000    554.79271        17950         2748 
 3600000   0.97297337   -2.9912434      1728000    556.47559        18000         2752 
 3610000   0.90187642   -3.0216117      1728000    558.15662        18050         2754 
 3620000   0.99899826   -2.9886783      1728000     559.8477        18100         2756 
 3630000   0.97872966   -3.0083662      1728000    561.56958        18150         2760 
 3640000   0.99694491   -3.0593045      1728000    563.26976        18200         2765 
 3650000   0.99436072   -3.0558965      1728000    564.96668        18250         2767 
 3660000    1.0006315   -2.9525362      1728000    566.67609        18300         2771 
 3670000   0.98425671   -3.1044675      1728000    568.37897        18350         2773 
 3680000   0.96985366   -3.0009122      1728000    570.08078        18400         2779 
 3690000    1.0096244   -3.0261933      1728000    571.84186        18450         2781 
 3700000   0.97829854   -2.9969507      1728000    573.59081        18500         2784 
 3710000    1.0054249   -2.9576233      1728000    575.28127        18550         2788 
 3720000    1.0066271   -2.9175258      1728000    576.97781        18600         2792 
 3730000    1.0335466   -2.9632829      1728000    578.68011        18650         2795 
 3740000   0.98286386   -2.9736174      1728000    580.39783        18700         2799 
 3750000    1.0184426   -2.9547255      1728000     582.1148        18750         2803 
 3760000    1.0387545   -2.9388624      1728000    583.79177        18800         2807 
 3770000   0.94563314   -2.9660667      1728000     585.4506        18850         2808 
 3780000   0.94784847   -2.9913948      1728000    587.15275        18900         2810 
 3790000    1.0166087   -3.0414827      1728000    588.86169        18950         2814 
 3800000    1.0007153   -3.0584951      1728000    590.59345        19000         2818 
 3810000   0.92435786   -3.0908285      1728000    592.30767        19050         2823 
 3820000    1.0078895    -3.119106      1728000     594.0354        19100         2826 
 3830000    1.0298116   -3.1128406      1728000    595.76181        19150         2830 
 3840000    1.0199578   -3.0573234      1728000    597.47479        19200         2831 
 3850000    1.0301176   -3.0916438      1728000    599.20478        19250         2833 
 3860000   0.98350484   -3.1258036      1728000    600.94882        19300         2839 
 3870000    1.0065676   -3.0356811      1728000    602.68064        19350         2841 
 3880000    1.0001321   -3.0800919      1728000    604.39172        19400         2845 
 3890000   0.96619234   -2.9243545      1728000    606.10273        19450         2850 
 3900000    1.0581146   -3.2113107      1728000    607.83057        19500         2854 
 3910000   0.98700389   -3.1130003      1728000    609.57871        19550         2855 
 3920000    1.0094166   -3.1454844      1728000    611.26185        19600         2859 
 3930000    1.0058858   -3.2171508      1728000    612.95374        19650         2860 
 3940000    0.9443929   -3.0423775      1728000    614.66176        19700         2861 
 3950000   0.99578577   -3.1679026      1728000    616.36379        19750         2863 
 3960000    1.0257319   -3.3310583      1728000    618.08675        19800         2863 
 3970000    1.0434251   -3.0793306      1728000    619.80173        19850         2863 
 3980000    1.0289576   -3.1884464      1728000    621.49872        19900         2865 
 3990000   0.92910198   -3.1366095      1728000    623.19771        19950         2869 
 4000000    1.0494115   -3.1076435      1728000    624.91653        20000         2870 
 4010000   0.98560653   -3.0762815      1728000    626.59577        20050         2874 
 4020000     1.026507   -3.0191188      1728000    628.28675        20100         2878 
 4030000   0.99774967   -3.1585355      1728000    629.98113        20150         2878 
 4040000     1.048921    -3.148046      1728000    631.73555        20200         2880 
 4050000    1.0173541   -3.0575362      1728000    633.46471        20250         2881 
 4060000   0.94296869    -3.123333      1728000    635.18261        20300         2882 
 4070000    1.0014715   -3.0755542      1728000    636.91164        20350         2886 
 4080000   0.93449493   -2.9697432      1728000    638.62788        20400         2889 
 4090000   0.96569067   -3.0729146      1728000    640.36666        20450         2895 
 4100000    1.0033517   -3.0372699      1728000    642.07379        20500         2899 
 4110000    1.0295065   -3.0301906      1728000    643.76677        20550         2901 
 4120000   0.96914113   -3.0834088      1728000    645.45914        20600         2901 
 4130000     1.010689   -3.0926774      1728000    647.15524        20650         2903 
 4140000   0.99323286   -3.0570389      1728000    648.83392        20700         2908 
 4150000   0.97790768    -3.102876      1728000    650.52188        20750         2909 
 4160000   0.96622855   -3.1103738      1728000    652.20566        20800         2913 
 4170000    1.0010353    -3.125936      1728000    653.93055        20850         2916 
 4180000   0.95448022   -3.1184912      1728000    655.65177        20900         2919 
 4190000    1.0645997    -3.101814      1728000    657.37484        20950         2924 
 4200000    1.0182298   -2.9837641      1728000    659.09781        21000         2925 
 4210000    1.0142034   -2.9952677      1728000    660.81086        21050         2929 
 4220000    1.0192282    -3.034646      1728000    662.55485        21100         2934 
 4230000   0.99104629   -3.0575845      1728000    664.25879        21150         2936 
 4240000    1.0037573   -3.0053681      1728000    665.98388        21200         2940 
 4250000    1.0004257   -3.1514978      1728000    667.72381        21250         2941 
 4260000   0.99016632   -3.1927915      1728000    669.44777        21300         2945 
 4270000    1.0391399   -3.0299989      1728000    671.18078        21350         2946 
 4280000   0.97330526   -3.0413055      1728000    672.91683        21400         2950 
 4290000   0.98621285    -3.070133      1728000    674.66886        21450         2952 
 4300000    1.0275739   -3.0371394      1728000    676.40068        21500         2954 
 4310000    1.0607108    -3.111536      1728000    678.12886        21550         2957 
 4320000   0.97058937   -2.9819593      1728000    679.85873        21600         2962 
 4330000      1.03716    -3.030969      1728000    681.57982        21650         2966 
 4340000    1.0021821   -3.0767345      1728000    683.30265        21700         2969 
 4350000   0.94265592   -3.0997243      1728000    685.02082        21750         2973 
 4360000    1.0360405   -3.0995412      1728000    686.75391        21800         2974 
 4370000   0.97213326   -3.0840281      1728000     688.4479        21850         2980 
 4380000   0.97238017   -3.1999496      1728000    690.15286        21900         2984 
 4390000   0.93937307   -3.1610782      1728000    691.84887        21950         2989 
 4400000    1.0338604   -3.0533819      1728000    693.56577        22000         2989 
 4410000   0.98719781   -3.1266432      1728000    695.29585        22050         2994 
 4420000    1.0283307   -3.0328577      1728000    697.00987        22100         3007 
 4430000    1.0434219   -3.0241328      1728000    698.71386        22150         3008 
 4440000   0.98808528   -2.9887784      1728000    700.42286        22200         3011 
 4450000   0.98821545   -3.1049506      1728000    702.15474        22250         3015 
 4460000    1.0699898   -3.0118584      1728000    703.83678        22300         3019 
 4470000    1.0133433   -3.0671999      1728000    705.51865        22350         3024 
 4480000    1.0626076   -3.0557335      1728000    707.23163        22400         3027 
 4490000   0.98477549   -2.9655702      1728000    708.95684        22450         3031 
 4500000   0.98789488   -3.0300201      1728000    710.70053        22500         3035 
 4510000   0.98805262   -3.1069888      1728000    712.40444        22550         3039 
 4520000    1.0324001    -2.941339      1728000    714.12918        22600         3043 
 4530000   0.96412991   -2.9144417      1728000    715.82779        22650         3048 
 4540000    1.0582795   -3.0416765      1728000    717.53765        22700         3052 
 4550000    1.0012519   -3.0932909      1728000    719.26686        22750         3056 
 4560000   0.93591762   -3.1794694      1728000     721.0009        22800         3058 
 4570000    1.0549739   -3.0355219      1728000    722.73863        22850         3062 
 4580000   0.96410426   -3.0807636      1728000    724.46493        22900         3064 
 4590000   0.98364345   -3.2181018      1728000    726.18185        22950         3068 
 4600000   0.96571722   -3.1507605      1728000    727.89794        23000         3071 
 4610000    1.0388501   -3.0701599      1728000    729.58093        23050         3073 
 4620000    1.0488733   -3.0071822      1728000    731.27197        23100         3075 
 4630000    0.9967125   -3.0225822      1728000     732.9547        23150         3077 
 4640000    1.0424841   -2.9878857      1728000    734.63495        23200         3078 
 4650000   0.98126285   -3.0915681      1728000    736.36282        23250         3079 
 4660000    1.0401949   -3.0460779      1728000    738.14896        23300         3080 
 4670000   0.93599508   -3.1906716      1728000     739.8778        23350         3084 
 4680000    1.0699154   -3.0305662      1728000    741.56486        23400         3087 
 4690000    1.0381307   -3.0982939      1728000    743.24568        23450         3090 
 4700000   0.99797819   -2.9986943      1728000      744.938        23500         3094 
 4710000    0.9927952   -3.0399839      1728000      746.616        23550         3096 
 4720000   0.98125002   -2.9381001      1728000    748.32265        23600         3099 
 4730000   0.98601794   -3.0045551      1728000    749.99656        23650         3102 
 4740000   0.94497815   -3.0496711      1728000    751.66067        23700         3105 
 4750000   0.99586115   -2.9265402      1728000    753.34099        23750         3106 
 4760000   0.99734397   -3.0965449      1728000    755.00585        23800         3110 
 4770000     1.060527   -3.0803478      1728000     756.6918        23850         3113 
 4780000   0.99914857    -3.195946      1728000    758.38487        23900         3117 
 4790000   0.97634182   -3.1005259      1728000    760.06817        23950         3117 
 4800000    1.0001168   -3.0050311      1728000    761.74569        24000         3119 
 4810000    1.0240277   -3.1825916      1728000    763.45752        24050         3127 
 4820000   0.99173815   -3.0565231      1728000     765.1563        24100         3130 
 4830000     1.026859   -3.0156015      1728000    766.83352        24150         3135 
 4840000   0.99314768   -3.0725388      1728000    768.50942        24200         3137 
 4850000     1.053831   -2.9350068      1728000    770.18489        24250         3140 
 4860000   0.97263539   -3.0937772      1728000    771.86694        24300         3145 
 4870000    1.0095918   -3.0637921      1728000    773.56971        24350         3148 
 4880000   0.96401474   -3.1138708      1728000    775.31692        24400         3151 
 4890000    1.0476604   -3.0756288      1728000    777.05593        24450         3152 
 4900000   0.96473828    -3.035238      1728000    778.79194        24500         3155 
 4910000    1.0329429   -2.9684187      1728000    780.52386        24550         3157 
 4920000    1.0198297   -3.0927936      1728000    782.23283        24600         3163 
 4930000    1.0083827   -2.9929494      1728000    783.96198        24650         3167 
 4940000    1.0567033   -3.1124297      1728000      785.661        24700         3172 
 4950000    1.0567825   -3.0795043      1728000    787.38596        24750         3177 
 4960000    1.0313006    -3.061006      1728000    789.13653        24800         3178 
 4970000   0.98013933    -3.242197      1728000    790.89605        24850         3180 
 4980000    1.0001748   -3.0243944      1728000     792.6387        24900         3189 
 4990000   0.99227713    -3.120587      1728000    794.37488        24950         3191 
 5000000    1.0328565   -3.0203704      1728000    796.14692        25000         3191 
 5010000    1.0180604   -3.0801848      1728000    797.88487        25050         3197 
 5020000   0.94553977   -3.1065106      1728000    799.63095        25100         3199 
 5030000   0.96907916   -3.2174397      1728000    801.37298        25150         3201 
 5040000     1.057723   -3.1353043      1728000    803.11492        25200         3203 
 5050000    0.9967305   -3.0026377      1728000    804.86895        25250         3207 
 5060000   0.99445789   -3.1470371      1728000    806.60794        25300         3210 
 5070000    1.0449544   -3.0985057      1728000    808.30904        25350         3214 
 5080000   0.95545374   -3.1641501      1728000    810.01892        25400         3218 
 5090000   0.95918816   -3.0323817      1728000     811.7139        25450         3220 
 5100000   0.95135031   -3.0350108      1728000    813.43284        25500         3220 
 5110000   0.98861409   -3.1203302      1728000    815.13693        25550         3222 
 5120000    1.0419388   -3.2004589      1728000    816.82106        25600         3227 
 5130000    1.0379491   -3.1201149      1728000    818.63008        25650         3231 
 5140000    1.0246208   -3.2156882      1728000    820.38217        25700         3232 
 5150000    1.0110217   -3.0872117      1728000    822.11896        25750         3233 
 5160000   0.94545543   -3.0612182      1728000    823.84702        25800         3238 
 5170000   0.97916853   -3.1205124      1728000    825.59319        25850         3239 
 5180000    1.0035381   -3.0656107      1728000    827.32147        25900         3244 
 5190000   0.99459114   -3.0530462      1728000     829.0659        25950         3247 
 5200000   0.99244968   -3.1560126      1728000    830.78599        26000         3251 
 5210000   0.98775913   -3.0283897      1728000    832.52006        26050         3255 
 5220000   0.97914619    -3.172268      1728000    834.27361        26100         3259 
 5230000   0.98940243   -3.0359061      1728000    836.08014        26150         3262 
 5240000    1.0009574   -3.0220959      1728000    837.83407        26200         3263 
 5250000   0.95156609   -3.1244151      1728000    839.57601        26250         3265 
 5260000   0.98794175   -3.0863576      1728000    841.30808        26300         3268 
 5270000   0.98041066   -3.2253976      1728000    843.04952        26350         3271 
 5280000   0.96826235   -3.1399806      1728000      844.807        26400         3273 
 5290000    1.0321613   -3.1522115      1728000    846.56306        26450         3273 
 5300000    1.0488235    -3.139393      1728000    848.32522        26500         3276 
 5310000   0.93818114   -3.0587117      1728000    850.08501        26550         3284 
 5320000   0.96487508   -3.2435417      1728000    851.83992        26600         3286 
 5330000   0.94522626   -3.2471033      1728000    853.60006        26650         3290 
 5340000   0.91304994   -3.1214629      1728000    855.34308        26700         3293 
 5350000    1.0334699   -3.1726114      1728000    857.08489        26750         3293 
 5360000     1.001811   -3.1098927      1728000    858.83183        26800         3297 
 5370000    1.0032316   -3.0104482      1728000    860.56301        26850         3299 
 5380000    1.0518645    -3.126163      1728000     862.2849        26900         3303 
 5390000    1.0117799   -3.0231793      1728000    863.98995        26950         3307 
 5400000   0.97186004   -2.9933863      1728000    865.72041        27000         3311 
 5410000   0.94120379   -3.0379677      1728000    867.45687        27050         3313 
 5420000   0.95469008   -3.0595175      1728000    869.17455        27100         3316 
 5430000   0.99913102   -3.1178958      1728000    870.88979        27150         3320 
 5440000   0.97522789   -3.1585241      1728000    872.64205        27200         3321 
 5450000    0.9868525   -3.1049162      1728000    874.44032        27250         3323 
 5460000   0.97221389   -3.0741453      1728000    876.18625        27300         3323 
 5470000    1.0588201   -3.0604697      1728000    877.90463        27350         3327 
 5480000    0.9798846   -3.0172285      1728000    879.65483        27400         3333 
 5490000   0.98535562   -2.9123461      1728000    881.37326        27450         3336 
 5500000    1.0126217   -3.1549635      1728000    883.13012        27500         3339 
 5510000    1.0131165   -3.1313713      1728000    884.87291        27550         3343 
 5520000   0.93260758   -3.0823932      1728000      886.623        27600         3346 
 5530000   0.97610476   -3.0579884      1728000    888.35506        27650         3348 
 5540000   0.96880895   -3.0385142      1728000    890.10616        27700         3352 
 5550000   0.98222084   -2.9811142      1728000     891.8381        27750         3355 
 5560000    1.0278062   -3.1180568      1728000    893.57004        27800         3359 
 5570000   0.93382253    -3.021995      1728000    895.30896        27850         3364 
 5580000   0.96959791   -3.0413814      1728000    897.04305        27900         3370 
 5590000   0.99949324   -3.1369421      1728000    898.77302        27950         3374 
 5600000   0.98892205   -3.0098595      1728000    900.50187        28000         3378 
 5610000    1.0614116   -2.9830461      1728000    902.22108        28050         3385 
 5620000    1.0571796   -2.9617661      1728000     903.9461        28100         3390 
 5630000    1.0059715   -3.0019668      1728000    905.67788        28150         3394 
 5640000   0.99209011   -3.0174161      1728000    907.38503        28200         3397 
 5650000   0.95922581   -2.9606668      1728000    909.14647        28250         3403 
 5660000   0.95033329    -2.970521      1728000    910.87106        28300         3405 
 5670000    1.0429702   -3.1748938      1728000    912.60719        28350         3412 
 5680000    1.0387134   -3.1233023      1728000     914.3378        28400         3416 
 5690000    1.0110537   -3.1568467      1728000    916.07475        28450         3420 
 5700000     1.068743   -2.9662686      1728000     917.8291        28500         3422 
 5710000    1.0085201    -3.176938      1728000    919.58955        28550         3427 
 5720000   0.96271788   -3.1455467      1728000    921.34241        28600         3428 
 5730000    1.0227333   -3.1207389      1728000    923.08386        28650         3430 
 5740000    1.0430969   -3.0558457      1728000    924.80789        28700         3436 
 5750000   0.92892157   -3.0709308      1728000    926.53713        28750         3440 
 5760000    1.0500134   -3.0750062      1728000    928.28512        28800         3444 
 5770000   0.92957511   -3.1309989      1728000    930.03094        28850         3444 
 5780000   0.96864149   -3.1023905      1728000    931.78811        28900         3446 
 5790000    1.0788231   -3.0947955      1728000    933.53591        28950         3450 
 5800000    1.0151907   -3.1885961      1728000    935.29135        29000         3455 
 5810000   0.96525267   -3.1624697      1728000    937.06013        29050         3456 
 5820000   0.97630891   -2.9534948      1728000     938.8084        29100         3457 
 5830000     1.022812   -3.1015923      1728000    940.54211        29150         3460 
 5840000   0.98459528   -3.1753772      1728000    942.27088        29200         3461 
 5850000   0.95190759   -3.0971278      1728000    944.00205        29250         3470 
 5860000    1.0215559   -3.0426704      1728000    945.73404        29300         3473 
 5870000   0.98175416   -3.0429381      1728000    947.47207        29350         3474 
 5880000    1.0699055   -3.1045256      1728000    949.21715        29400         3478 
 5890000   0.92613395    -2.982842      1728000    950.95416        29450         3485 
 5900000    1.0196676   -3.1005998      1728000    952.69109        29500         3488 
 5910000   0.98784843   -2.9509134      1728000    954.41713        29550         3491 
 5920000    1.0110197   -3.0545908      1728000    956.16307        29600         3493 
 5930000   0.98749358    -3.092651      1728000    957.90024        29650         3495 
 5940000   0.96193398   -3.0800336      1728000    959.63217        29700         3502 
 5950000   0.98498004   -2.9858479      1728000    961.38611        29750         3503 
 5960000    1.0453674   -3.0535902      1728000    963.15016        29800         3506 
 5970000    1.0016787   -3.1365884      1728000    964.89879        29850         3507 
 5980000   0.94455498   -3.1193013      1728000    966.65606        29900         3509 
 5990000    0.9889342   -3.0327854      1728000    968.38605        29950         3514 
 6000000   0.98643643   -3.0790407      1728000    970.10909        30000         3515 
 6010000    1.0022139   -3.0614841      1728000     971.8221        30050         3518 
 6020000   0.98295091   -3.0680904      1728000    973.55301        30100         3520 
 6030000   0.97882118   -3.1688596      1728000    975.30511        30150         3522 
 6040000    1.0749438    -2.957031      1728000    977.12008        30200         3522 
 6050000   0.99860407   -3.0150526      1728000    978.91223        30250         3526 
 6060000    1.0089685   -3.1836606      1728000    980.71326        30300         3527 
 6070000    1.0246125   -3.0202638      1728000    982.44399        30350         3530 
 6080000   0.92608184   -3.0032412      1728000    984.15284        30400         3533 
 6090000    1.0511438   -3.1248378      1728000      985.879        30450         3538 
 6100000    1.0033473   -3.1441238      1728000    987.64409        30500         3540 
 6110000   0.97138372   -3.0424271      1728000    989.39413        30550         3544 
 6120000    1.0729477   -3.0835331      1728000    991.11894        30600         3547 
 6130000    1.0640412   -2.9523206      1728000     992.8652        30650         3549 
 6140000    1.0189161   -3.0184947      1728000    994.59792        30700         3550 
 6150000    1.0237609   -3.0653711      1728000    996.30713        30750         3553 
 6160000     1.044345   -3.0536648      1728000    998.03804        30800         3554 
 6170000    1.0447176   -3.0726977      1728000    999.75741        30850         3558 
 6180000    1.0171333   -3.1543155      1728000    1001.5089        30900         3565 
 6190000    1.0130155   -3.0808557      1728000    1003.2435        30950         3570 
 6200000    1.0414472   -3.0187536      1728000    1004.9862        31000         3572 
 6210000    1.0277925   -3.0676481      1728000    1006.7172        31050         3574 
 6220000   0.97796962   -3.0359059      1728000    1008.4369        31100         3576 
 6230000     1.003371   -3.0078703      1728000    1010.1751        31150         3580 
 6240000   0.97695504   -2.9272033      1728000    1011.8888        31200         3583 
 6250000    1.0247876   -3.0414624      1728000    1013.6101        31250         3587 
 6260000    1.0323237   -3.0714182      1728000    1015.3362        31300         3589 
 6270000    1.0305209   -3.0546779      1728000     1017.065        31350         3591 
 6280000    1.0806686   -3.0305381      1728000    1018.7915        31400         3594 
 6290000    1.0170196    -3.001289      1728000    1020.5199        31450         3595 
 6300000    1.0697972   -3.1206596      1728000     1022.314        31500         3600 
 6310000    1.0354931   -3.0999189      1728000    1024.0509        31550         3603 
 6320000   0.97594452   -3.0679353      1728000     1025.799        31600         3608 
 6330000    0.9636801   -3.0590027      1728000    1027.5571        31650         3610 
 6340000   0.98639114   -3.1407251      1728000    1029.3132        31700         3615 
 6350000   0.96886312   -3.0482162      1728000    1031.0391        31750         3619 
 6360000    1.0453404   -2.9994544      1728000    1032.7729        31800         3620 
 6370000    1.0420186   -3.0217622      1728000    1034.5161        31850         3623 
 6380000   0.99578869   -3.1743843      1728000    1036.2821        31900         3628 
 6390000    0.9747132   -3.1595866      1728000    1038.0643        31950         3631 
 6400000   0.96036075   -3.2122689      1728000    1039.8202        32000         3633 
 6410000    1.0049649   -3.1955597      1728000    1041.5951        32050         3634 
 6420000   0.97362439   -3.1241208      1728000    1043.3381        32100         3640 
 6430000   0.98025292   -3.2626717      1728000    1045.0981        32150         3641 
 6440000   0.95633998   -3.2164752      1728000    1046.8591        32200         3642 
 6450000   0.95661735   -3.0792412      1728000     1048.635        32250         3645 
 6460000    1.0232805   -3.1853969      1728000    1050.4012        32300         3646 
 6470000   0.99462526   -3.2318889      1728000    1052.2031        32350         3647 
 6480000    1.0368701   -3.2887256      1728000    1053.9912        32400         3647 
 6490000    1.0439782   -3.1861323      1728000    1055.7733        32450         3648 
 6500000   0.96752907   -3.2782366      1728000    1057.5643        32500         3654 
 6510000   0.99133097   -3.2965356      1728000    1059.3471        32550         3655 
 6520000    1.0300632   -3.3040844      1728000    1061.1127        32600         3655 
 6530000   0.98659571   -3.1649754      1728000    1062.8739        32650         3656 
 6540000   0.98385636   -3.2205551      1728000    1064.6402        32700         3659 
 6550000   0.99359109   -3.2834476      1728000    1066.4401        32750         3661 
 6560000    1.0534786   -3.1935726      1728000    1068.2651        32800         3661 
 6570000    0.9938336   -3.2638171      1728000    1070.0431        32850         3663 
 6580000     1.055403   -3.1577848      1728000    1071.8091        32900         3665 
 6590000    1.0441235   -3.1883572      1728000    1073.5606        32950         3669 
 6600000   0.99848472   -3.2738436      1728000    1075.3636        33000         3669 
 6610000    1.0004729   -3.1927116      1728000    1077.1482        33050         3669 
 6620000   0.94125497   -3.3049084      1728000    1078.9302        33100         3670 
 6630000   0.97289514   -3.2818487      1728000    1080.7312        33150         3671 
 6640000    1.0291224    -3.162554      1728000    1082.5003        33200         3671 
 6650000    1.0367433   -3.2212513      1728000    1084.2761        33250         3672 
 6660000    1.0547994   -3.1293746      1728000    1086.0634        33300         3675 
 6670000    1.0081043   -3.1627645      1728000    1087.8482        33350         3677 
 6680000   0.95904519   -3.1660278      1728000    1089.6113        33400         3680 
 6690000   0.98236368   -3.1960716      1728000    1091.3903        33450         3680 
 6700000   0.94760131   -3.0490971      1728000    1093.1541        33500         3683 
 6710000    1.0240999   -3.1332564      1728000    1094.9433        33550         3683 
 6720000    1.0503799    -3.182099      1728000    1096.7341        33600         3683 
 6730000    1.0005843   -3.2950463      1728000    1098.4982        33650         3686 
 6740000    1.0092218   -3.2715397      1728000    1100.2791        33700         3691 
 6750000    1.0150746   -3.3332032      1728000    1102.0612        33750         3695 
 6760000    1.0105617   -3.3059905      1728000    1103.8592        33800         3696 
 6770000   0.99602075   -3.2722996      1728000    1105.6402        33850         3696 
 6780000    1.0164266   -3.3461215      1728000    1107.4073        33900         3697 
 6790000    1.0084668   -3.2839033      1728000     1109.167        33950         3699 
 6800000    1.0111251   -3.2045279      1728000    1110.9663        34000         3699 
 6810000   0.98750311    -3.292912      1728000    1112.7421        34050         3700 
 6820000    1.0419667   -3.1123993      1728000    1114.5343        34100         3700 
 6830000   0.97238549   -3.2741887      1728000    1116.3401        34150         3701 
 6840000   0.98530829   -3.0660256      1728000    1118.0971        34200         3702 
 6850000   0.95000725   -3.1251393      1728000     1119.869        34250         3703 
 6860000    1.0589642   -3.1421443      1728000    1121.6473        34300         3705 
 6870000   0.96417444   -3.2976003      1728000    1123.4262        34350         3706 
 6880000    1.0474672   -3.2202126      1728000    1125.2112        34400         3709 
 6890000   0.97274631    -3.218467      1728000    1126.9902        34450         3710 
 6900000    1.0179999   -3.1955863      1728000    1128.7592        34500         3713 
 6910000    1.0155387   -3.1191637      1728000    1130.5492        34550         3714 
 6920000   0.95801707   -3.2726279      1728000    1132.3213        34600         3716 
 6930000    1.0293104   -3.3075094      1728000    1134.1023        34650         3718 
 6940000    1.0205801   -3.1288165      1728000    1135.8823        34700         3719 
 6950000    1.0064741   -3.2365054      1728000    1137.6433        34750         3720 
 6960000    1.0034625   -3.1430924      1728000    1139.4251        34800         3722 
 6970000    1.0262893   -3.1939405      1728000    1141.1924        34850         3723 
 6980000    1.0306365   -3.1568439      1728000    1142.9535        34900         3724 
 6990000    1.0114562   -3.1229246      1728000    1144.7153        34950         3726 
 7000000    1.0760452   -3.2069073      1728000    1146.5072        35000         3727 
 7010000   0.99340048   -3.2468799      1728000    1148.2741        35050         3730 
 7020000   0.96505366   -3.2239043      1728000    1150.0372        35100         3731 
 7030000    1.0248303   -3.2181087      1728000    1151.9081        35150         3731 
 7040000    1.0212581   -3.1035672      1728000    1153.7662        35200         3734 
 7050000     1.076783   -3.2055076      1728000    1155.5843        35250         3737 
 7060000   0.99513781   -3.2492717      1728000    1157.5323        35300         3738 
 7070000   0.98236153   -3.2165936      1728000    1159.3944        35350         3740 
 7080000   0.93965516   -3.1431571      1728000    1161.3314        35400         3744 
 7090000    0.9881463   -3.2370567      1728000    1163.1905        35450         3747 
 7100000    1.0810962   -3.2512649      1728000    1165.0226        35500         3749 
 7110000    1.0414556    -3.105627      1728000    1166.8192        35550         3751 
 7120000    1.0310985   -3.2398267      1728000    1168.6047        35600         3752 
 7130000   0.96451045   -3.2003509      1728000    1170.4069        35650         3756 
 7140000    1.0614309   -3.0744042      1728000    1172.2055        35700         3759 
 7150000    1.0279112   -3.2075583      1728000    1174.0146        35750         3759 
 7160000     1.052103   -3.1542411      1728000    1175.7933        35800         3761 
 7170000   0.95913435   -3.2578379      1728000    1177.5362        35850         3763 
 7180000    1.0659557   -3.1588354      1728000    1179.3093        35900         3765 
 7190000    1.0372166   -3.0280467      1728000    1181.0822        35950         3766 
 7200000    1.0105672    -3.175312      1728000    1182.8838        36000         3768 
 7210000   0.95957364   -3.2301279      1728000    1184.6384        36050         3771 
 7220000    0.9394946   -3.2468226      1728000    1186.4061        36100         3773 
 7230000    1.0065329   -3.2248195      1728000    1188.1722        36150         3776 
 7240000   0.93851204     -3.26313      1728000    1189.9636        36200         3777 
 7250000    1.0543973   -3.1210883      1728000    1191.7605        36250         3780 
 7260000    1.0629566   -3.1774608      1728000    1193.5418        36300         3780 
 7270000    0.9789881   -3.1334005      1728000    1195.2962        36350         3780 
 7280000    1.0314398   -3.1004379      1728000    1197.0616        36400         3781 
 7290000    1.0359561   -3.2353252      1728000    1198.8473        36450         3784 
 7300000    1.0082961   -3.2494727      1728000    1200.6245        36500         3787 
 7310000    1.0417393   -3.2637691      1728000    1202.4387        36550         3789 
 7320000   0.94494166   -3.2012359      1728000    1204.2291        36600         3790 
 7330000   0.92390758   -3.1276872      1728000    1206.0054        36650         3791 
 7340000    1.0001769   -3.2281971      1728000    1207.7772        36700         3793 
 7350000    1.0036269    -3.096498      1728000    1209.5402        36750         3796 
 7360000    1.0397744   -3.1116026      1728000    1211.3054        36800         3799 
 7370000    1.0294041   -3.1614709      1728000    1213.0744        36850         3801 
 7380000    1.0052842   -3.1062452      1728000     1214.832        36900         3802 
 7390000    1.0040609   -3.1369388      1728000    1216.6044        36950         3803 
 7400000   0.98242684   -3.1895291      1728000    1218.3595        37000         3807 
 7410000    1.0218177   -3.2077418      1728000    1220.1393        37050         3808 
 7420000   0.96207734   -3.1402902      1728000    1221.8953        37100         3813 
 7430000   0.95793722   -3.1766235      1728000    1223.6493        37150         3815 
 7440000    1.0197717    -3.247919      1728000    1225.3973        37200         3817 
 7450000   0.97582299   -3.1914589      1728000    1227.1663        37250         3817 
 7460000   0.98647123   -3.2264931      1728000    1228.9332        37300         3819 
 7470000    1.0382914   -3.1150877      1728000    1230.6944        37350         3822 
 7480000    1.0354803    -3.045305      1728000    1232.4544        37400         3825 
 7490000   0.99464654   -3.0290159      1728000    1234.1933        37450         3828 
 7500000    1.0608777    -3.258437      1728000    1235.9445        37500         3832 
 7510000   0.93249802   -3.1465232      1728000    1237.6971        37550         3835 
 7520000   0.92980821   -3.2807966      1728000    1239.4284        37600         3840 
 7530000   0.91155169   -3.0280405      1728000    1241.1822        37650         3842 
 7540000    0.9731913   -3.1725199      1728000    1242.9285        37700         3844 
 7550000    1.0890063   -3.1181524      1728000    1244.6953        37750         3850 
 7560000    1.0242131   -3.1308947      1728000    1246.4616        37800         3853 
 7570000    1.0539009   -3.0867073      1728000    1248.2033        37850         3855 
 7580000    1.0026728   -2.9721341      1728000    1249.9384        37900         3855 
 7590000   0.96396056   -3.0708513      1728000    1251.6852        37950         3855 
 7600000   0.95510642   -3.2633362      1728000    1253.4632        38000         3858 
 7610000    0.9479596    -3.102809      1728000    1255.2635        38050         3861 
 7620000    1.0050087   -3.1154523      1728000    1257.0795        38100         3861 
 7630000   0.98899092   -3.1441759      1728000    1258.8953        38150         3865 
 7640000   0.98572787   -3.0789636      1728000    1260.6923        38200         3868 
 7650000     1.029126   -3.1110295      1728000    1262.5155        38250         3870 
 7660000    1.0116053   -3.0178567      1728000    1264.3576        38300         3872 
 7670000   0.97575158   -3.0824416      1728000    1266.1737        38350         3873 
 7680000   0.97323108   -3.2041019      1728000    1267.9929        38400         3874 
 7690000     1.024149   -3.1600202      1728000     1269.836        38450         3874 
 7700000    1.0276893   -3.2876296      1728000     1271.751        38500         3875 
 7710000   0.99693905   -3.1379233      1728000    1273.5981        38550         3878 
 7720000    1.0326564   -3.2087509      1728000    1275.4702        38600         3880 
 7730000    0.9850104   -3.1606922      1728000    1277.3703        38650         3881 
 7740000    1.0071692   -3.1461128      1728000    1279.2114        38700         3883 
 7750000   0.94136995    -3.102018      1728000    1281.0075        38750         3884 
 7760000    1.0205285   -3.3269793      1728000    1282.9116        38800         3886 
 7770000    1.0484813   -3.3053949      1728000    1284.7447        38850         3887 
 7780000    1.0446712    -3.208237      1728000    1286.5675        38900         3889 
 7790000   0.99428629   -3.1872943      1728000    1288.3468        38950         3890 
 7800000   0.99340011   -3.2616675      1728000     1290.182        39000         3892 
 7810000    1.0384497   -3.1538419      1728000    1291.9823        39050         3894 
 7820000    1.0012998   -3.2675699      1728000    1293.7965        39100         3896 
 7830000    1.0011209   -3.3231774      1728000    1295.7055        39150         3897 
 7840000   0.96306418   -3.2560397      1728000    1297.5586        39200         3898 
 7850000   0.99629074   -3.1884369      1728000    1299.3907        39250         3900 
 7860000   0.98663441   -3.3004139      1728000    1301.2348        39300         3902 
 7870000   0.95212496    -3.229239      1728000     1303.087        39350         3903 
 7880000    1.0133235   -3.2539749      1728000    1304.9482        39400         3906 
 7890000    1.0781821   -3.2298206      1728000    1306.7524        39450         3907 
 7900000    1.0089382    -3.170447      1728000    1308.5885        39500         3909 
 7910000     1.012555   -3.2460599      1728000    1310.4496        39550         3911 
 7920000    1.0578302   -3.1918038      1728000    1312.3482        39600         3916 
 7930000    0.9667894   -3.1504016      1728000    1314.2064        39650         3917 
 7940000   0.96759259   -3.1863461      1728000    1316.0735        39700         3921 
 7950000    1.0346799   -3.1809348      1728000    1317.9343        39750         3923 
 7960000    1.0082303   -3.1398279      1728000    1319.8094        39800         3924 
 7970000    1.0258025   -3.2536804      1728000    1321.6715        39850         3925 
 7980000   0.96650314   -3.2860789      1728000    1323.5166        39900         3925 
 7990000    1.0561511   -3.2773489      1728000    1325.3693        39950         3929 
 8000000   0.98019199   -3.2166149      1728000     1327.212        40000         3930 
 8010000   0.98538307   -3.1795009      1728000    1329.0601        40050         3932 
 8020000    0.9704986   -3.2190938      1728000    1330.8884        40100         3934 
 8030000   0.98447639   -3.1559911      1728000    1332.7195        40150         3934 
 8040000   0.97720925   -3.0943293      1728000    1334.5533        40200         3935 
 8050000   0.95902056   -3.2230835      1728000    1336.4084        40250         3937 
 8060000    1.0098322   -3.1932402      1728000    1338.2678        40300         3939 
 8070000    1.0276379   -3.2620591      1728000     1340.119        40350         3940 
 8080000   0.95095526   -3.3679274      1728000    1342.0042        40400         3943 
 8090000   0.99189772   -3.1620899      1728000    1343.8012        40450         3947 
 8100000    1.0114806   -3.2826421      1728000    1345.6784        40500         3947 
 8110000   0.97034635   -3.1175207      1728000    1347.5017        40550         3948 
 8120000    1.0186635   -3.1287747      1728000    1349.3351        40600         3950 
 8130000    1.0050835   -3.1196538      1728000    1351.2136        40650         3954 
 8140000   0.95193089   -3.2610456      1728000      1353.05        40700         3956 
 8150000    1.0232132   -3.2996977      1728000    1354.8995        40750         3960 
 8160000   0.97864361   -3.1835314      1728000    1356.7468        40800         3963 
 8170000    1.0374839   -3.2130697      1728000    1358.5946        40850         3963 
 8180000    0.9911276   -3.1905785      1728000    1360.4264        40900         3965 
 8190000    1.0549703   -3.1431647      1728000    1362.2685        40950         3967 
 8200000    1.0135986   -3.0835342      1728000    1364.1251        41000         3968 
 8210000    1.0831961   -3.2453775      1728000    1365.9952        41050         3968 
 8220000   0.99830826   -3.1928885      1728000    1368.5124        41100         3969 
 8230000   0.98957389   -3.2312492      1728000    1370.9129        41150         3971 
 8240000    1.0450563   -3.1404981      1728000    1372.9343        41200         3972 
 8250000   0.97084156   -3.1929617      1728000    1374.7585        41250         3973 
 8260000   0.97838887   -3.2548639      1728000    1376.5995        41300         3973 
 8270000    1.0459868   -3.1219094      1728000    1378.4364        41350         3975 
 8280000    1.0024193   -3.2423394      1728000     1380.277        41400         3977 
 8290000    1.0424557   -3.1637252      1728000    1382.1591        41450         3977 
 8300000    1.0106634   -3.2200053      1728000    1383.9963        41500         3982 
 8310000    1.0531921   -3.1185364      1728000    1385.8703        41550         3986 
 8320000    1.0251596   -3.0840972      1728000    1387.7414        41600         3987 
 8330000    1.0358903   -3.1846641      1728000    1389.5965        41650         3988 
 8340000     1.045496   -3.2725471      1728000    1391.4517        41700         3989 
 8350000    1.0064593   -3.1978543      1728000    1393.3298        41750         3990 
 8360000   0.98619271   -3.3417117      1728000    1395.2008        41800         3994 
 8370000   0.97831677   -3.3557271      1728000     1397.048        41850         3998 
 8380000   0.91295909   -3.0664549      1728000    1398.9081        41900         3998 
 8390000   0.96563712   -3.1878795      1728000    1400.7534        41950         4000 
 8400000    1.0575191   -3.1856232      1728000    1402.6145        42000         4000 
 8410000   0.97370762   -3.2184861      1728000    1404.4534        42050         4001 
 8420000   0.96552722   -3.2379607      1728000     1406.339        42100         4002 
 8430000     1.053713   -3.3680584      1728000    1408.2101        42150         4003 
 8440000    1.0497106   -3.2623789      1728000    1410.0523        42200         4003 
 8450000   0.92469635   -3.2209718      1728000    1411.8925        42250         4006 
 8460000    1.0546884   -3.2926589      1728000    1413.7086        42300         4009 
 8470000   0.98952308   -3.3413313      1728000    1415.6627        42350         4010 
 8480000   0.94927668   -3.2465366      1728000    1417.6467        42400         4012 
 8490000   0.98761113   -3.2373765      1728000    1419.6736        42450         4015 
 8500000   0.95632978   -3.1949707      1728000    1421.9632        42500         4015 
 8510000    1.0002462   -3.3442326      1728000    1424.5043        42550         4015 
 8520000    1.0581658   -3.2441732      1728000    1426.3483        42600         4015 
 8530000   0.93644392   -3.2103463      1728000    1428.1266        42650         4015 
 8540000    1.0162344   -3.2524219      1728000    1429.9182        42700         4016 
 8550000   0.98360362   -3.2358871      1728000    1431.7147        42750         4017 
 8560000    0.9758439   -3.2974309      1728000    1433.4881        42800         4020 
 8570000   0.98007653   -3.2325785      1728000    1435.3188        42850         4024 
 8580000    1.0326987   -3.3801849      1728000    1437.1115        42900         4026 
 8590000    1.0491016   -3.3253796      1728000    1438.9352        42950         4027 
 8600000     1.018451   -3.3356633      1728000    1440.7361        43000         4028 
 8610000    0.9675598    -3.247853      1728000    1442.5236        43050         4029 
 8620000    1.0329164   -3.3018587      1728000    1444.3097        43100         4029 
 8630000     1.000712   -3.1974195      1728000    1446.1167        43150         4031 
 8640000   0.97658326   -3.2358399      1728000    1447.9036        43200         4031 
 8650000    1.0192663   -3.3108341      1728000    1449.6845        43250         4033 
 8660000   0.99921556     -3.29095      1728000    1451.5135        43300         4033 
 8670000    1.0675586   -3.1042709      1728000    1453.2896        43350         4037 
 8680000    1.0889682   -3.2562506      1728000    1455.0785        43400         4037 
 8690000   0.97253025   -3.2990056      1728000    1456.8595        43450         4038 
 8700000   0.93766112   -3.2189006      1728000    1458.6256        43500         4038 
 8710000    1.0069049    -3.272423      1728000    1460.4035        43550         4038 
 8720000   0.91802088   -3.1378275      1728000    1462.1747        43600         4040 
 8730000    1.0137104   -3.2749153      1728000    1463.9626        43650         4041 
 8740000   0.99640929   -3.2134319      1728000    1465.7475        43700         4041 
 8750000   0.99819806   -3.1914401      1728000    1467.5106        43750         4041 
 8760000    0.9906083    -3.289582      1728000    1469.3084        43800         4043 
 8770000    1.0258775    -3.232671      1728000    1471.1126        43850         4045 
 8780000   0.94107173   -3.1160493      1728000    1472.9565        43900         4047 
 8790000    0.9835943   -3.1730642      1728000    1474.7235        43950         4050 
 8800000    1.0159833   -3.2556516      1728000    1476.6159        44000         4051 
 8810000     0.973339   -3.1603218      1728000    1478.3867        44050         4052 
 8820000   0.99183651   -3.1829109      1728000    1480.1426        44100         4056 
 8830000    1.0209681   -3.3325364      1728000    1481.9236        44150         4056 
 8840000    1.0314236   -3.2150088      1728000    1483.6988        44200         4059 
 8850000   0.98282783   -3.1040779      1728000    1485.5657        44250         4062 
 8860000    1.0191891   -3.2570834      1728000    1487.3222        44300         4066 
 8870000   0.99518028   -3.1293597      1728000    1489.1265        44350         4068 
 8880000    1.0051856   -3.1135775      1728000    1490.8917        44400         4071 
 8890000    1.0483914   -3.1530818      1728000     1492.649        44450         4073 
 8900000   0.99937683   -3.1566575      1728000    1494.4364        44500         4077 
 8910000    1.0170429   -3.2349501      1728000    1496.2386        44550         4081 
 8920000    1.0217461   -3.2174496      1728000    1498.0156        44600         4082 
 8930000   0.97034538   -3.1952611      1728000    1499.7936        44650         4084 
 8940000   0.96995323   -3.2095544      1728000    1501.5756        44700         4089 
 8950000     1.021748   -3.2486749      1728000    1503.3727        44750         4092 
 8960000   0.99379328   -3.1735932      1728000    1505.1986        44800         4093 
 8970000   0.96645657   -3.2120401      1728000    1506.9486        44850         4096 
 8980000   0.98376215   -3.2561288      1728000    1508.7324        44900         4098 
 8990000   0.97716371   -3.3000316      1728000    1510.5384        44950         4098 
 9000000    1.0039668   -3.2490774      1728000    1512.3297        45000         4099 
 9010000   0.96001044   -3.2818518      1728000    1514.0997        45050         4099 
 9020000    1.0225064     -3.29018      1728000    1515.8806        45100         4102 
 9030000    1.0529513   -3.1414041      1728000    1517.7316        45150         4107 
 9040000   0.98298544   -3.2605961      1728000    1519.5244        45200         4108 
 9050000   0.93094258   -3.2699404      1728000    1521.3148        45250         4110 
 9060000    1.0432216   -3.2814355      1728000    1523.0896        45300         4112 
 9070000   0.94287049   -3.2323861      1728000    1524.8733        45350         4114 
 9080000    0.9660235   -3.2229909      1728000    1526.6487        45400         4114 
 9090000   0.98993464    -3.236582      1728000    1528.4356        45450         4117 
 9100000     1.025186   -3.1298066      1728000    1530.2267        45500         4120 
 9110000   0.95164159   -3.2375103      1728000    1532.0137        45550         4120 
 9120000   0.99743089   -3.1465567      1728000    1533.8157        45600         4123 
 9130000    1.0223747   -3.4341634      1728000    1535.5913        45650         4123 
 9140000    1.0360623   -3.2363229      1728000    1537.3685        45700         4125 
 9150000   0.97733169   -3.1316252      1728000    1539.1558        45750         4126 
 9160000   0.97788165   -3.0898851      1728000    1540.9407        45800         4129 
 9170000    0.9963949   -3.2557572      1728000    1542.7287        45850         4129 
 9180000   0.94230548   -3.3139152      1728000    1544.5149        45900         4130 
 9190000   0.97880338   -3.1815155      1728000    1546.3288        45950         4131 
 9200000    0.9599121   -3.2413606      1728000    1548.1445        46000         4131 
 9210000      1.05636    -3.151882      1728000    1549.9255        46050         4131 
 9220000    1.0015664   -3.2141067      1728000    1551.7069        46100         4131 
 9230000   0.95761977   -3.2418924      1728000    1553.4896        46150         4133 
 9240000    1.0280639   -3.2380387      1728000    1555.2587        46200         4133 
 9250000   0.95772609   -3.2341675      1728000    1557.0327        46250         4133 
 9260000   0.99459713   -3.1972522      1728000    1558.8086        46300         4133 
 9270000   0.99887454   -3.2275646      1728000    1560.5806        46350         4133 
 9280000   0.97087697   -3.1768671      1728000    1562.3677        46400         4133 
 9290000    1.0708135   -3.1582366      1728000    1564.1557        46450         4135 
 9300000    1.0745856   -3.1232507      1728000    1565.9308        46500         4136 
 9310000    1.0344856   -3.2361671      1728000    1567.7006        46550         4138 
 9320000    1.0289507   -3.1555877      1728000    1569.4644        46600         4141 
 9330000    1.0336332   -3.1660877      1728000    1571.2395        46650         4142 
 9340000   0.99311814   -3.1850184      1728000    1573.0218        46700         4144 
 9350000     1.011722   -3.3246282      1728000    1574.8117        46750         4145 
 9360000   0.99393932   -3.1765094      1728000    1576.6577        46800         4146 
 9370000   0.94522296   -3.1043251      1728000    1578.4359        46850         4149 
 9380000    1.0372117   -3.2344928      1728000    1580.2306        46900         4149 
 9390000    1.0114016   -3.2359695      1728000    1582.0508        46950         4149 
 9400000    1.0180658   -3.2242538      1728000    1583.8439        47000         4150 
 9410000    1.0254374   -3.1907209      1728000    1585.6196        47050         4152 
 9420000    0.9457407   -3.2635729      1728000    1587.3918        47100         4153 
 9430000    1.0381262   -3.2495248      1728000    1589.1917        47150         4154 
 9440000   0.99244313   -3.1950976      1728000    1590.9888        47200         4156 
 9450000   0.95639155   -3.2883812      1728000    1592.7656        47250         4157 
 9460000    1.0213883   -3.2160195      1728000    1594.5418        47300         4157 
 9470000   0.98770572   -3.1994225      1728000    1596.3117        47350         4161 
 9480000    1.0077361   -3.2779844      1728000    1598.0958        47400         4162 
 9490000    1.0397237   -3.3624862      1728000    1599.8587        47450         4164 
 9500000    1.0540285   -3.2875165      1728000    1601.6617        47500         4166 
 9510000   0.99309544   -3.3288158      1728000    1603.4507        47550         4167 
 9520000     1.029681   -3.4304962      1728000    1605.2608        47600         4167 
 9530000    1.0168198   -3.1771211      1728000    1607.0675        47650         4167 
 9540000    1.0504513   -3.2727394      1728000    1608.8529        47700         4169 
 9550000     1.026131   -3.3290947      1728000    1610.6568        47750         4170 
 9560000   0.95925859    -3.222713      1728000     1612.436        47800         4170 
 9570000   0.99621497   -3.1258539      1728000    1614.2118        47850         4171 
 9580000    1.0403589   -3.2359607      1728000    1615.9858        47900         4172 
 9590000   0.97918987   -3.2553632      1728000    1617.7847        47950         4172 
 9600000   0.96913371   -3.2778829      1728000    1619.5728        48000         4174 
 9610000   0.98530381   -3.3725452      1728000    1621.3608        48050         4174 
 9620000   0.99394719   -3.2299717      1728000    1623.1228        48100         4174 
 9630000    1.0108742   -3.2470253      1728000    1624.9088        48150         4175 
 9640000   0.99401201    -3.216615      1728000    1626.6767        48200         4176 
 9650000    1.0590743   -3.1830267      1728000    1628.4337        48250         4177 
 9660000    1.0215019   -3.3258787      1728000    1630.2279        48300         4178 
 9670000    1.0384246   -3.3503725      1728000    1632.0007        48350         4178 
 9680000    1.0048145   -3.1966028      1728000    1633.7817        48400         4180 
 9690000    1.0238031   -3.2459883      1728000    1635.5749        48450         4182 
 9700000    1.0398829   -3.2990418      1728000    1637.3839        48500         4183 
 9710000   0.95996899   -3.2780312      1728000    1639.2047        48550         4183 
 9720000    1.0258666   -3.2477403      1728000    1641.0358        48600         4186 
 9730000    1.0248798   -3.2474927      1728000    1642.8717        48650         4186 
 9740000    1.0257732   -3.2949195      1728000    1644.7448        48700         4186 
 9750000    1.0306033   -3.1735812      1728000    1646.5509        48750         4188 
 9760000     1.000031   -3.3561462      1728000    1648.3159        48800         4191 
 9770000     1.025577   -3.2397548      1728000    1650.1037        48850         4191 
 9780000    1.0070558   -3.2945076      1728000    1651.8889        48900         4191 
 9790000   0.99466643   -3.3019392      1728000    1653.6556        48950         4194 
 9800000   0.98998353   -3.1673805      1728000    1655.4477        49000         4197 
 9810000    1.0999602   -3.2790051      1728000    1657.2237        49050         4198 
 9820000    1.0461292   -3.3255803      1728000    1658.9819        49100         4199 
 9830000   0.98483819   -3.3347379      1728000    1660.7777        49150         4200 
 9840000    0.9949763   -3.2418025      1728000    1662.5929        49200         4202 
 9850000    1.0771374   -3.3036493      1728000    1664.3992        49250         4203 
 9860000   0.97049353   -3.2074664      1728000    1666.2068        49300         4205 
 9870000   0.98554666   -3.3588363      1728000    1668.0429        49350         4206 
 9880000   0.97748388   -3.1834547      1728000    1669.8243        49400         4209 
 9890000   0.97908589   -3.1631748      1728000    1671.6188        49450         4209 
 9900000   0.95836054   -3.2136417      1728000    1673.4047        49500         4209 
 9910000    1.0269361    -3.233048      1728000    1675.1769        49550         4211 
 9920000   0.93225982   -3.2567471      1728000    1676.9649        49600         4212 
 9930000   0.98111243   -3.3085129      1728000    1678.7817        49650         4214 
 9940000   0.96160739   -3.3798966      1728000    1680.5674        49700         4216 
 9950000    1.0096477   -3.2295557      1728000    1682.3707        49750         4216 
 9960000   0.93884498   -3.1275444      1728000      1684.13        49800         4217 
 9970000     1.017508   -3.2694568      1728000    1685.9853        49850         4217 
 9980000    1.0189717   -3.2465473      1728000    1687.8683        49900         4218 
 9990000   0.99410604   -3.2603405      1728000    1689.6999        49950         4220 
10000000    1.0370573   -3.4052252      1728000    1691.5977        50000         4221 
10010000   0.99297588   -3.3923347      1728000    1693.5357        50050         4222 
10020000   0.94191254   -3.2695702      1728000    1695.4119        50100         4222 
10030000   0.97934118   -3.3897961      1728000    1697.1927        50150         4224 
10040000   0.99335074   -3.2809261      1728000    1699.0218        50200         4225 
10050000    0.9894116   -3.1756522      1728000    1700.8167        50250         4227 
10060000    1.0359634   -3.1696317      1728000    1702.6119        50300         4228 
10070000   0.98740968   -3.2459659      1728000    1704.4039        50350         4228 
10080000   0.95760774   -3.3833812      1728000    1706.2057        50400         4229 
10090000   0.91848015   -3.2357918      1728000    1707.9788        50450         4229 
10100000    1.0318904   -3.3435581      1728000    1709.7767        50500         4229 
10110000      1.05033   -3.2854032      1728000    1711.6185        50550         4230 
10120000   0.99364691   -3.2141394      1728000    1713.4058        50600         4233 
10130000   0.99103464   -3.3219434      1728000    1715.2061        50650         4235 
10140000    1.0259821   -3.1810841      1728000    1716.9893        50700         4236 
10150000    1.0248603   -3.1841229      1728000    1718.7707        50750         4239 
10160000    1.0407743   -3.1536327      1728000    1720.5347        50800         4241 
10170000   0.99618459   -3.2612257      1728000     1722.325        50850         4242 
10180000    1.0105183   -3.2585375      1728000     1724.108        50900         4243 
10190000    0.9665106   -3.1614722      1728000    1725.8852        50950         4245 
10200000    1.0086147   -3.2701838      1728000    1727.6618        51000         4247 
10210000    1.0169203   -3.1327434      1728000    1729.4533        51050         4247 
10220000    1.0209805   -3.1521499      1728000    1731.2347        51100         4249 
10230000   0.97923266   -3.1882945      1728000    1733.0287        51150         4251 
10240000   0.97962039   -3.2300848      1728000    1734.7961        51200         4251 
10250000   0.97108941   -3.2479603      1728000    1736.5781        51250         4252 
10260000   0.98593686   -3.1412164      1728000    1738.3569        51300         4257 
10270000    1.0299555   -3.2647775      1728000    1740.1424        51350         4257 
10280000   0.95327661   -3.1604464      1728000    1741.9813        51400         4258 
10290000   0.98890615    -3.229978      1728000    1743.7469        51450         4259 
10300000    1.0039895   -3.2705981      1728000    1745.5387        51500         4259 
10310000    1.0421097    -3.192226      1728000    1747.3109        51550         4260 
10320000     0.989625   -3.2738806      1728000    1749.1126        51600         4262 
10330000    1.0013383   -3.3390067      1728000    1750.9618        51650         4262 
10340000    1.0457041   -3.2951427      1728000    1752.7452        51700         4263 
10350000     1.063309   -3.2762779      1728000    1754.6023        51750         4263 
10360000   0.99455084   -3.2746854      1728000     1756.417        51800         4264 
10370000    1.0351127   -3.1969186      1728000    1758.2009        51850         4264 
10380000   0.97995732   -3.2723835      1728000    1759.9952        51900         4266 
10390000   0.99602741   -3.2399718      1728000    1761.8159        51950         4267 
10400000    1.0475565   -3.2750138      1728000     1763.613        52000         4267 
10410000    1.0599393   -3.3268967      1728000    1765.4691        52050         4268 
10420000    1.0137942   -3.4329199      1728000    1767.3304        52100         4268 
10430000   0.98536138   -3.2573715      1728000    1769.1958        52150         4271 
10440000    1.0483315    -3.396842      1728000    1771.1528        52200         4271 
10450000   0.99540205    -3.220869      1728000    1773.1248        52250         4271 
10460000   0.99209455   -3.1844051      1728000     1774.986        52300         4274 
10470000   0.97957744   -3.1501337      1728000    1776.8285        52350         4274 
10480000   0.96136489   -3.2770554      1728000    1778.5919        52400         4277 
10490000    1.0158338   -3.3509123      1728000    1780.3961        52450         4277 
10500000    0.9435193    -3.209482      1728000    1782.1951        52500         4280 
10510000   0.94425304   -3.2325749      1728000    1784.0042        52550         4283 
10520000   0.98393305   -3.2335261      1728000    1785.7909        52600         4284 
10530000   0.96797051   -3.2952735      1728000    1787.5871        52650         4284 
10540000    1.0664632   -3.1433229      1728000    1789.3461        52700         4287 
10550000   0.99924958   -3.2982561      1728000    1791.1203        52750         4288 
10560000   0.95472333    -3.329418      1728000    1792.8941        52800         4291 
10570000    1.0211905   -3.1084787      1728000    1794.6719        52850         4293 
10580000   0.99637639   -3.2574522      1728000    1796.4508        52900         4295 
10590000   0.95634042   -3.2614552      1728000    1798.2051        52950         4296 
10600000   0.95339606   -3.2252114      1728000    1799.9952        53000         4298 
10610000   0.99106023   -3.2294077      1728000    1801.7799        53050         4298 
10620000    1.0196397   -3.2502565      1728000    1803.5524        53100         4301 
10630000    1.0279539   -3.2614633      1728000    1805.3373        53150         4302 
10640000   0.99765755   -3.3559472      1728000     1807.112        53200         4305 
10650000    1.0417303   -3.2740649      1728000     1808.918        53250         4305 
10660000    0.9566986   -3.2566473      1728000     1810.747        53300         4305 
10670000   0.96427751   -3.3204364      1728000    1812.5408        53350         4305 
10680000    1.0355865   -3.2674496      1728000    1814.3519        53400         4309 
10690000   0.98577577   -3.3378514      1728000    1816.1462        53450         4311 
10700000    1.0569685   -3.3303796      1728000    1817.9401        53500         4312 
10710000    1.0347889   -3.2231266      1728000    1819.7278        53550         4313 
10720000    1.0000338   -3.1428832      1728000    1821.5138        53600         4313 
10730000   0.94605905   -3.3359068      1728000    1823.3166        53650         4314 
10740000   0.94816162    -3.283883      1728000       1825.1        53700         4315 
10750000    1.0114604   -3.2449012      1728000    1826.8784        53750         4316 
10760000    1.0210354    -3.395873      1728000    1828.6599        53800         4317 
10770000   0.98395948   -3.3589668      1728000    1830.4568        53850         4319 
10780000    1.0080422    -3.418483      1728000     1832.258        53900         4321 
10790000    1.0591975   -3.2331563      1728000    1834.0371        53950         4322 
10800000   0.98396823    -3.297221      1728000    1835.8388        54000         4324 
10810000    1.0015058   -3.1338003      1728000    1837.6273        54050         4326 
10820000   0.94690655   -3.3529895      1728000     1839.408        54100         4329 
10830000    1.0197213    -3.248532      1728000     1841.184        54150         4330 
10840000    1.0432313   -3.2414135      1728000    1842.9721        54200         4330 
10850000    1.0036651   -3.1179853      1728000    1844.7533        54250         4330 
10860000   0.98828402   -3.1304334      1728000    1846.5221        54300         4333 
10870000    1.0813907   -3.1064077      1728000    1848.2759        54350         4335 
10880000   0.96514749   -3.2876525      1728000     1850.047        54400         4336 
10890000    1.0002364   -3.2651736      1728000    1851.8202        54450         4340 
10900000    1.0013599   -3.1830605      1728000    1853.6019        54500         4344 
10910000    1.0548187   -3.2383919      1728000     1855.371        54550         4346 
10920000   0.92290388   -3.2167251      1728000    1857.1492        54600         4347 
10930000    1.0177211   -3.1683379      1728000    1858.9091        54650         4348 
10940000    1.0146482   -3.2150862      1728000    1860.6859        54700         4352 
10950000    1.0252482   -3.2227118      1728000    1862.4712        54750         4354 
10960000   0.96005133   -3.2439405      1728000     1864.244        54800         4354 
10970000   0.98345009   -3.1723078      1728000    1866.0117        54850         4355 
10980000   0.96532422   -3.1242162      1728000    1867.7555        54900         4359 
10990000   0.98419098    -3.168526      1728000    1869.5368        54950         4363 
11000000    1.0108556   -3.2585527      1728000    1871.3162        55000         4364 
11010000   0.93517363   -3.2877186      1728000    1873.1213        55050         4364 
11020000   0.96330859   -3.3325372      1728000    1874.8998        55100         4364 
11030000    1.0193836   -3.2808525      1728000    1876.6768        55150         4367 
11040000   0.95483884   -3.2608871      1728000    1878.4523        55200         4368 
11050000    1.0003649   -3.1542176      1728000     1880.215        55250         4371 
11060000   0.97734895   -3.2280856      1728000    1881.9843        55300         4371 
11070000    1.0668194   -3.2412415      1728000     1883.744        55350         4372 
11080000   0.98990746    -3.152603      1728000    1885.5081        55400         4372 
11090000    1.0285478   -3.1993591      1728000    1887.2724        55450         4375 
11100000    0.9756519   -3.1776627      1728000    1889.0402        55500         4376 
11110000   0.99458207   -3.1839737      1728000    1890.8101        55550         4376 
11120000   0.99064575   -3.1721663      1728000     1892.582        55600         4378 
11130000   0.99007577   -3.2166145      1728000    1894.3271        55650         4381 
11140000    1.0192593   -3.2612437      1728000    1896.1231        55700         4381 
11150000    1.0358663   -3.2081792      1728000    1897.8962        55750         4381 
11160000    1.0103415   -3.2100142      1728000    1899.6722        55800         4382 
11170000   0.93778437   -3.2320874      1728000    1901.4452        55850         4384 
11180000   0.99725198    -3.398439      1728000    1903.2283        55900         4386 
11190000   0.99471401   -3.3171624      1728000    1905.0113        55950         4388 
11200000   0.97214944   -3.2291752      1728000    1906.7863        56000         4392 
11210000    1.0120613   -3.2259137      1728000    1908.5821        56050         4395 
11220000    1.0226191   -3.1035321      1728000    1910.3561        56100         4396 
11230000   0.98616379   -3.2462929      1728000    1912.1259        56150         4397 
11240000   0.99215396   -3.3274396      1728000    1913.8923        56200         4397 
11250000    1.0723767   -3.2129217      1728000    1915.6703        56250         4398 
11260000   0.97518942    -3.175917      1728000    1917.4443        56300         4403 
11270000   0.98061739   -3.1608187      1728000     1919.206        56350         4405 
11280000    1.0584496   -3.3666613      1728000    1920.9783        56400         4406 
11290000   0.99737558   -3.1459857      1728000     1922.745        56450         4406 
11300000   0.97684942   -3.2506552      1728000    1924.5071        56500         4408 
11310000    1.0675358   -3.1833756      1728000    1926.2661        56550         4409 
11320000     1.001762     -3.08659      1728000    1928.0272        56600         4410 
11330000     1.000569   -3.1641839      1728000    1929.7951        56650         4412 
11340000    1.0022288   -3.1401233      1728000     1931.552        56700         4414 
11350000   0.95054488   -3.2421988      1728000    1933.3292        56750         4415 
11360000    1.0093585   -3.2131222      1728000    1935.0782        56800         4415 
11370000    1.0305167   -3.1518609      1728000    1936.8363        56850         4416 
11380000   0.92431618   -3.0937347      1728000    1938.6003        56900         4416 
11390000    1.0460655   -3.2528603      1728000     1940.366        56950         4419 
11400000    1.0606144   -3.1754301      1728000    1942.1453        57000         4422 
11410000    1.0327168   -3.2743886      1728000    1943.9233        57050         4424 
11420000   0.93464977   -3.2936733      1728000    1945.6941        57100         4428 
11430000    1.0524227   -3.1506706      1728000    1947.4633        57150         4431 
11440000   0.99393867   -3.0328115      1728000    1949.2313        57200         4433 
11450000    1.0131673   -3.3278483      1728000    1951.0082        57250         4433 
11460000   0.97227967   -3.2646875      1728000      1952.78        57300         4435 
11470000     1.062739    -3.246344      1728000    1954.5531        57350         4437 
11480000     1.039793   -3.0987226      1728000    1956.3294        57400         4440 
11490000    1.0122296   -3.2915866      1728000    1958.0922        57450         4440 
11500000   0.96974811   -3.2661435      1728000    1959.8753        57500         4441 
11510000   0.97739009   -3.1369237      1728000    1961.6569        57550         4443 
11520000    0.9554694   -3.1599839      1728000    1963.4221        57600         4446 
11530000   0.99460898   -3.0887201      1728000    1965.1706        57650         4449 
11540000   0.98214539   -3.2436565      1728000    1966.9657        57700         4449 
11550000    1.0102884    -3.028128      1728000    1968.7663        57750         4450 
11560000     1.013485   -3.1492824      1728000    1970.5341        57800         4450 
11570000   0.95512165   -3.1742876      1728000    1972.2881        57850         4452 
11580000     1.026008   -3.1657923      1728000    1974.0221        57900         4454 
11590000   0.99783786   -3.0502011      1728000    1975.7854        57950         4456 
11600000    1.0029587   -3.1387243      1728000    1977.5452        58000         4459 
11610000   0.98864031   -3.1719103      1728000    1979.2944        58050         4460 
11620000    1.0106006   -3.2526642      1728000    1981.0525        58100         4464 
11630000    0.9684756   -3.0788816      1728000     1982.884        58150         4468 
11640000   0.91095664   -3.0166269      1728000    1984.6592        58200         4471 
11650000   0.93235602   -3.1217754      1728000    1986.3891        58250         4472 
11660000   0.99576235   -3.1163133      1728000    1988.1743        58300         4474 
11670000    1.0033656   -3.2055436      1728000    1989.9491        58350         4475 
11680000    1.0108118   -3.2299358      1728000    1991.7173        58400         4478 
11690000     1.049478   -3.3314977      1728000    1993.4892        58450         4480 
11700000   0.97080867   -3.1748151      1728000    1995.2531        58500         4483 
11710000   0.94476778   -3.2639059      1728000    1997.0174        58550         4485 
11720000   0.95368344   -3.1361805      1728000    1998.7823        58600         4486 
11730000   0.95812666   -3.1822327      1728000    2000.5372        58650         4488 
11740000   0.95282675   -3.2043094      1728000    2002.2953        58700         4489 
11750000   0.99270522   -3.2045167      1728000    2004.0601        58750         4491 
11760000    1.0189387   -3.1149388      1728000    2005.8204        58800         4494 
11770000    1.0350539   -3.1615275      1728000     2007.573        58850         4496 
11780000    1.0016113   -3.2172992      1728000    2009.3313        58900         4497 
11790000     1.048188   -3.1322993      1728000    2011.1053        58950         4500 
11800000    1.0182492   -3.1061099      1728000    2012.8635        59000         4505 
11810000   0.99046167   -3.1378222      1728000    2014.6044        59050         4506 
11820000    1.0266403   -3.0924583      1728000    2016.3572        59100         4507 
11830000   0.94201763   -3.0586555      1728000    2018.1102        59150         4511 
11840000    0.9889307   -3.2096432      1728000    2019.8552        59200         4511 
11850000   0.99591714   -3.0632392      1728000    2021.6152        59250         4512 
11860000    1.0463808   -3.1416912      1728000    2023.3734        59300         4515 
11870000    1.0398141   -3.2278259      1728000    2025.1401        59350         4515 
11880000    1.0309686    -3.071398      1728000    2026.8842        59400         4518 
11890000   0.97016286   -3.1423232      1728000    2028.6044        59450         4520 
11900000    0.9882595   -3.1305127      1728000    2030.3893        59500         4521 
11910000    1.0595503   -3.0761802      1728000    2032.1484        59550         4522 
11920000   0.99005263   -3.1563232      1728000    2033.9022        59600         4525 
11930000     1.009694   -3.1081261      1728000     2035.643        59650         4527 
11940000    1.0098994   -3.0670997      1728000     2037.431        59700         4531 
11950000    1.0200697   -3.1649315      1728000    2039.1833        59750         4532 
11960000   0.99227471   -3.2401832      1728000    2040.9522        59800         4532 
11970000   0.97048611   -3.3092804      1728000    2042.7343        59850         4534 
11980000    0.9755345   -3.1583065      1728000    2044.5032        59900         4536 
11990000    1.0406587   -3.1240204      1728000    2046.2655        59950         4541 
12000000    1.0418364   -3.1309653      1728000    2048.0323        60000         4545 
12010000    1.0500167   -3.2037398      1728000    2049.7983        60050         4548 
12020000   0.96955659   -3.2151222      1728000    2051.5701        60100         4551 
12030000   0.99823396   -3.2407822      1728000    2053.3294        60150         4554 
12040000   0.99116465   -3.2236204      1728000    2055.0823        60200         4555 
12050000    1.0114259   -3.1627041      1728000    2056.8371        60250         4556 
12060000    1.0013433   -3.1470893      1728000    2058.5765        60300         4557 
12070000    1.0252578   -3.2615503      1728000    2060.3339        60350         4559 
12080000    1.0262389   -3.1574199      1728000    2062.1194        60400         4560 
12090000    1.0000457    -3.124849      1728000    2063.8782        60450         4563 
12100000    1.0421599   -3.1603008      1728000    2065.6224        60500         4563 
12110000   0.98878099    -3.221016      1728000    2067.3793        60550         4566 
12120000     1.022399   -3.2340703      1728000    2069.1456        60600         4567 
12130000   0.99185423   -3.2162163      1728000    2070.9286        60650         4567 
12140000   0.96282799   -3.2784976      1728000    2072.6852        60700         4570 
12150000    1.0562935   -3.2611042      1728000    2074.4651        60750         4572 
12160000     1.024247    -3.064696      1728000    2076.2234        60800         4574 
12170000    1.0016745   -3.2129586      1728000    2077.9731        60850         4575 
12180000    1.0454352   -3.2289694      1728000    2079.7395        60900         4576 
12190000    1.0064642   -3.2004629      1728000    2081.4985        60950         4577 
12200000   0.98366614   -3.1636513      1728000    2083.2794        61000         4577 
12210000   0.95819449   -3.1851366      1728000    2085.0473        61050         4577 
12220000    1.0153788   -3.2234996      1728000    2086.8003        61100         4582 
12230000   0.95380551   -3.0447098      1728000    2088.5423        61150         4588 
12240000   0.98867685   -3.2069902      1728000    2090.2933        61200         4590 
12250000   0.99112291   -3.2471357      1728000    2092.0502        61250         4592 
12260000    1.0007262   -3.1634292      1728000    2093.7964        61300         4594 
12270000   0.98841803   -3.2142809      1728000    2095.5464        61350         4598 
12280000    1.0287522   -3.1928258      1728000    2097.2953        61400         4602 
12290000    1.0089045   -3.1129057      1728000    2099.0525        61450         4604 
12300000    1.0302388    -3.147564      1728000    2100.8142        61500         4605 
12310000    1.1042749    -3.178066      1728000    2102.5612        61550         4610 
12320000   0.91491647   -3.1450609      1728000    2104.3213        61600         4611 
12330000   0.99497344   -3.1109166      1728000    2106.0944        61650         4614 
12340000   0.97360011   -3.2077182      1728000    2107.8465        61700         4615 
12350000    1.0048781   -3.1415381      1728000    2109.6125        61750         4616 
12360000   0.99975944    -3.050195      1728000    2111.3614        61800         4619 
12370000   0.98867691   -3.1620167      1728000    2113.0905        61850         4623 
12380000    1.0684414   -3.1083636      1728000    2114.8364        61900         4628 
12390000   0.98755704   -3.0091565      1728000    2116.5726        61950         4631 
12400000    1.0359505   -3.2210967      1728000    2118.2955        62000         4637 
12410000    1.0112969   -3.0943602      1728000    2120.0415        62050         4640 
12420000   0.97580212   -3.1541271      1728000    2121.7835        62100         4643 
12430000   0.97422436   -3.1996058      1728000    2123.5344        62150         4645 
12440000    1.0789682   -3.0654769      1728000    2125.2935        62200         4646 
12450000    1.0066423   -3.1637056      1728000    2127.0655        62250         4651 
12460000   0.98841186   -3.2569234      1728000    2128.8233        62300         4652 
12470000   0.99750071   -3.1120723      1728000    2130.5746        62350         4654 
12480000   0.96869937   -3.1491638      1728000    2132.3584        62400         4657 
12490000   0.96822366   -3.1562783      1728000    2134.1015        62450         4659 
12500000    1.0027022   -3.1176726      1728000    2135.8591        62500         4660 
12510000   0.99788496   -3.1342169      1728000    2137.6095        62550         4665 
12520000   0.95787632   -3.1026828      1728000    2139.3493        62600         4667 
12530000     1.021024   -3.2058365      1728000    2141.1065        62650         4672 
12540000    1.0404311   -3.2234597      1728000    2142.8585        62700         4673 
12550000    1.0153172   -3.1365799      1728000    2144.6185        62750         4674 
12560000   0.99845111   -3.1421514      1728000    2146.3835        62800         4677 
12570000   0.94066786   -3.0904494      1728000    2148.1212        62850         4678 
12580000   0.97817943    -3.233731      1728000    2149.8764        62900         4679 
12590000    1.0134759   -3.1562263      1728000    2151.6645        62950         4679 
12600000   0.95021908   -3.1008399      1728000    2153.4465        63000         4681 
12610000   0.96741197    -3.288151      1728000    2155.2025        63050         4682 
12620000   0.92568977   -3.2340561      1728000    2156.9886        63100         4683 
12630000   0.96810615    -3.206863      1728000    2158.7545        63150         4683 
12640000   0.95047866   -3.0985735      1728000    2160.4984        63200         4683 
12650000   0.94793598   -3.1675711      1728000    2162.2214        63250         4687 
12660000   0.98059446   -3.2182241      1728000    2164.0274        63300         4687 
12670000    0.9633988   -3.1657958      1728000    2165.8024        63350         4690 
12680000    1.0195427   -3.2522271      1728000    2167.5656        63400         4692 
12690000    1.0079299   -3.2485143      1728000    2169.3233        63450         4696 
12700000    1.0166972   -3.1341524      1728000    2171.0715        63500         4699 
12710000   0.97729502   -3.1377285      1728000    2172.8214        63550         4702 
12720000   0.98851351   -3.0867583      1728000    2174.5684        63600         4703 
12730000   0.97603615   -3.3236066      1728000    2176.3435        63650         4705 
12740000    1.0112935   -3.0321553      1728000    2178.1023        63700         4707 
12750000   0.94433555    -3.131081      1728000    2179.8476        63750         4709 
12760000   0.92700519   -3.2401683      1728000    2181.5932        63800         4712 
12770000   0.97266997   -3.2222297      1728000    2183.3352        63850         4714 
12780000    1.0289716   -3.1414086      1728000    2185.0666        63900         4715 
12790000   0.98589155   -3.1604569      1728000    2186.8144        63950         4717 
12800000    1.0585478   -3.1913427      1728000    2188.5803        64000         4719 
12810000   0.99908701   -3.1301221      1728000    2190.3456        64050         4723 
12820000   0.97398572   -2.9991569      1728000    2192.1144        64100         4726 
12830000   0.96052379   -3.1308017      1728000    2193.8794        64150         4728 
12840000    1.0469798   -3.1296586      1728000    2195.6344        64200         4729 
12850000   0.97805882    -3.015521      1728000    2197.3855        64250         4735 
12860000    1.0756685   -3.1989724      1728000    2199.1366        64300         4738 
12870000    1.0052015   -3.2844753      1728000    2200.8994        64350         4742 
12880000   0.98574772   -3.2168144      1728000    2202.6734        64400         4746 
12890000    1.0061176    -3.225773      1728000    2204.4307        64450         4748 
12900000    1.0684771   -3.2325211      1728000    2206.2176        64500         4750 
12910000   0.97659867   -3.1927581      1728000    2207.9765        64550         4751 
12920000    0.9646251   -3.2159937      1728000    2209.7326        64600         4753 
12930000    1.0533209   -3.1037502      1728000    2211.5036        64650         4753 
12940000    1.0309928   -3.1530192      1728000    2213.2486        64700         4758 
12950000    1.0904726    -3.230059      1728000    2214.9986        64750         4759 
12960000   0.96660396   -3.2261208      1728000    2216.7521        64800         4761 
12970000   0.91680963   -3.1746153      1728000    2218.5048        64850         4762 
12980000     1.037156   -3.1301312      1728000    2220.2664        64900         4764 
12990000    1.0046804   -3.0809056      1728000    2222.0215        64950         4766 
13000000   0.97672331   -3.0700431      1728000    2223.7813        65000         4770 
13010000    1.0173508   -3.2530224      1728000    2225.5456        65050         4770 
13020000    1.0617172   -3.0343532      1728000    2227.2903        65100         4772 
13030000    1.1060762   -3.1751569      1728000    2229.0379        65150         4778 
13040000   0.94700433   -3.1144598      1728000    2230.8342        65200         4782 
13050000   0.95562261   -3.1328234      1728000    2232.5856        65250         4783 
13060000    1.0063998   -3.1707547      1728000    2234.3506        65300         4784 
13070000     1.081911   -3.1047515      1728000    2236.0995        65350         4786 
13080000    0.9306199   -3.2223334      1728000    2237.8406        65400         4787 
13090000    1.0107949   -3.0403438      1728000    2239.5824        65450         4787 
13100000   0.98952257   -3.1372423      1728000    2241.3457        65500         4792 
13110000    1.0038402   -2.9304656      1728000    2243.0744        65550         4794 
13120000    1.0018309   -3.0497009      1728000    2244.8087        65600         4797 
13130000    1.0420605   -3.1286113      1728000    2246.5436        65650         4799 
13140000    1.0123091   -3.1865555      1728000    2248.2764        65700         4801 
13150000   0.95471041   -3.1368472      1728000    2250.0153        65750         4803 
13160000    1.0180429   -3.1669087      1728000    2251.7566        65800         4807 
13170000    1.0239925   -2.9934209      1728000    2253.5206        65850         4808 
13180000   0.97248045   -3.2059655      1728000    2255.2755        65900         4809 
13190000    0.9414711     -3.13969      1728000    2257.0233        65950         4812 
13200000    1.0184219   -3.1571238      1728000    2258.8095        66000         4814 
13210000    1.0678959   -3.1515745      1728000    2260.5664        66050         4820 
13220000     1.026146    -3.109678      1728000    2262.3296        66100         4824 
13230000    1.0246905   -3.0671206      1728000    2264.1364        66150         4825 
13240000    1.0038836    -3.216749      1728000    2265.8858        66200         4831 
13250000     1.020471   -2.9917755      1728000    2267.6427        66250         4834 
13260000   0.98828687   -3.2135256      1728000    2269.4096        66300         4836 
13270000    1.0643798   -3.0861018      1728000    2271.1965        66350         4838 
13280000    1.0165279   -3.1784082      1728000    2272.9396        66400         4841 
13290000   0.98191535   -3.0953768      1728000    2274.7014        66450         4843 
13300000    1.0792416   -3.0526121      1728000    2276.4714        66500         4846 
13310000    1.0234788   -3.1080259      1728000    2278.2187        66550         4847 
13320000   0.98031907   -3.1145787      1728000    2279.9674        66600         4847 
13330000    1.0674382   -3.1408629      1728000    2281.7367        66650         4849 
13340000    1.0299498   -3.2605424      1728000    2283.4721        66700         4853 
13350000    0.9663921    -3.217843      1728000    2285.2415        66750         4855 
13360000   0.98677537   -3.1499846      1728000    2287.0487        66800         4855 
13370000   0.98969212   -3.1596389      1728000    2288.8136        66850         4855 
13380000   0.94760054   -3.2639625      1728000    2290.5836        66900         4855 
13390000   0.98705583   -3.2018297      1728000    2292.3564        66950         4857 
13400000    1.0373052   -3.1905324      1728000    2294.1364        67000         4859 
13410000   0.96724401    -3.189627      1728000    2295.9173        67050         4861 
13420000    1.0408524   -3.2878939      1728000    2297.7035        67100         4862 
13430000   0.97255754   -3.3100945      1728000    2299.4935        67150         4864 
13440000    1.0449112   -3.3021837      1728000    2301.2836        67200         4867 
13450000    1.0267357   -3.3605405      1728000    2303.0536        67250         4872 
13460000    1.0069159   -3.3136537      1728000    2304.8113        67300         4873 
13470000   0.97158805    -3.265483      1728000    2306.5866        67350         4874 
13480000   0.95053569   -3.2468498      1728000    2308.3656        67400         4876 
13490000   0.98404429   -3.2362087      1728000    2310.1377        67450         4877 
13500000    1.0033822   -3.1191504      1728000    2311.9797        67500         4877 
13510000   0.94103306   -3.3655642      1728000    2313.7504        67550         4879 
13520000   0.99436202   -3.3015934      1728000    2315.5205        67600         4879 
13530000    0.9905898   -3.4188196      1728000    2317.3104        67650         4879 
13540000   0.96280859   -3.3407153      1728000    2319.1733        67700         4880 
13550000    1.0180094   -3.2370026      1728000    2321.0063        67750         4881 
13560000    1.0398481   -3.3003275      1728000    2322.8685        67800         4882 
13570000    1.0196145   -3.3011758      1728000    2324.6895        67850         4882 
13580000    1.0316673   -3.2872438      1728000    2326.4887        67900         4883 
13590000   0.98425803   -3.1373043      1728000    2328.2599        67950         4885 
13600000     1.029461   -3.1871462      1728000    2330.0275        68000         4889 
13610000    1.0280238   -3.2592608      1728000    2331.8075        68050         4889 
13620000   0.92779719   -3.2578282      1728000    2333.5925        68100         4889 
13630000   0.95020358   -3.2792492      1728000    2335.3854        68150         4891 
13640000   0.99100865   -3.3084087      1728000    2337.1645        68200         4893 
13650000   0.94467713   -3.4066556      1728000    2338.9766        68250         4894 
13660000   0.96653624   -3.2474415      1728000    2340.7744        68300         4894 
13670000    1.0410998   -3.2659545      1728000    2342.5565        68350         4896 
13680000   0.94904933    -3.230537      1728000    2344.3403        68400         4896 
13690000     1.008561   -3.2702159      1728000    2346.1078        68450         4897 
13700000   0.99141741   -3.3251623      1728000    2347.8916        68500         4899 
13710000   0.99692287   -3.3943401      1728000    2349.6917        68550         4900 
13720000   0.95142002   -3.3460156      1728000    2351.4927        68600         4904 
13730000     1.008937   -3.2881936      1728000    2353.3085        68650         4908 
13740000    1.0097202   -3.2825278      1728000    2355.0897        68700         4909 
13750000    1.0097548   -3.2353573      1728000    2356.8567        68750         4909 
13760000    1.0166132    -3.146428      1728000    2358.6117        68800         4909 
13770000    1.0415285   -3.1732347      1728000    2360.3696        68850         4914 
13780000   0.96686357     -3.29525      1728000    2362.1403        68900         4916 
13790000   0.96784662   -3.1866012      1728000    2363.9049        68950         4917 
13800000   0.97412237   -3.1868876      1728000    2365.6917        69000         4920 
13810000    1.0787001   -3.2248592      1728000    2367.4787        69050         4920 
13820000    1.0646408   -3.2771109      1728000    2369.2568        69100         4921 
13830000    1.0593193   -3.0811873      1728000    2371.0524        69150         4921 
13840000   0.97727484   -3.2237433      1728000    2372.8094        69200         4923 
13850000   0.99059307   -3.1599906      1728000    2374.5858        69250         4923 
13860000    1.0090885   -3.2290248      1728000    2376.3826        69300         4926 
13870000    1.0133786   -3.3353835      1728000    2378.1508        69350         4929 
13880000    1.0184047   -3.2941787      1728000    2379.9145        69400         4930 
13890000   0.98513481   -3.2525821      1728000    2381.6897        69450         4932 
13900000    1.0053164   -3.2193591      1728000    2383.4655        69500         4935 
13910000    1.0209975   -3.1394858      1728000    2385.2133        69550         4938 
13920000    1.0382529   -3.2891461      1728000    2386.9818        69600         4939 
13930000    1.0299138   -3.2315785      1728000    2388.7438        69650         4939 
13940000    0.9779957   -3.2227567      1728000    2390.5426        69700         4940 
13950000    0.9737724   -3.1199805      1728000    2392.2997        69750         4941 
13960000    1.0144009    -3.190943      1728000    2394.0515        69800         4941 
13970000   0.96663691   -3.0541046      1728000    2395.7898        69850         4941 
13980000    0.9942177   -3.2084888      1728000    2397.5415        69900         4944 
13990000   0.97425259   -3.0994678      1728000    2399.3208        69950         4945 
14000000    1.0334592    -3.210883      1728000    2401.0895        70000         4945 
14010000    1.0653062   -3.1370451      1728000    2402.8528        70050         4946 
14020000    1.0240258   -3.2766227      1728000    2404.6118        70100         4947 
14030000   0.94863239   -3.1604005      1728000    2406.4116        70150         4948 
14040000   0.98807316   -3.2159624      1728000    2408.1678        70200         4948 
14050000   0.99951485    -3.218198      1728000    2409.9237        70250         4949 
14060000    1.1035337   -3.1615721      1728000    2411.6738        70300         4951 
14070000    1.0381391    -3.280755      1728000    2413.4217        70350         4953 
14080000     0.998579   -3.2111073      1728000    2415.1976        70400         4953 
14090000   0.95859121   -3.0182317      1728000    2416.9528        70450         4957 
14100000    1.0560732   -3.2134168      1728000    2418.7088        70500         4957 
14110000     1.011025   -3.1270349      1728000    2420.4757        70550         4958 
14120000   0.90593355   -3.2231492      1728000    2422.2535        70600         4961 
14130000   0.95124798   -3.1174537      1728000    2424.0255        70650         4962 
14140000     1.035538   -3.1455797      1728000    2425.7658        70700         4965 
14150000     1.045381   -3.2002895      1728000    2427.5025        70750         4967 
14160000    1.0370901   -3.3478057      1728000    2429.2639        70800         4968 
14170000    1.0097334   -3.1531937      1728000    2431.0357        70850         4971 
14180000    1.0524922   -3.1496149      1728000    2432.8106        70900         4975 
14190000   0.97584938   -3.1847978      1728000    2434.5806        70950         4979 
14200000    1.0274541   -3.2533364      1728000    2436.3649        71000         4982 
14210000    1.0356363   -3.2286494      1728000    2438.1386        71050         4984 
14220000   0.98899669   -3.2086427      1728000    2439.8992        71100         4985 
14230000    1.0072153    -3.196151      1728000    2441.6715        71150         4986 
14240000   0.92381232   -3.2492187      1728000     2443.447        71200         4988 
14250000   0.98722062   -3.1152911      1728000    2445.1958        71250         4990 
14260000   0.99980502   -3.1533746      1728000    2446.9756        71300         4993 
14270000   0.97308998    -3.266794      1728000    2448.7398        71350         4995 
14280000    1.0214935   -3.1558038      1728000    2450.4996        71400         4997 
14290000    1.0253606   -3.2913447      1728000    2452.2676        71450         4998 
14300000   0.97756627   -3.2564901      1728000    2454.0536        71500         4999 
14310000   0.96647829   -3.1794781      1728000    2455.8456        71550         4999 
14320000    1.0636348   -3.1594284      1728000    2457.6217        71600         5001 
14330000   0.97752103   -3.2314619      1728000    2459.4116        71650         5002 
14340000    0.9496909   -3.2543024      1728000    2461.1999        71700         5002 
14350000   0.96005229   -3.1538597      1728000    2462.9732        71750         5002 
14360000   0.97414781   -3.1318542      1728000    2464.7375        71800         5004 
14370000    0.9749713   -3.2218068      1728000    2466.5157        71850         5004 
14380000   0.99523715   -3.3312395      1728000    2468.2837        71900         5004 
14390000     1.013236   -3.1951538      1728000    2470.0647        71950         5005 
14400000    1.0064291   -3.3322947      1728000    2471.8436        72000         5007 
14410000   0.95726832   -3.3375768      1728000    2473.6209        72050         5009 
14420000    1.0102361   -3.3050341      1728000     2475.432        72100         5011 
14430000    1.0008163   -3.2475515      1728000    2477.2056        72150         5012 
14440000    1.0402257   -3.3854639      1728000    2479.0578        72200         5012 
14450000    1.0018852   -3.2184782      1728000    2480.9566        72250         5012 
14460000   0.95847143   -3.1802349      1728000    2482.8408        72300         5012 
14470000    1.0060489   -3.2157378      1728000    2484.6659        72350         5012 
14480000    1.0480536   -3.1299624      1728000    2486.4489        72400         5013 
14490000    1.0108376   -3.3151127      1728000    2488.2659        72450         5014 
14500000    1.0351736   -3.2620746      1728000    2490.1098        72500         5015 
14510000    1.0202763    -3.343076      1728000    2491.9999        72550         5016 
14520000    1.0439573   -3.2595849      1728000     2493.904        72600         5017 
14530000   0.97895967   -3.1905864      1728000     2495.855        72650         5017 
14540000    1.0006334    -3.214789      1728000     2497.744        72700         5019 
14550000    1.0500417   -3.3000669      1728000     2499.592        72750         5020 
14560000   0.98358775   -3.3165374      1728000    2501.4521        72800         5021 
14570000   0.99145801   -3.3063867      1728000    2503.3082        72850         5022 
14580000     1.007672   -3.2779248      1728000    2505.0929        72900         5023 
14590000    1.0253999   -3.3229342      1728000    2506.8938        72950         5026 
14600000    1.0319268   -3.2012512      1728000    2508.6938        73000         5027 
14610000    1.0201133   -3.2472563      1728000    2510.4738        73050         5027 
14620000   0.98262776   -3.2563957      1728000    2512.2539        73100         5028 
14630000   0.95481663   -3.3759145      1728000    2514.0466        73150         5028 
14640000    0.9952784    -3.335753      1728000    2515.8527        73200         5029 
14650000   0.97437682   -3.3758839      1728000    2517.6549        73250         5029 
14660000    1.0126292   -3.2649749      1728000    2519.4487        73300         5029 
14670000   0.98359869    -3.334583      1728000    2521.2527        73350         5029 
14680000    1.0517785   -3.2562376      1728000     2523.036        73400         5029 
14690000    1.0122043   -3.2068469      1728000    2524.8306        73450         5031 
14700000    1.0134931   -3.3514222      1728000    2526.6437        73500         5031 
14710000   0.96118596   -3.2579093      1728000    2528.4669        73550         5031 
14720000     1.027433   -3.3393846      1728000    2530.2588        73600         5032 
14730000    1.0183382   -3.1440565      1728000    2532.0356        73650         5033 
14740000    1.0397196   -3.3646991      1728000    2533.8048        73700         5035 
14750000    1.0010525   -3.2943319      1728000    2535.6036        73750         5037 
14760000     1.068325   -3.3692365      1728000      2537.41        73800         5037 
14770000    1.0435885   -3.4560292      1728000    2539.2016        73850         5037 
14780000    1.0098856   -3.3644693      1728000    2541.0169        73900         5038 
14790000   0.98805603   -3.2041716      1728000    2542.8118        73950         5039 
14800000    0.9923871    -3.278284      1728000    2544.6359        74000         5039 
14810000    1.0195277   -3.3918081      1728000    2546.4549        74050         5042 
14820000   0.95546546   -3.3854344      1728000    2548.2619        74100         5043 
14830000   0.92440277   -3.3609519      1728000     2550.083        74150         5043 
14840000   0.94523278   -3.3113577      1728000    2551.9015        74200         5043 
14850000    1.0446539   -3.3990748      1728000    2553.7038        74250         5044 
14860000    0.9769433   -3.3526971      1728000    2555.5279        74300         5045 
14870000   0.99926319   -3.1956298      1728000    2557.3468        74350         5045 
14880000    1.0624125   -3.2903337      1728000     2559.147        74400         5045 
14890000   0.98352112    -3.277738      1728000     2560.934        74450         5045 
14900000    1.0342814   -3.3152845      1728000     2562.729        74500         5046 
14910000   0.95774402   -3.3806341      1728000    2564.5361        74550         5046 
14920000    0.9995751   -3.3573794      1728000    2566.3169        74600         5046 
14930000   0.96054619   -3.3395277      1728000    2568.1117        74650         5047 
14940000    1.0222718   -3.2520508      1728000    2569.9328        74700         5047 
14950000   0.94383122   -3.4088714      1728000     2571.736        74750         5048 
14960000   0.99261825   -3.1739659      1728000    2573.5358        74800         5048 
14970000   0.98828243   -3.2744675      1728000    2575.3228        74850         5052 
14980000    1.0325542   -3.2471928      1728000    2577.1051        74900         5052 
14990000   0.98168506   -3.3262727      1728000    2578.8856        74950         5052 
15000000   0.99598237   -3.3939416      1728000    2580.6809        75000         5052 
15010000    1.0293562   -3.3066816      1728000    2582.4717        75050         5055 
15020000    1.0031056   -3.5653076      1728000    2584.2799        75100         5055 
15030000   0.97991982   -3.3521661      1728000    2586.0857        75150         5056 
15040000   0.99007296   -3.2853396      1728000    2587.8839        75200         5057 
15050000      1.03096    -3.308873      1728000    2589.6829        75250         5057 
15060000   0.96321341   -3.3586486      1728000     2591.478        75300         5057 
15070000   0.99380033   -3.2579706      1728000    2593.2868        75350         5059 
15080000    1.0121065   -3.4069221      1728000     2595.083        75400         5059 
15090000    1.0498794   -3.2669502      1728000    2596.8878        75450         5059 
15100000   0.94100477   -3.3679265      1728000    2598.6956        75500         5059 
15110000   0.99966476   -3.3576352      1728000    2600.5005        75550         5059 
15120000   0.93721571   -3.3758682      1728000     2602.309        75600         5059 
15130000    1.0025829   -3.3411089      1728000     2604.113        75650         5059 
15140000   0.97226284   -3.3039796      1728000     2605.948        75700         5059 
15150000   0.98424002   -3.3839656      1728000     2607.741        75750         5060 
15160000    1.0450176   -3.3900106      1728000     2609.531        75800         5062 
15170000    1.0192569   -3.2931415      1728000     2611.339        75850         5062 
15180000    1.0111497   -3.3203945      1728000    2613.1291        75900         5066 
15190000   0.99485578   -3.2731082      1728000    2614.9169        75950         5067 
15200000    0.9633689   -3.3193144      1728000    2616.7009        76000         5070 
15210000   0.94599367   -3.1794065      1728000    2618.4898        76050         5071 
15220000    1.0605101   -3.2772568      1728000    2620.2622        76100         5072 
15230000   0.99136765    -3.249695      1728000    2622.0585        76150         5076 
15240000   0.96092916   -3.3005712      1728000     2623.851        76200         5077 
15250000   0.96896967   -3.3340045      1728000    2625.6428        76250         5079 
15260000    1.0380458   -3.2767215      1728000      2627.48        76300         5079 
15270000   0.98966032   -3.3023768      1728000    2629.2678        76350         5081 
15280000    1.0440455   -3.1322258      1728000    2631.0531        76400         5081 
15290000   0.96267615   -3.3708768      1728000    2632.8269        76450         5083 
15300000   0.97262516   -3.2099197      1728000    2634.6271        76500         5083 
15310000    1.0357392   -3.3550845      1728000    2636.4159        76550         5085 
15320000    1.0545888   -3.2857084      1728000    2638.2179        76600         5086 
15330000   0.90941782   -3.2997145      1728000    2639.9958        76650         5086 
15340000    1.0339448   -3.4239946      1728000    2641.8088        76700         5086 
15350000   0.98192737   -3.2625358      1728000    2643.6238        76750         5087 
15360000    0.9198743    -3.296177      1728000    2645.4271        76800         5088 
15370000    1.0349786   -3.4153832      1728000    2647.2029        76850         5088 
15380000    1.0276721   -3.2920934      1728000    2648.9957        76900         5089 
15390000    0.9911843    -3.232387      1728000    2650.8087        76950         5090 
15400000    1.0202848   -3.1940129      1728000     2652.613        77000         5091 
15410000    1.0004583   -3.3494991      1728000    2654.3789        77050         5092 
15420000    1.0526558    -3.243013      1728000    2656.1431        77100         5093 
15430000   0.97424199   -3.2506658      1728000    2657.9208        77150         5093 
15440000   0.97899545   -3.2224883      1728000    2659.6897        77200         5094 
15450000   0.96459109   -3.2143013      1728000     2661.479        77250         5098 
15460000    0.9974241   -3.1377341      1728000     2663.244        77300         5098 
15470000    1.0210851   -3.2383266      1728000    2665.0129        77350         5100 
15480000   0.97092552    -3.133811      1728000     2666.802        77400         5102 
15490000   0.95776696   -3.1317695      1728000    2668.5961        77450         5103 
15500000   0.97611272   -3.2633192      1728000     2670.378        77500         5105 
15510000   0.99684326   -3.3652648      1728000    2672.1319        77550         5106 
15520000    1.0291312   -3.3019601      1728000    2673.8989        77600         5107 
15530000    1.0308142   -3.2248189      1728000    2675.6891        77650         5109 
15540000   0.98987341   -3.2256319      1728000    2677.4831        77700         5112 
15550000    1.0795404   -3.2161181      1728000    2679.2595        77750         5114 
15560000    1.0701639   -3.2910974      1728000    2681.0509        77800         5114 
15570000    1.0277865   -3.3789425      1728000    2682.8367        77850         5115 
15580000   0.99701994   -3.1329829      1728000     2684.613        77900         5115 
15590000    0.9958463   -3.1906016      1728000    2686.3738        77950         5116 
15600000   0.96608641   -3.2073258      1728000    2688.1701        78000         5116 
15610000    1.0025151   -3.3278835      1728000    2689.9331        78050         5119 
15620000   0.96391201   -3.3214418      1728000    2691.7038        78100         5123 
15630000    1.0715445   -3.1611181      1728000    2693.4902        78150         5124 
15640000   0.99450583   -3.2276451      1728000    2695.2485        78200         5126 
15650000   0.97914571   -3.1958591      1728000    2697.0316        78250         5126 
15660000    0.9738819   -3.2657695      1728000    2698.7971        78300         5127 
15670000   0.98842763   -3.2564946      1728000     2700.566        78350         5128 
15680000    1.0444537   -3.2459761      1728000    2702.3147        78400         5130 
15690000      1.06024   -3.1810197      1728000    2704.0771        78450         5131 
15700000    0.9325547   -3.1870266      1728000    2705.8498        78500         5132 
15710000    1.0345349   -3.1661459      1728000    2707.6099        78550         5132 
15720000    1.0195615   -3.2757951      1728000    2709.3909        78600         5133 
15730000   0.98287279   -3.3079498      1728000    2711.1717        78650         5135 
15740000    1.0234294   -3.2144864      1728000      2712.95        78700         5136 
15750000   0.99389906   -3.3524518      1728000    2714.7379        78750         5136 
15760000   0.96601636   -3.2747451      1728000    2716.5091        78800         5138 
15770000   0.98247895   -3.3178091      1728000    2718.2831        78850         5140 
15780000   0.97831757   -3.3223631      1728000    2720.0742        78900         5142 
15790000     1.026371   -3.2007798      1728000    2721.8451        78950         5143 
15800000   0.95625616   -3.2004742      1728000    2723.6139        79000         5146 
15810000    1.0506328   -3.3346427      1728000     2725.378        79050         5147 
15820000   0.96614922   -3.1537843      1728000    2727.1602        79100         5148 
15830000   0.96945848   -3.1595113      1728000    2728.9279        79150         5150 
15840000    1.0293674   -3.2486383      1728000     2730.712        79200         5152 
15850000    1.0539328    -3.256767      1728000    2732.5361        79250         5153 
15860000    1.0104416   -3.3117668      1728000    2734.3211        79300         5156 
15870000   0.93890633    -3.139918      1728000    2736.0912        79350         5156 
15880000   0.92634738   -3.2229767      1728000    2737.8564        79400         5159 
15890000   0.99103374   -3.1860568      1728000    2739.6419        79450         5160 
15900000    1.0496987   -3.2474039      1728000    2741.4199        79500         5161 
15910000     1.099719     -3.16963      1728000    2743.1992        79550         5164 
15920000    1.0124056   -3.2163135      1728000    2744.9547        79600         5166 
15930000   0.95655922   -3.2850241      1728000    2746.7272        79650         5166 
15940000   0.96924877   -3.1160109      1728000    2748.5196        79700         5167 
15950000   0.94405347   -3.1932911      1728000    2750.2952        79750         5168 
15960000    1.0183818    -3.204937      1728000    2752.0758        79800         5168 
15970000    1.0105344    -3.227502      1728000    2753.8342        79850         5172 
15980000   0.97797026   -3.1737708      1728000    2755.6201        79900         5172 
15990000   0.97601272   -3.3123659      1728000     2757.396        79950         5175 
16000000   0.94122844   -3.0878674      1728000    2759.1719        80000         5176 
16010000   0.96718654   -3.2152412      1728000    2760.9271        80050         5177 
16020000    1.0104792   -3.1014112      1728000    2762.7128        80100         5177 
16030000    1.0041455   -3.1850829      1728000    2764.4629        80150         5178 
16040000   0.98578762   -3.2005904      1728000    2766.2321        80200         5183 
16050000    1.0556045    -3.145183      1728000     2767.995        80250         5184 
16060000   0.98562275   -3.0976177      1728000    2769.7421        80300         5187 
16070000    1.0094304   -3.2135946      1728000    2771.4902        80350         5192 
16080000   0.94917434   -3.2836526      1728000     2773.268        80400         5194 
16090000    1.0688062   -3.1896718      1728000    2775.0467        80450         5195 
16100000   0.96267822   -3.1648033      1728000    2776.8371        80500         5195 
16110000    1.0608251   -3.0503432      1728000    2778.5971        80550         5195 
16120000    1.0440649   -3.2818865      1728000     2780.361        80600         5196 
16130000   0.95034723   -3.2244622      1728000    2782.1608        80650         5197 
16140000   0.99091086   -3.2703708      1728000    2783.9372        80700         5198 
16150000    1.0034309   -3.0965545      1728000     2785.711        80750         5201 
16160000    1.0076405   -3.2756479      1728000    2787.4889        80800         5205 
16170000   0.96251686   -3.1226093      1728000     2789.253        80850         5207 
16180000    1.0145384   -3.3554613      1728000    2791.0261        80900         5210 
16190000    1.0146888   -3.2294433      1728000    2792.7992        80950         5210 
16200000    1.0031243   -3.2107046      1728000    2794.5779        81000         5212 
16210000    1.0332036   -3.3951791      1728000    2796.3549        81050         5215 
16220000    1.0083382   -3.0915162      1728000    2798.1531        81100         5216 
16230000   0.98870193   -3.2058278      1728000    2799.9267        81150         5219 
16240000   0.94878492   -3.1401745      1728000    2801.6953        81200         5221 
16250000    1.0674718   -3.2430444      1728000    2803.4673        81250         5222 
16260000    1.0171878   -3.2284092      1728000    2805.2638        81300         5223 
16270000   0.97752777   -3.2218918      1728000    2807.0439        81350         5224 
16280000   0.97012462   -3.2572236      1728000    2808.8332        81400         5224 
16290000   0.97659641   -3.2385646      1728000     2810.626        81450         5229 
16300000    1.0357227   -3.1837232      1728000    2812.4182        81500         5230 
16310000    1.0200644    -3.231443      1728000    2814.2141        81550         5233 
16320000    1.0507818   -3.3035846      1728000    2816.0142        81600         5234 
16330000   0.97567037   -3.3651532      1728000    2817.8091        81650         5235 
16340000    1.0514156   -3.3313569      1728000    2819.5962        81700         5237 
16350000    1.0017888   -3.3609161      1728000      2821.38        81750         5241 
16360000   0.99795628   -3.2834383      1728000    2823.1651        81800         5241 
16370000    1.0192243    -3.225702      1728000     2824.948        81850         5241 
16380000    1.0102135   -3.2294521      1728000    2826.7371        81900         5241 
16390000   0.96964806    -3.288258      1728000     2828.531        81950         5241 
16400000    1.0589176   -3.2170385      1728000    2830.3721        82000         5241 
16410000    1.0470442   -3.2435871      1728000    2832.1514        82050         5242 
16420000    1.0576036   -3.1579441      1728000     2833.946        82100         5243 
16430000   0.98721285   -3.3336706      1728000    2835.7303        82150         5243 
16440000   0.97352442   -3.3501506      1728000    2837.5163        82200         5247 
16450000    1.0020511   -3.1776409      1728000    2839.3103        82250         5250 
16460000     1.076072   -3.4270415      1728000    2841.1394        82300         5250 
16470000    1.0213611   -3.1379878      1728000    2842.9109        82350         5251 
16480000   0.96873062   -3.2091294      1728000    2844.6839        82400         5255 
16490000   0.97824547   -3.2785837      1728000    2846.4781        82450         5255 
16500000   0.96780045   -3.2616997      1728000    2848.2741        82500         5256 
16510000     1.024358   -3.4026972      1728000    2850.0682        82550         5258 
16520000    1.0244331   -3.2177288      1728000    2851.8473        82600         5260 
16530000     1.016081   -3.3080237      1728000     2853.633        82650         5260 
16540000    1.0158635   -3.2526645      1728000    2855.4329        82700         5260 
16550000    1.0295033   -3.2449662      1728000    2857.1982        82750         5266 
16560000   0.95875013     -3.25805      1728000    2858.9645        82800         5269 
16570000   0.98178763   -3.3104425      1728000    2860.7423        82850         5271 
16580000    1.0278831   -3.2822961      1728000    2862.5143        82900         5272 
16590000   0.98372129   -3.2971753      1728000    2864.2789        82950         5275 
16600000   0.98055783   -3.2834876      1728000    2866.0632        83000         5276 
16610000    1.0404714   -3.2391341      1728000    2867.8361        83050         5277 
16620000   0.98087305   -3.1418159      1728000    2869.6121        83100         5279 
16630000    1.0203323   -3.1855881      1728000    2871.3912        83150         5281 
16640000    1.0641198   -3.2513604      1728000    2873.1593        83200         5282 
16650000    1.0542989    -3.196149      1728000    2874.9461        83250         5285 
16660000     1.000173   -3.1461625      1728000    2876.7083        83300         5286 
16670000   0.98958341   -3.2068338      1728000     2878.474        83350         5286 
16680000   0.97642211    -3.303943      1728000    2880.2393        83400         5287 
16690000   0.94907925   -3.3179604      1728000     2882.013        83450         5289 
16700000    1.0075281   -3.2598426      1728000    2883.8033        83500         5290 
16710000   0.96512846   -3.1757115      1728000    2885.5643        83550         5291 
16720000    1.0016072   -3.0492654      1728000    2887.2993        83600         5293 
16730000   0.93999471    -3.089618      1728000    2889.0553        83650         5294 
16740000    1.0519898   -3.1941948      1728000    2890.8162        83700         5296 
16750000    1.0101946    -3.433082      1728000    2892.5831        83750         5296 
16760000   0.98162739   -3.2223062      1728000    2894.3737        83800         5296 
16770000    1.0343239   -3.2701564      1728000    2896.1645        83850         5297 
16780000    1.0083388   -3.3119618      1728000    2897.9363        83900         5299 
16790000    1.0046625   -3.2329374      1728000    2899.7053        83950         5302 
16800000   0.99990096   -3.2419377      1728000    2901.4943        84000         5304 
16810000    1.0202678   -3.1165254      1728000    2903.2672        84050         5304 
16820000    1.0367768   -3.1828465      1728000    2905.0393        84100         5307 
16830000   0.98041942   -3.3411176      1728000    2906.8393        84150         5308 
16840000   0.99381512   -3.2441736      1728000     2908.616        84200         5309 
16850000    1.0349308   -3.2141423      1728000    2910.4002        84250         5310 
16860000    1.0096899   -3.2651009      1728000     2912.168        84300         5314 
16870000    0.9918875   -3.2073248      1728000    2913.9523        84350         5315 
16880000   0.97211809   -3.3155703      1728000    2915.7391        84400         5316 
16890000   0.94710042   -3.1931702      1728000    2917.5173        84450         5317 
16900000   0.98651615   -3.2818552      1728000    2919.3133        84500         5318 
16910000    1.0196299   -3.1808589      1728000    2921.1073        84550         5319 
16920000    1.0438307   -3.3106469      1728000    2922.8861        84600         5319 
16930000   0.99783129   -3.3002659      1728000    2924.6714        84650         5319 
16940000    0.9870358    -3.305546      1728000    2926.4593        84700         5319 
16950000    1.0285427   -3.1588991      1728000    2928.2284        84750         5319 
16960000   0.98886139    -3.252491      1728000    2929.9742        84800         5320 
16970000   0.94534669   -3.1996096      1728000    2931.7409        84850         5322 
16980000   0.99517603   -3.2717518      1728000    2933.4833        84900         5325 
16990000    1.0005939   -3.2668332      1728000     2935.268        84950         5327 
17000000    1.0456059   -3.2902935      1728000    2937.0602        85000         5328 
17010000   0.97923211   -3.1975421      1728000    2938.8352        85050         5329 
17020000    1.0028554   -3.3143183      1728000    2940.6181        85100         5330 
17030000    1.0409302   -3.1945543      1728000    2942.3994        85150         5331 
17040000    1.0748685   -3.2776216      1728000    2944.1753        85200         5334 
17050000    1.0647034   -3.2145126      1728000     2945.955        85250         5334 
17060000   0.96915684    -3.261807      1728000    2947.7291        85300         5335 
17070000   0.97162245   -3.0762033      1728000    2949.4702        85350         5339 
17080000    1.0187981   -3.3147875      1728000    2951.2283        85400         5340 
17090000    0.9788411   -3.2110927      1728000    2952.9874        85450         5342 
17100000    1.0252076   -3.3031427      1728000    2954.7833        85500         5343 
17110000   0.97550889   -3.2591025      1728000    2956.5682        85550         5344 
17120000   0.96661778   -3.2364175      1728000    2958.3694        85600         5348 
17130000   0.97025021   -3.1980182      1728000     2960.156        85650         5350 
17140000   0.96804215   -3.2085154      1728000    2961.9392        85700         5351 
17150000    1.0845689   -3.1359309      1728000    2963.7144        85750         5353 
17160000   0.99608307   -3.2800332      1728000    2965.5012        85800         5353 
17170000    1.0680274   -3.2280028      1728000    2967.2802        85850         5354 
17180000     1.018519   -3.2956105      1728000    2969.0682        85900         5354 
17190000    1.0901424   -3.2715347      1728000    2970.8619        85950         5355 
17200000    1.0136479   -3.1985149      1728000    2972.6481        86000         5360 
17210000   0.96558834   -3.2544389      1728000    2974.4193        86050         5362 
17220000    1.0408712   -3.2865687      1728000    2976.2004        86100         5364 
17230000    0.9479475   -3.3127995      1728000    2977.9923        86150         5365 
17240000   0.96794687    -3.145217      1728000    2979.7883        86200         5367 
17250000    1.0349477   -3.1720305      1728000    2981.5611        86250         5368 
17260000     1.089313   -3.3586754      1728000    2983.3244        86300         5369 
17270000   0.98141541    -3.249435      1728000    2985.1014        86350         5373 
17280000    1.0554883   -3.2018341      1728000    2986.8838        86400         5373 
17290000    0.9402527   -3.2133473      1728000    2988.6554        86450         5377 
17300000    1.0263803   -3.2934621      1728000     2990.445        86500         5378 
17310000    1.0216709   -3.1597304      1728000    2992.2325        86550         5379 
17320000   0.99303464   -3.2068907      1728000    2994.0084        86600         5383 
17330000    1.0285779    -3.368511      1728000    2995.7864        86650         5384 
17340000    1.0079887   -3.2553195      1728000    2997.5794        86700         5384 
17350000    1.0196814   -3.2298468      1728000    2999.4505        86750         5386 
17360000   0.98059055     -3.19963      1728000    3001.2963        86800         5387 
17370000    1.0643026   -3.3130318      1728000    3003.0974        86850         5390 
17380000   0.99237801   -3.1783485      1728000    3004.8823        86900         5391 
17390000    1.0608953   -3.2182965      1728000    3006.6815        86950         5392 
17400000   0.99166383   -3.3186392      1728000    3008.4651        87000         5393 
17410000    1.0475966   -3.1995864      1728000    3010.2635        87050         5393 
17420000   0.96800369   -3.3494177      1728000    3012.0394        87100         5393 
17430000   0.97136595   -3.2636761      1728000    3013.8144        87150         5393 
17440000   0.97459472   -3.2282435      1728000    3015.6092        87200         5394 
17450000    0.9398655   -3.1871323      1728000    3017.3883        87250         5394 
17460000     1.038354   -3.3349927      1728000    3019.1667        87300         5394 
17470000   0.98517142    -3.278966      1728000    3020.9715        87350         5394 
17480000    1.0274728   -3.2805708      1728000    3022.7343        87400         5396 
17490000    0.9620723    -3.256177      1728000    3024.4884        87450         5396 
17500000    1.0056341    -3.252664      1728000    3026.2794        87500         5397 
17510000    0.9830423   -3.2436747      1728000    3028.0574        87550         5397 
17520000   0.97857096    -3.222754      1728000    3029.8463        87600         5398 
17530000     1.032105   -3.3550578      1728000    3031.6555        87650         5400 
17540000    1.0107876   -3.1201329      1728000    3033.4453        87700         5400 
17550000   0.98724808   -3.2001871      1728000    3035.2088        87750         5402 
17560000   0.98018407   -3.3010114      1728000    3036.9703        87800         5403 
17570000   0.95354806   -3.2820276      1728000    3038.7415        87850         5403 
17580000   0.99902184   -3.3187574      1728000    3040.5264        87900         5404 
17590000    1.0070101   -3.2830414      1728000    3042.3273        87950         5405 
17600000    1.0112871   -3.4162034      1728000    3044.1265        88000         5405 
17610000    1.0746264   -3.3629645      1728000    3045.9302        88050         5405 
17620000    1.0264189   -3.2688172      1728000    3047.7165        88100         5406 
17630000    1.0500674   -3.3133095      1728000    3049.5085        88150         5408 
17640000   0.94547784   -3.3905263      1728000    3051.2935        88200         5410 
17650000   0.97434783    -3.249016      1728000    3053.1023        88250         5410 
17660000    1.0083651   -3.3769698      1728000    3054.8884        88300         5410 
17670000    1.0312154   -3.2996642      1728000    3056.6776        88350         5411 
17680000    1.0101957   -3.2692677      1728000    3058.4732        88400         5412 
17690000   0.98663959   -3.2860968      1728000    3060.2614        88450         5414 
17700000    1.0292368    -3.318876      1728000    3062.0594        88500         5414 
17710000   0.95953645   -3.3181943      1728000    3063.8493        88550         5415 
17720000   0.98998751   -3.3127477      1728000    3065.6272        88600         5415 
17730000     1.006691   -3.2818365      1728000    3067.4195        88650         5415 
17740000   0.94644626   -3.3693957      1728000    3069.2072        88700         5416 
17750000    1.0602399   -3.2876824      1728000    3071.0153        88750         5416 
17760000     1.020491   -3.3400488      1728000    3072.8091        88800         5417 
17770000     1.051366   -3.2932299      1728000    3074.5875        88850         5419 
17780000   0.94969046   -3.3464744      1728000    3076.3552        88900         5420 
17790000   0.97400557   -3.2312425      1728000    3078.1442        88950         5420 
17800000    1.0406408   -3.2325153      1728000    3079.9315        89000         5423 
17810000    1.0204962   -3.2883403      1728000    3081.7845        89050         5424 
17820000   0.94793113   -3.2736377      1728000    3083.6684        89100         5427 
17830000    1.0086665   -3.2193356      1728000    3085.5063        89150         5429 
17840000   0.97099404   -3.3246063      1728000    3087.2696        89200         5431 
17850000   0.96429835   -3.0947345      1728000    3089.0604        89250         5431 
17860000     1.028393   -3.2041014      1728000    3090.8185        89300         5431 
17870000    1.0446819   -3.3750952      1728000    3092.5925        89350         5431 
17880000   0.95290278   -3.4309256      1728000    3094.4032        89400         5431 
17890000    1.0102466   -3.2219184      1728000    3096.2894        89450         5432 
17900000   0.96194776   -3.2084068      1728000    3098.1885        89500         5435 
17910000   0.94724859   -3.2298237      1728000    3100.0836        89550         5437 
17920000    1.0050642   -3.2742039      1728000    3101.9197        89600         5438 
17930000   0.96204508   -3.3041957      1728000    3103.7484        89650         5439 
17940000    1.0012517   -3.1812671      1728000    3105.5852        89700         5440 
17950000   0.98634834    -3.283176      1728000    3107.4183        89750         5441 
17960000   0.97449056   -3.2578135      1728000    3109.2384        89800         5442 
17970000   0.95970166   -3.1930286      1728000     3111.192        89850         5443 
17980000    1.0073832   -3.2892014      1728000    3113.1071        89900         5444 
17990000   0.95554906   -3.2573095      1728000    3114.9841        89950         5447 
18000000    1.0057229   -3.3032442      1728000    3116.8522        90000         5448 
18010000    1.0431553   -3.1832864      1728000    3118.6485        90050         5449 
18020000    1.0350524    -3.273461      1728000    3120.5076        90100         5453 
18030000   0.94540245   -3.2584341      1728000    3122.3424        90150         5454 
18040000    1.0259085   -3.2478133      1728000    3124.1278        90200         5456 
18050000      1.04224   -3.1784652      1728000    3125.9087        90250         5458 
18060000    1.0644798   -3.1639833      1728000    3127.6994        90300         5460 
18070000    1.0293249   -3.3359961      1728000    3129.5063        90350         5462 
18080000   0.98049267   -3.2721997      1728000    3131.3279        90400         5462 
18090000   0.94739619   -3.2669972      1728000    3133.1055        90450         5467 
18100000   0.96230091   -3.3384845      1728000    3134.9213        90500         5467 
18110000    1.0448827   -3.3134301      1728000      3136.71        90550         5467 
18120000    1.0227942   -3.2611628      1728000    3138.4974        90600         5467 
18130000   0.93849049   -3.3209404      1728000    3140.2875        90650         5469 
18140000   0.91858978   -3.2916924      1728000    3142.0679        90700         5471 
18150000    1.0215147   -3.2473768      1728000     3143.839        90750         5472 
18160000    1.0235338   -3.3241354      1728000    3145.6335        90800         5472 
18170000    1.0033832   -3.2706519      1728000    3147.4106        90850         5473 
18180000   0.97428129   -3.2203152      1728000    3149.2222        90900         5474 
18190000    1.0536546   -3.1451763      1728000    3150.9944        90950         5476 
18200000   0.92880795   -3.1805822      1728000    3152.7909        91000         5478 
18210000   0.99037717   -3.2093774      1728000    3154.5944        91050         5481 
18220000     1.012247   -3.1630013      1728000    3156.3554        91100         5482 
18230000    1.0160402    -3.205584      1728000    3158.1383        91150         5482 
18240000    1.0542902   -3.3206268      1728000    3159.9333        91200         5483 
18250000   0.96917233   -3.2280021      1728000     3161.721        91250         5483 
18260000    1.0227968   -3.3082049      1728000    3163.5075        91300         5485 
18270000    1.0031768   -3.3299388      1728000    3165.2962        91350         5486 
18280000    1.0372954   -3.3233243      1728000    3167.1102        91400         5488 
18290000   0.96902599   -3.3970492      1728000    3168.9264        91450         5488 
18300000    1.0989683   -3.2476422      1728000    3170.7322        91500         5488 
18310000    1.0018349   -3.2421224      1728000    3172.5174        91550         5489 
18320000    1.0174918   -3.3742047      1728000    3174.3383        91600         5489 
18330000   0.95133013   -3.3301274      1728000    3176.1342        91650         5489 
18340000    0.9341832   -3.3942798      1728000    3177.9175        91700         5489 
18350000    1.0017827   -3.2792337      1728000     3179.701        91750         5489 
18360000     1.016813   -3.2914489      1728000    3181.4794        91800         5492 
18370000   0.96383034   -3.2753858      1728000    3183.2734        91850         5494 
18380000   0.94089038   -3.2536657      1728000    3185.0685        91900         5494 
18390000    0.9485719   -3.2750701      1728000    3186.8572        91950         5497 
18400000    0.9829201   -3.2428258      1728000    3188.6557        92000         5500 
18410000    1.0073237    -3.201019      1728000     3190.436        92050         5503 
18420000     1.010082    -3.285305      1728000    3192.1988        92100         5505 
18430000    0.9923576   -3.2153038      1728000    3194.0023        92150         5506 
18440000   0.98989188   -3.2303187      1728000    3195.8035        92200         5508 
18450000     1.007315   -3.2722615      1728000    3197.5823        92250         5511 
18460000    1.0317997   -3.3276995      1728000    3199.3734        92300         5513 
18470000   0.90646827   -3.1557572      1728000    3201.1635        92350         5513 
18480000    1.0521648   -3.2518937      1728000    3202.9425        92400         5515 
18490000    1.0024866   -3.3745564      1728000    3204.7224        92450         5515 
18500000     1.019364   -3.3037134      1728000    3206.5084        92500         5519 
18510000    1.0287419    -3.286829      1728000    3208.2715        92550         5523 
18520000    1.0489555   -3.1955236      1728000    3210.1035        92600         5524 
18530000   0.96708574    -3.314827      1728000    3211.9104        92650         5524 
18540000   0.98978701   -3.3430435      1728000    3213.6935        92700         5524 
18550000   0.96757882   -3.3340369      1728000    3215.4794        92750         5525 
18560000   0.98194383   -3.2205483      1728000    3217.2739        92800         5525 
18570000    1.0045407    -3.281933      1728000    3219.0625        92850         5527 
18580000    1.0160944   -3.3206246      1728000    3220.8826        92900         5528 
18590000    1.0254593   -3.3964469      1728000    3222.6635        92950         5530 
18600000   0.96553211   -3.2303234      1728000    3224.4454        93000         5532 
18610000   0.97624346   -3.2273684      1728000    3226.2346        93050         5533 
18620000   0.97313362   -3.3714272      1728000    3228.0355        93100         5535 
18630000    1.0496102   -3.4220445      1728000    3229.8336        93150         5535 
18640000    1.0069064   -3.3483774      1728000    3231.6506        93200         5537 
18650000   0.98044525   -3.2794812      1728000    3233.4565        93250         5541 
18660000    0.9999187   -3.1609077      1728000    3235.2458        93300         5543 
18670000   0.98258779   -3.2944922      1728000    3237.0385        93350         5545 
18680000   0.98709677   -3.2632342      1728000    3238.8093        93400         5547 
18690000    1.0196651   -3.2941593      1728000     3240.581        93450         5548 
18700000    1.0031077   -3.3462589      1728000    3242.3764        93500         5549 
18710000     0.985869   -3.3424733      1728000    3244.1542        93550         5550 
18720000   0.90727266   -3.2445043      1728000    3245.9805        93600         5551 
18730000   0.94424654   -3.2371428      1728000    3247.7635        93650         5553 
18740000   0.95864239   -3.3612457      1728000    3249.5556        93700         5553 
18750000   0.97439688   -3.2673546      1728000    3251.3615        93750         5554 
18760000   0.94911314    -3.316392      1728000    3253.1533        93800         5555 
18770000    1.0355006    -3.368814      1728000    3254.9313        93850         5559 
18780000    1.0221136   -3.2857859      1728000    3256.7347        93900         5560 
18790000    1.0245576   -3.3697534      1728000    3258.5002        93950         5560 
18800000    1.0307348   -3.2375467      1728000    3260.2973        94000         5561 
18810000   0.93521856   -3.2841446      1728000    3262.0873        94050         5561 
18820000   0.99250593   -3.2408221      1728000    3263.8672        94100         5562 
18830000    1.0004409   -3.2056519      1728000    3265.6454        94150         5563 
18840000    1.0359646   -3.2550353      1728000    3267.4197        94200         5564 
18850000    1.0031318   -3.2703215      1728000     3269.208        94250         5567 
18860000    1.0251065   -3.1356682      1728000    3270.9817        94300         5571 
18870000   0.97453877   -3.2244585      1728000    3272.7619        94350         5572 
18880000    1.0185981   -3.2421467      1728000    3274.5471        94400         5574 
18890000    1.0562294   -3.3179648      1728000    3276.3213        94450         5575 
18900000    1.0148661   -3.1238523      1728000    3278.1085        94500         5577 
18910000   0.97090091   -3.2040003      1728000    3279.8954        94550         5583 
18920000    0.9844457    -3.184453      1728000    3281.6705        94600         5584 
18930000    1.0839734   -3.1610964      1728000    3283.4805        94650         5585 
18940000   0.92187192   -3.2770995      1728000    3285.3056        94700         5587 
18950000    1.0476613      -3.2704      1728000    3287.0914        94750         5587 
18960000    1.0258089   -3.2339795      1728000    3288.8504        94800         5587 
18970000     1.020852   -3.1980892      1728000    3290.6656        94850         5589 
18980000   0.90418781   -3.2431874      1728000    3292.4375        94900         5591 
18990000    1.0054545   -3.3275671      1728000    3294.2274        94950         5592 
19000000   0.94877599   -3.0975259      1728000    3296.0661        95000         5593 
19010000    1.0071643   -3.3046953      1728000    3297.8353        95050         5594 
19020000    1.0160221   -3.1836454      1728000    3299.6015        95100         5598 
19030000    1.0421757    -3.201701      1728000    3301.3674        95150         5599 
19040000   0.98181913    -3.153765      1728000    3303.1665        95200         5601 
19050000   0.98952715    -3.180258      1728000    3304.9775        95250         5602 
19060000    0.9779171   -3.1615387      1728000    3306.8545        95300         5603 
19070000   0.99712994   -3.2099522      1728000    3308.6207        95350         5605 
19080000   0.99106575   -3.2599159      1728000     3310.458        95400         5607 
19090000   0.97331406   -3.2299649      1728000    3312.2691        95450         5609 
19100000    1.0163783   -3.2834244      1728000    3314.0718        95500         5610 
19110000   0.99129126    -3.209365      1728000    3315.9015        95550         5612 
19120000    1.0238873   -3.2478637      1728000    3317.7346        95600         5614 
19130000    1.0330064   -3.1667988      1728000    3319.5088        95650         5620 
19140000    1.0433817   -3.1871873      1728000    3321.2766        95700         5621 
19150000   0.95955003   -3.2615385      1728000    3323.0852        95750         5624 
19160000   0.98099708   -3.1542947      1728000    3324.9045        95800         5624 
19170000    1.0273605   -3.1979133      1728000    3326.7237        95850         5624 
19180000    1.0287286   -3.1928406      1728000    3328.5092        95900         5625 
19190000    1.0018989   -3.1471751      1728000    3330.3308        95950         5626 
19200000   0.99958067   -3.0926108      1728000     3332.136        96000         5627 
19210000    0.9693291   -3.2830604      1728000    3333.9351        96050         5630 
19220000   0.90090787   -3.1517865      1728000     3335.847        96100         5630 
19230000   0.96193921   -3.2010233      1728000    3337.6765        96150         5631 
19240000   0.95997234   -3.2270808      1728000    3339.4371        96200         5635 
19250000   0.96308789    -3.141968      1728000    3341.1813        96250         5637 
19260000   0.96947849   -3.1956459      1728000    3342.9291        96300         5641 
19270000    1.0435683   -3.1616626      1728000    3344.6746        96350         5644 
19280000   0.96263426   -3.2426925      1728000    3346.3996        96400         5645 
19290000   0.97810679   -3.2567314      1728000    3348.1345        96450         5648 
19300000    1.0187702   -3.2874138      1728000    3349.8894        96500         5648 
19310000      1.00402   -3.3013362      1728000    3351.6286        96550         5648 
19320000    1.0032516   -3.2888226      1728000    3353.3615        96600         5654 
19330000   0.95667733   -3.1840156      1728000    3355.1177        96650         5657 
19340000    1.0699979   -3.1777542      1728000    3356.8694        96700         5657 
19350000    1.0467087   -3.2612631      1728000    3358.5966        96750         5662 
19360000    1.0459618   -3.2439282      1728000    3360.3386        96800         5663 
19370000    1.0050684   -3.0123105      1728000    3362.1659        96850         5663 
19380000    1.0186873   -3.1687688      1728000    3363.8869        96900         5663 
19390000     1.046297   -3.2120407      1728000    3365.6187        96950         5664 
19400000   0.97809982   -3.2186239      1728000    3367.3507        97000         5664 
19410000   0.93387446   -3.0554929      1728000    3369.0625        97050         5667 
19420000    1.0130233   -3.2371328      1728000    3370.7731        97100         5668 
19430000    1.0190005   -3.1533633      1728000    3372.5185        97150         5670 
19440000    1.0165769   -3.1313175      1728000    3374.2606        97200         5672 
19450000    1.0484994   -3.1705825      1728000    3376.0036        97250         5673 
19460000    1.0062364   -3.1394801      1728000     3377.755        97300         5674 
19470000    1.0280851   -3.1480901      1728000    3379.4767        97350         5676 
19480000    1.0196704   -3.1789116      1728000    3381.2095        97400         5679 
19490000    1.0135365   -3.1621589      1728000    3382.9437        97450         5681 
19500000    1.0094142   -3.1807465      1728000    3384.6854        97500         5681 
19510000   0.95798742   -3.1182979      1728000    3386.4482        97550         5683 
19520000    1.0002624   -3.1835482      1728000    3388.1696        97600         5685 
19530000   0.94737021   -3.1525278      1728000    3389.9177        97650         5687 
19540000    1.0466063   -3.1457011      1728000    3391.6327        97700         5692 
19550000    0.9676252   -3.1501006      1728000    3393.3429        97750         5694 
19560000   0.95845651   -3.2553452      1728000    3395.0952        97800         5695 
19570000   0.91945517   -3.1642273      1728000    3396.9277        97850         5696 
19580000   0.96930528   -3.1388529      1728000    3398.6606        97900         5697 
19590000   0.99981272   -3.1277668      1728000    3400.3885        97950         5701 
19600000   0.98579478    -3.134225      1728000    3402.0806        98000         5705 
19610000    1.0748722   -3.1637431      1728000    3403.8207        98050         5707 
19620000   0.99186826   -3.1377159      1728000    3405.6684        98100         5709 
19630000   0.99455944   -3.1847073      1728000    3407.3947        98150         5712 
19640000    1.0139185   -3.1050129      1728000    3409.1136        98200         5715 
19650000   0.93153865    -3.002796      1728000    3410.8744        98250         5717 
19660000    1.0000077   -3.0342829      1728000     3412.556        98300         5721 
19670000   0.96302852   -3.0402914      1728000    3414.2526        98350         5722 
19680000    1.0331941    -3.109092      1728000    3415.9798        98400         5726 
19690000   0.96014055   -3.2001991      1728000    3417.7414        98450         5728 
19700000    0.9969871   -3.1116214      1728000    3419.6123        98500         5731 
19710000    1.0102987   -3.0705486      1728000    3421.3186        98550         5734 
19720000   0.96138017   -2.9619931      1728000     3423.026        98600         5741 
19730000    1.0314875   -3.1169619      1728000    3424.6987        98650         5742 
19740000    1.0378453    -3.120746      1728000    3426.4086        98700         5743 
19750000   0.98619814   -3.0590112      1728000      3428.11        98750         5747 
19760000    1.0146005   -3.1176739      1728000    3429.8283        98800         5747 
19770000    1.0534413   -3.0778899      1728000    3431.5809        98850         5753 
19780000     1.059448   -3.1516647      1728000    3433.3414        98900         5755 
19790000    1.0481672   -3.1103456      1728000     3435.089        98950         5757 
19800000   0.99620412   -3.0242301      1728000    3436.8207        99000         5760 
19810000    1.0071812   -3.2131406      1728000    3438.5436        99050         5764 
19820000   0.96751807   -3.1082184      1728000    3440.3338        99100         5767 
19830000    1.0075031   -3.0361192      1728000    3442.0296        99150         5770 
19840000   0.92195176   -3.0322264      1728000    3443.7237        99200         5774 
19850000    0.9730878   -3.0383219      1728000    3445.4205        99250         5778 
19860000    1.0314398   -3.1657129      1728000    3447.1048        99300         5780 
19870000    1.0880159   -3.0896055      1728000    3448.8208        99350         5789 
19880000   0.96608576   -3.2396463      1728000    3450.5336        99400         5793 
19890000   0.93701644   -3.0743539      1728000    3452.2538        99450         5798 
19900000    1.0042154   -3.2433462      1728000    3453.9788        99500         5799 
19910000    0.9967499   -3.1009151      1728000    3455.7077        99550         5801 
19920000   0.96235759   -3.1437885      1728000    3457.4266        99600         5803 
19930000     1.009222   -3.1858281      1728000    3459.1438        99650         5805 
19940000    1.0436121   -3.1430441      1728000    3460.8336        99700         5809 
19950000   0.94291279   -3.1060137      1728000    3462.5378        99750         5811 
19960000   0.94874083   -3.0156619      1728000    3464.2838        99800         5814 
19970000    1.0482517   -3.1540441      1728000    3465.9647        99850         5819 
19980000    1.0036837   -3.1985264      1728000    3467.6767        99900         5822 
19990000   0.95947625   -3.1849892      1728000    3469.3827        99950         5826 
20000000   0.96747923   -3.1259751      1728000    3471.0896       100000         5828 
20010000    1.0263821   -3.0851903      1728000    3472.8237       100050         5828 
20020000   0.92997978   -3.1293841      1728000    3474.5737       100100         5829 
20030000   0.96144091   -3.0917683      1728000    3476.3048       100150         5832 
20040000    1.0322498   -3.1767027      1728000    3478.0198       100200         5832 
20050000   0.96931825   -3.1498099      1728000    3479.7237       100250         5834 
20060000    1.0377795   -3.1612308      1728000      3481.44       100300         5835 
20070000   0.98110812   -3.1081377      1728000    3483.1361       100350         5836 
20080000   0.99295262   -3.1122889      1728000    3484.8258       100400         5838 
20090000   0.95362254   -3.1296272      1728000    3486.5278       100450         5841 
20100000    1.0015618   -3.1902111      1728000    3488.2517       100500         5844 
20110000    1.0110325   -3.1474291      1728000    3489.9637       100550         5849 
20120000   0.99534458   -3.0578725      1728000    3491.6718       100600         5853 
20130000    1.0015167   -3.2284378      1728000    3493.3781       100650         5856 
20140000   0.97004905   -3.0165431      1728000    3495.0785       100700         5858 
20150000   0.96740775   -3.1591305      1728000    3496.7786       100750         5860 
20160000   0.95101351   -3.0925724      1728000    3498.4703       100800         5860 
20170000   0.97597545   -3.2673629      1728000    3500.1658       100850         5861 
20180000    1.0459822   -3.1983075      1728000    3501.8808       100900         5861 
20190000   0.99510099   -3.2536528      1728000    3503.5781       100950         5863 
20200000    1.0484313    -3.170469      1728000    3505.2969       101000         5864 
20210000    1.0137594   -3.1331965      1728000    3507.0043       101050         5865 
20220000    0.9402682   -3.3039453      1728000     3508.716       101100         5867 
20230000     0.916718    -3.117539      1728000     3510.415       101150         5874 
20240000    1.0630667   -3.0959011      1728000    3512.1015       101200         5877 
20250000   0.99464744   -3.0720263      1728000    3513.8017       101250         5879 
20260000    1.0255728   -3.1475517      1728000    3515.5078       101300         5883 
20270000    1.0442909   -3.1116354      1728000    3517.2238       101350         5885 
20280000    0.9595758   -3.1000011      1728000    3518.9358       101400         5886 
20290000    1.0100406   -3.1237422      1728000    3520.6397       101450         5889 
20300000   0.96851095   -3.0627806      1728000    3522.3439       101500         5894 
20310000   0.95713939   -3.1301383      1728000    3524.0449       101550         5895 
20320000   0.95838021   -3.0600055      1728000    3525.7598       101600         5896 
20330000    0.9490298   -3.1101665      1728000    3527.4788       101650         5899 
20340000   0.96395809   -3.1725182      1728000     3529.206       101700         5901 
20350000   0.92302054   -3.1867419      1728000    3530.9186       101750         5904 
20360000    1.0258427   -3.2374724      1728000    3532.6338       101800         5906 
20370000   0.97334276   -3.1248334      1728000    3534.3418       101850         5906 
20380000   0.99721755   -3.2169145      1728000    3536.0453       101900         5908 
20390000   0.98642083   -3.1927403      1728000    3537.7537       101950         5909 
20400000     1.049275   -3.2183527      1728000    3539.4687       102000         5909 
20410000    1.0328486    -3.144581      1728000    3541.1847       102050         5909 
20420000    1.0256155   -3.2315492      1728000    3542.8919       102100         5910 
20430000    1.0009444   -3.2729809      1728000    3544.5988       102150         5910 
20440000    1.0428713   -3.2094596      1728000    3546.3188       102200         5913 
20450000    1.0121143    -3.168662      1728000    3548.0257       102250         5917 
20460000   0.94747201   -3.1039916      1728000    3549.7397       102300         5920 
20470000    1.0186002   -3.1115154      1728000    3551.4446       102350         5923 
20480000   0.96515277   -3.1711545      1728000    3553.1989       102400         5926 
20490000    0.9871603   -3.2837686      1728000    3555.0136       102450         5928 
20500000   0.96345386   -3.2295472      1728000    3557.0166       102500         5929 
20510000    1.0283232    -3.183898      1728000    3559.0246       102550         5932 
20520000   0.93766293   -3.1159286      1728000    3561.0684       102600         5934 
20530000    1.1016538   -3.1262147      1728000    3563.0394       102650         5937 
20540000    1.0253668   -3.1931764      1728000    3564.8168       102700         5940 
20550000    1.0076628   -3.2156284      1728000    3566.5448       102750         5942 
20560000    1.0280028   -3.1931183      1728000    3568.2918       102800         5944 
20570000   0.97438923   -3.1313203      1728000    3570.0481       102850         5946 
20580000    0.9466006   -3.0341942      1728000    3571.9242       102900         5948 
20590000     1.041753   -3.2024493      1728000    3573.7082       102950         5949 
20600000    1.0203401   -3.1514094      1728000    3575.4648       103000         5950 
20610000   0.95888773   -3.1637008      1728000    3577.2021       103050         5953 
20620000   0.93753861   -3.1796876      1728000    3578.9598       103100         5954 
20630000   0.98502718   -3.2908085      1728000    3580.7029       103150         5956 
20640000    1.0096549   -3.1407156      1728000    3582.4598       103200         5961 
20650000   0.98145528   -3.1601401      1728000    3584.2008       103250         5964 
20660000   0.95400908   -3.1477408      1728000    3585.9473       103300         5965 
20670000   0.97213168   -3.1085682      1728000    3587.7281       103350         5967 
20680000   0.96324518   -3.0444273      1728000    3589.5056       103400         5967 
20690000    1.0502334   -3.1148397      1728000    3591.3329       103450         5968 
20700000   0.97392175   -3.1606603      1728000     3593.189       103500         5969 
20710000   0.99769332   -3.1825058      1728000    3594.9885       103550         5969 
20720000   0.95972182   -3.2169465      1728000    3596.7773       103600         5972 
20730000     1.039369   -3.3468655      1728000    3598.6307       103650         5975 
20740000    1.0327803   -3.2988573      1728000    3600.4318       103700         5977 
20750000    1.0339626   -3.1936523      1728000    3602.2209       103750         5978 
20760000    1.0118028   -3.2519312      1728000    3603.9679       103800         5981 
20770000   0.94882195   -3.2210263      1728000    3605.7796       103850         5983 
20780000    1.0192385    -3.219349      1728000    3607.6247       103900         5983 
20790000   0.99358577   -3.2331947      1728000    3609.5212       103950         5983 
20800000    1.0524199   -3.3206393      1728000     3611.352       104000         5983 
20810000   0.92561889   -3.3307887      1728000    3613.1968       104050         5984 
20820000   0.96973619   -3.3109902      1728000     3614.974       104100         5985 
20830000    1.0255806   -3.3218984      1728000    3616.7729       104150         5986 
20840000    1.0151344    -3.239198      1728000    3618.6129       104200         5989 
20850000    1.0182284   -3.2695584      1728000    3620.4219       104250         5990 
20860000   0.98607621   -3.2394735      1728000    3622.1909       104300         5990 
20870000    1.0269674   -3.2721586      1728000    3623.9509       104350         5991 
20880000   0.98037527   -3.2569549      1728000     3625.716       104400         5995 
20890000   0.95777511   -3.2308259      1728000    3627.4589       104450         5996 
20900000   0.96168179   -3.1867526      1728000    3629.2149       104500         5999 
20910000   0.95857802   -3.1537883      1728000    3630.9707       104550         6000 
20920000    0.9815062   -3.1609383      1728000     3632.757       104600         6003 
20930000    0.9835879   -3.2430452      1728000     3634.528       104650         6003 
20940000    1.0246878   -3.2299922      1728000    3636.2719       104700         6004 
20950000   0.95214128   -3.2352594      1728000    3638.0128       104750         6006 
20960000    1.0082382   -3.3367465      1728000    3639.7648       104800         6006 
20970000   0.99865439   -3.1918112      1728000    3641.5408       104850         6007 
20980000    1.0581164   -3.1103885      1728000     3643.421       104900         6010 
20990000    1.0703394   -3.2284623      1728000    3645.2209       104950         6011 
21000000   0.99120914   -3.2146292      1728000    3647.0267       105000         6012 
21010000   0.97810007   -3.2252252      1728000    3648.8164       105050         6014 
21020000    1.0132536   -3.3747205      1728000    3650.6514       105100         6015 
21030000    1.0025006    -3.206998      1728000    3652.5724       105150         6016 
21040000    1.0070882   -3.3311446      1728000    3654.3866       105200         6016 
21050000    1.0333189   -3.3273298      1728000    3656.2279       105250         6019 
21060000    1.0013883   -3.2803553      1728000    3658.0381       105300         6020 
21070000    1.0511718   -3.3134527      1728000    3659.8472       105350         6022 
21080000    1.0776054   -3.1924491      1728000    3661.6486       105400         6022 
21090000    1.0189413   -3.2769073      1728000    3663.4531       105450         6023 
21100000    1.0094666   -3.2141283      1728000    3665.2652       105500         6025 
21110000     1.078236   -3.1946785      1728000    3667.0758       105550         6027 
21120000   0.98712229   -3.1668943      1728000    3668.8799       105600         6029 
21130000   0.99916915   -3.2913046      1728000    3670.6877       105650         6032 
21140000   0.99135025   -3.1332788      1728000    3672.4859       105700         6033 
21150000    1.0454211   -3.1534562      1728000     3674.323       105750         6035 
21160000    1.0159758   -3.2427901      1728000    3676.1046       105800         6039 
21170000   0.98557149    -3.276042      1728000    3677.8731       105850         6041 
21180000    1.0123745   -3.2704106      1728000    3679.6359       105900         6045 
21190000    0.9935381   -3.2168059      1728000    3681.4211       105950         6046 
21200000   0.97250086   -3.2109714      1728000     3683.245       106000         6047 
21210000   0.97342018   -3.2379457      1728000    3685.0023       106050         6049 
21220000   0.97656508   -3.1418663      1728000    3686.8249       106100         6051 
21230000    1.0083342   -3.3199369      1728000    3688.5947       106150         6054 
21240000     1.017816   -3.2621189      1728000    3690.3688       106200         6054 
21250000    1.0361235   -3.2872814      1728000    3692.1705       106250         6058 
21260000   0.98776385   -3.3292359      1728000     3693.945       106300         6059 
21270000    1.0079323   -3.2900931      1728000    3695.7142       106350         6061 
21280000    1.1082465   -3.3284617      1728000    3697.5029       106400         6062 
21290000    1.0187154   -3.2976277      1728000    3699.3179       106450         6063 
21300000   0.95959055   -3.1777925      1728000    3701.1062       106500         6063 
21310000    1.0130068   -3.2242001      1728000     3702.888       106550         6063 
21320000    1.0043877   -3.2812501      1728000    3704.6749       106600         6064 
21330000   0.95242315   -3.3104004      1728000     3706.483       106650         6066 
21340000    1.0245718   -3.2991623      1728000     3708.264       106700         6067 
21350000    1.0353776   -3.3206917      1728000      3710.04       106750         6067 
21360000    1.0143477   -3.3082393      1728000     3711.805       106800         6068 
21370000   0.96362444   -3.2657755      1728000    3713.5943       106850         6070 
21380000   0.99007218   -3.2943237      1728000     3715.374       106900         6071 
21390000   0.95594897   -3.3067974      1728000     3717.152       106950         6071 
21400000   0.97438852   -3.1848948      1728000     3718.942       107000         6072 
21410000    1.0050248   -3.3018453      1728000    3720.7097       107050         6073 
21420000   0.96411261   -3.2487426      1728000    3722.4882       107100         6074 
21430000    0.9811702   -3.3291847      1728000    3724.2779       107150         6074 
21440000   0.96238997   -3.1854949      1728000    3726.0897       107200         6075 
21450000    1.0722593   -3.3277892      1728000    3727.9336       107250         6076 
21460000    1.0503269   -3.1391129      1728000    3729.6968       107300         6076 
21470000    1.0744716    -3.265403      1728000    3731.5051       107350         6078 
21480000    1.0153048   -3.2014819      1728000    3733.2964       107400         6080 
21490000   0.97944838   -3.2055508      1728000    3735.0941       107450         6080 
21500000   0.96015457   -3.1845847      1728000    3736.9312       107500         6080 
21510000   0.97452288   -3.1948575      1728000    3738.6977       107550         6080 
21520000    0.9807565   -3.2793935      1728000    3740.4743       107600         6083 
21530000   0.93073161   -3.3229815      1728000     3742.266       107650         6084 
21540000   0.99903609   -3.2521639      1728000    3744.0729       107700         6085 
21550000    0.9470273   -3.1976232      1728000    3745.8438       107750         6088 
21560000    1.0086512   -3.1797558      1728000     3747.633       107800         6089 
21570000    1.0654681   -3.2688753      1728000     3749.394       107850         6092 
21580000    1.0370432   -3.1908735      1728000    3751.2109       107900         6093 
21590000   0.98904107   -3.3467068      1728000    3752.9847       107950         6094 
21600000   0.99317062   -3.2608773      1728000     3754.779       108000         6095 
21610000   0.99734098   -3.2477473      1728000    3756.5772       108050         6097 
21620000   0.95068535   -3.3882844      1728000    3758.3548       108100         6097 
21630000    1.0393447   -3.1677952      1728000      3760.14       108150         6099 
21640000   0.96093529   -3.2094534      1728000    3761.9267       108200         6102 
21650000   0.97426273   -3.2575085      1728000    3763.6971       108250         6103 
21660000    1.0276386   -3.2382466      1728000    3765.4831       108300         6103 
21670000   0.96444998   -3.2568116      1728000    3767.2623       108350         6105 
21680000    1.0138381   -3.2792847      1728000    3769.0441       108400         6106 
21690000   0.96169267   -3.3185727      1728000    3770.8278       108450         6108 
21700000    1.0939013   -3.2885823      1728000    3772.6323       108500         6108 
21710000    1.0075552   -3.2207914      1728000    3774.4315       108550         6108 
21720000   0.99410333   -3.2344003      1728000    3776.2062       108600         6109 
21730000    1.0081691   -3.0012763      1728000    3778.0141       108650         6110 
21740000    1.0473712   -3.1908942      1728000    3779.7822       108700         6113 
21750000   0.96864046   -3.2779004      1728000    3781.5469       108750         6114 
21760000   0.96912048   -3.2107992      1728000    3783.3224       108800         6114 
21770000    1.0752582    -3.314886      1728000     3785.088       108850         6119 
21780000    1.0354787   -3.1688069      1728000     3786.895       108900         6119 
21790000    1.0136708   -3.2563093      1728000    3788.6911       108950         6121 
21800000   0.94752036   -3.4088073      1728000     3790.502       109000         6123 
21810000    1.0545187   -3.2439428      1728000     3792.281       109050         6126 
21820000    1.0423848   -3.4279885      1728000    3794.0698       109100         6127 
21830000    1.0133902   -3.2049671      1728000    3795.8473       109150         6129 
21840000    1.0471692   -3.2349024      1728000    3797.6278       109200         6129 
21850000   0.91189534   -3.2809537      1728000    3799.4263       109250         6129 
21860000   0.97220909   -3.2107418      1728000    3801.2327       109300         6129 
21870000    1.0321694   -3.1554256      1728000    3803.0251       109350         6129 
21880000    1.0143903   -3.2885158      1728000    3804.8001       109400         6130 
21890000    1.0346241   -3.2110708      1728000     3806.619       109450         6130 
21900000     1.037948   -3.2139941      1728000    3808.4071       109500         6131 
21910000    1.0151874   -3.3718208      1728000    3810.2068       109550         6132 
21920000    1.0268747   -3.2863838      1728000      3812.02       109600         6132 
21930000   0.98171604   -3.3896727      1728000     3813.936       109650         6134 
21940000    1.0437949   -3.3900265      1728000    3815.8471       109700         6134 
21950000   0.95395801   -3.3004685      1728000    3817.6523       109750         6134 
21960000   0.98870546   -3.2195016      1728000    3819.4494       109800         6135 
21970000    1.0484454   -3.2688294      1728000    3821.2775       109850         6135 
21980000    1.0369636   -3.3662958      1728000    3823.0638       109900         6136 
21990000    1.0558807   -3.2664049      1728000    3824.8668       109950         6136 
22000000    1.0025435   -3.3824307      1728000    3826.6742       110000         6136 
22010000    1.0247946   -3.3693767      1728000     3828.514       110050         6136 
22020000    1.0166129    -3.254392      1728000      3830.33       110100         6136 
22030000   0.98565604   -3.3156051      1728000    3832.1053       110150         6139 
22040000   0.91959251   -3.3000639      1728000    3833.9174       110200         6139 
22050000   0.97454722   -3.3551045      1728000     3835.705       110250         6140 
22060000    1.0171543   -3.3655849      1728000    3837.4873       110300         6140 
22070000   0.95697937   -3.3055068      1728000     3839.301       110350         6140 
22080000    1.0123551    -3.277207      1728000    3841.1073       110400         6140 
22090000   0.96623595   -3.2498174      1728000    3842.9004       110450         6140 
22100000    0.9887179   -3.3369039      1728000    3844.7695       110500         6141 
22110000   0.99944541   -3.3126485      1728000    3846.7027       110550         6142 
22120000   0.99593935   -3.2229516      1728000    3848.6437       110600         6143 
22130000   0.99726877   -3.3342882      1728000    3850.6167       110650         6143 
22140000    1.0295807   -3.2261345      1728000    3852.5326       110700         6144 
22150000   0.94564015   -3.2755267      1728000    3854.3326       110750         6144 
22160000   0.94085717   -3.2793756      1728000    3856.1214       110800         6145 
22170000    1.0196954   -3.3249771      1728000     3857.941       110850         6146 
22180000   0.99528539   -3.2424551      1728000    3859.7769       110900         6147 
22190000    1.0506064   -3.2724985      1728000    3861.5633       110950         6149 
22200000   0.97720485   -3.2346667      1728000    3863.3393       111000         6149 
22210000    1.0176489   -3.2330894      1728000    3865.1334       111050         6150 
22220000    1.0411764   -3.3024915      1728000     3866.953       111100         6151 
22230000   0.94283879   -3.3183987      1728000    3868.7661       111150         6152 
22240000    1.0001384   -3.3441057      1728000    3870.5605       111200         6153 
22250000   0.98323767   -3.3174196      1728000    3872.3659       111250         6154 
22260000   0.98569482   -3.2930608      1728000    3874.2016       111300         6155 
22270000   0.95352419   -3.4463402      1728000    3876.0029       111350         6156 
22280000     1.021347   -3.2768956      1728000     3877.871       111400         6156 
22290000   0.96591421   -3.3203941      1728000     3879.755       111450         6158 
22300000   0.97062655   -3.3658897      1728000    3881.6363       111500         6159 
22310000   0.98664135   -3.3605394      1728000     3883.522       111550         6160 
22320000   0.95572461    -3.383443      1728000    3885.3411       111600         6160 
22330000     1.042801    -3.284165      1728000    3887.2234       111650         6160 
22340000     1.004635   -3.3580094      1728000    3889.0664       111700         6161 
22350000    1.0001262   -3.3581303      1728000    3890.8874       111750         6163 
22360000   0.95962075   -3.2472871      1728000    3892.8054       111800         6166 
22370000   0.97197445    -3.286582      1728000    3894.6275       111850         6167 
22380000    0.9969263     -3.31659      1728000     3896.458       111900         6169 
22390000    0.9955776    -3.417763      1728000    3898.2932       111950         6171 
22400000    1.0264472    -3.149458      1728000    3900.0705       112000         6171 
22410000   0.97871435   -3.1248472      1728000     3901.865       112050         6172 
22420000    1.0342694   -3.2225903      1728000    3903.7093       112100         6172 
22430000   0.98680051   -3.2648764      1728000    3905.4996       112150         6172 
22440000   0.98683818    -3.266405      1728000    3907.3137       112200         6172 
22450000    1.0476758   -3.3098325      1728000    3909.0999       112250         6173 
22460000   0.99850153   -3.2123418      1728000    3910.8932       112300         6174 
22470000    1.0001157   -3.2513276      1728000     3912.678       112350         6175 
22480000   0.96611253   -3.3566232      1728000     3914.467       112400         6177 
22490000   0.95863853   -3.1317023      1728000    3916.3359       112450         6179 
22500000    1.0015781   -3.3294178      1728000    3918.1271       112500         6180 
22510000   0.94810239   -3.3725355      1728000    3919.9043       112550         6182 
22520000    1.0590461   -3.1548313      1728000     3921.677       112600         6183 
22530000   0.98674497   -3.3069358      1728000    3923.4682       112650         6184 
22540000   0.99968858   -3.2615007      1728000     3925.238       112700         6184 
22550000    1.0100113   -3.2502962      1728000    3927.0242       112750         6185 
22560000     1.042997   -3.2241089      1728000    3928.7841       112800         6185 
22570000   0.99887158   -3.1891798      1728000    3930.5721       112850         6185 
22580000   0.99583095   -3.4223052      1728000    3932.3742       112900         6187 
22590000    1.0369218   -3.3242228      1728000    3934.1683       112950         6189 
22600000   0.98930984   -3.2097148      1728000    3935.9572       113000         6191 
22610000   0.97744142   -3.1887996      1728000    3937.7551       113050         6193 
22620000    1.0633407   -3.2109449      1728000    3939.5362       113100         6195 
22630000   0.98404059    -3.092618      1728000    3941.3421       113150         6196 
22640000    1.0610983   -3.3997588      1728000    3943.1252       113200         6197 
22650000   0.97249511   -3.1819502      1728000    3944.8986       113250         6197 
22660000     1.058204   -3.1820674      1728000    3946.6943       113300         6199 
22670000   0.98727704   -3.3315553      1728000    3948.4629       113350         6202 
22680000    1.0815044   -3.1774145      1728000    3950.2487       113400         6202 
22690000   0.98501899   -3.2214109      1728000    3952.0748       113450         6206 
22700000   0.99469219   -3.2715809      1728000    3953.8602       113500         6208 
22710000   0.96689348   -3.2425511      1728000    3955.6414       113550         6209 
22720000    1.0146121   -3.3196193      1728000    3957.4521       113600         6211 
22730000    1.0026549   -3.3237064      1728000    3959.2642       113650         6212 
22740000   0.99574474   -3.2988865      1728000    3961.0482       113700         6215 
22750000   0.97316392   -3.3401672      1728000    3962.8363       113750         6217 
22760000   0.96674215   -3.2331599      1728000    3964.6214       113800         6218 
22770000     1.044147   -3.2835891      1728000    3966.4183       113850         6218 
22780000   0.98052974   -3.3051722      1728000    3968.2193       113900         6218 
22790000   0.92404288   -3.2802777      1728000     3970.009       113950         6219 
22800000   0.99706124   -3.2966829      1728000    3971.8234       114000         6222 
22810000   0.97744242   -3.3318783      1728000    3973.6278       114050         6223 
22820000    1.0147349   -3.3128099      1728000    3975.4179       114100         6223 
22830000   0.92771324   -3.2263712      1728000     3977.208       114150         6225 
22840000   0.98907803   -3.2189654      1728000    3978.9935       114200         6226 
22850000     1.022159   -3.1928553      1728000    3980.7568       114250         6228 
22860000   0.98643516   -3.3021941      1728000    3982.5544       114300         6229 
22870000    1.0865021   -3.1876717      1728000    3984.3626       114350         6230 
22880000    1.0324823   -3.2332632      1728000     3986.168       114400         6232 
22890000     1.024308   -3.2758352      1728000    3987.9492       114450         6235 
22900000    1.0153926   -3.3345669      1728000    3989.7464       114500         6235 
22910000   0.98400581   -3.2286748      1728000    3991.5543       114550         6236 
22920000   0.99564568   -3.2069587      1728000    3993.3363       114600         6239 
22930000    0.9913841   -3.2885164      1728000    3995.1483       114650         6239 
22940000   0.95826664    -3.289087      1728000    3996.9583       114700         6240 
22950000   0.99628509   -3.3741943      1728000    3998.7492       114750         6244 
22960000   0.94671742   -3.2566274      1728000    4000.5462       114800         6245 
22970000    1.0352115   -3.2591144      1728000    4002.3418       114850         6247 
22980000    1.0018972   -3.3414673      1728000     4004.173       114900         6248 
22990000    1.0660815   -3.1724228      1728000    4005.9549       114950         6248 
23000000   0.99404524   -3.3445139      1728000    4007.7871       115000         6249 
23010000    1.0000817   -3.3059352      1728000    4009.6113       115050         6250 
23020000   0.96421927   -3.2890138      1728000    4011.3894       115100         6252 
23030000    1.0239778   -3.2570519      1728000    4013.1802       115150         6253 
23040000   0.96437782   -3.2825508      1728000    4014.9503       115200         6257 
23050000   0.95323213   -3.2068345      1728000    4016.7114       115250         6259 
23060000    1.0372518   -3.2348779      1728000    4018.5132       115300         6260 
23070000   0.97283732   -3.2566222      1728000    4020.2894       115350         6262 
23080000    1.0153407   -3.1872062      1728000    4022.0945       115400         6263 
23090000     1.047975   -3.2968786      1728000    4023.9396       115450         6264 
23100000    1.0049769   -3.3134789      1728000    4025.7691       115500         6267 
23110000   0.95980168   -3.3644788      1728000    4027.6342       115550         6269 
23120000   0.98531573   -3.2507562      1728000    4029.5263       115600         6271 
23130000   0.98740815   -3.1775863      1728000    4031.3453       115650         6271 
23140000    1.0234849   -3.3231092      1728000    4033.1546       115700         6273 
23150000   0.96722501   -3.1960883      1728000    4034.9625       115750         6273 
23160000     1.066596   -3.3487822      1728000    4036.7622       115800         6273 
23170000   0.99831475   -3.3064005      1728000    4038.5481       115850         6273 
23180000   0.95269145   -3.2071239      1728000    4040.3403       115900         6274 
23190000   0.99381011   -3.1833637      1728000    4042.1629       115950         6275 
23200000    1.0425739   -3.3235846      1728000    4043.9541       116000         6277 
23210000    1.0046636   -3.2248883      1728000    4045.7363       116050         6278 
23220000    1.0379303   -3.3170528      1728000    4047.5399       116100         6280 
23230000   0.93168176   -3.4692188      1728000    4049.3552       116150         6282 
23240000    1.0507535   -3.2800834      1728000    4051.1514       116200         6283 
23250000    0.9962678   -3.1494269      1728000    4052.9633       116250         6283 
23260000   0.98370944   -3.1460954      1728000    4054.7541       116300         6284 
23270000    1.1146611   -3.2781972      1728000    4056.6064       116350         6285 
23280000   0.99868533    -3.239691      1728000    4058.4044       116400         6289 
23290000    1.0222307   -3.3074002      1728000    4060.2002       116450         6289 
23300000    1.0431455   -3.2550647      1728000    4062.0153       116500         6290 
23310000   0.89676718   -3.1960595      1728000    4063.7902       116550         6291 
23320000    1.0382032   -3.2505671      1728000    4065.6277       116600         6292 
23330000    1.0109234   -3.1409168      1728000    4067.3876       116650         6294 
23340000    1.0142563   -3.1818768      1728000    4069.1653       116700         6295 
23350000   0.97991649    -3.180592      1728000    4070.9422       116750         6297 
23360000     1.053608   -3.1996035      1728000    4072.7194       116800         6300 
23370000    1.0051605   -3.1675127      1728000    4074.4938       116850         6301 
23380000    1.0039256   -3.1746618      1728000    4076.3021       116900         6302 
23390000   0.99007606   -3.1707157      1728000    4078.0932       116950         6305 
23400000    1.0093221   -3.1204027      1728000    4079.9117       117000         6307 
23410000    1.0116227   -3.2350099      1728000    4081.7362       117050         6310 
23420000    1.0484975   -3.2947918      1728000    4083.5173       117100         6311 
23430000    1.0336198   -3.2054944      1728000    4085.3033       117150         6314 
23440000   0.96265381   -3.2081813      1728000    4087.0829       117200         6316 
23450000   0.95964193   -3.1664554      1728000    4088.8511       117250         6319 
23460000   0.98493156    -3.310864      1728000    4090.6313       117300         6323 
23470000   0.97411508   -3.1843279      1728000    4092.3966       117350         6324 
23480000    1.0049238   -3.2806287      1728000    4094.1778       117400         6326 
23490000   0.93015258   -3.2346661      1728000    4095.9707       117450         6326 
23500000    1.0244418     -3.19122      1728000    4097.7496       117500         6328 
23510000    1.0040453   -3.1819316      1728000    4099.5294       117550         6330 
23520000   0.96680087   -3.2085776      1728000    4101.3284       117600         6332 
23530000   0.97376902   -3.2544803      1728000    4103.1153       117650         6333 
23540000     1.004301   -3.3625828      1728000    4104.8823       117700         6335 
23550000   0.98989831    -3.302471      1728000    4106.6489       117750         6335 
23560000    1.0313767    -3.262281      1728000    4108.4288       117800         6338 
23570000    0.9829785   -3.2341452      1728000     4110.236       117850         6339 
23580000    1.0118076   -3.2457619      1728000    4112.0165       117900         6339 
23590000   0.95014999   -3.2102502      1728000    4113.7988       117950         6342 
23600000    1.0207088   -3.2528806      1728000    4115.6043       118000         6342 
23610000    1.0331953   -3.3741202      1728000    4117.4144       118050         6346 
23620000   0.98334007   -3.1951937      1728000    4119.1833       118100         6347 
23630000    1.0631719   -3.2333381      1728000    4120.9534       118150         6350 
23640000   0.96752831   -3.2428046      1728000    4122.7393       118200         6353 
23650000    1.0345501   -3.2233147      1728000    4124.5527       118250         6353 
23660000    1.0340903   -3.3043419      1728000    4126.3374       118300         6356 
23670000    1.0325234   -3.3253506      1728000    4128.1172       118350         6357 
23680000     1.007452   -3.1829979      1728000    4129.8942       118400         6358 
23690000   0.98936361   -3.2268352      1728000    4131.6631       118450         6360 
23700000    1.0030178   -3.3320468      1728000    4133.4433       118500         6361 
23710000    1.0159068    -3.310075      1728000    4135.2244       118550         6362 
23720000    1.0360645   -3.3208328      1728000    4137.0159       118600         6364 
23730000    0.9631492   -3.1746773      1728000    4138.7951       118650         6365 
23740000   0.98443309   -3.1626425      1728000    4140.5743       118700         6366 
23750000    1.0244089   -3.2241226      1728000    4142.3412       118750         6369 
23760000   0.96014972   -3.2802042      1728000    4144.1363       118800         6370 
23770000    1.0387326   -3.2924925      1728000    4145.9385       118850         6372 
23780000    1.0060492   -3.3178946      1728000    4147.7785       118900         6376 
23790000   0.95640504   -3.2399909      1728000    4149.5874       118950         6376 
23800000   0.94839225   -3.2780106      1728000    4151.4203       119000         6377 
23810000    1.0378954   -3.3457402      1728000    4153.2676       119050         6378 
23820000   0.99286129   -3.1939079      1728000    4155.0833       119100         6378 
23830000    1.0003508   -3.0915282      1728000    4156.9103       119150         6379 
23840000    1.0281134   -3.3412327      1728000    4158.6965       119200         6381 
23850000    1.0657458   -3.0618647      1728000    4160.4897       119250         6382 
23860000   0.97310468   -3.1483194      1728000    4162.3408       119300         6383 
23870000    1.0304072   -3.2063532      1728000     4164.173       119350         6384 
23880000   0.96973776   -3.1736666      1728000    4165.9662       119400         6386 
23890000    1.0358604   -3.1635631      1728000    4167.7519       119450         6388 
23900000   0.97291795   -3.1252758      1728000    4169.5743       119500         6391 
23910000    1.0161539   -3.0925179      1728000    4171.4016       119550         6394 
23920000    1.0202282    -3.210747      1728000    4173.1927       119600         6398 
23930000    1.0510482    -3.116859      1728000    4174.9782       119650         6400 
23940000    1.0083676   -3.2085854      1728000    4176.8154       119700         6401 
23950000    1.0216029   -3.2196792      1728000    4178.6215       119750         6404 
23960000   0.96063206   -3.2148724      1728000    4180.4269       119800         6406 
23970000    1.0006313   -3.3332269      1728000    4182.2173       119850         6407 
23980000    1.0316787   -3.2124036      1728000    4184.0624       119900         6410 
23990000    1.0104831   -3.2687623      1728000    4185.8637       119950         6411 
24000000    1.0375152   -3.2250791      1728000    4187.6743       120000         6412 
24010000   0.93099034   -3.1777668      1728000    4189.4524       120050         6415 
24020000   0.98755502   -3.2060827      1728000    4191.2586       120100         6417 
24030000   0.92131395   -3.1201003      1728000    4193.0362       120150         6420 
24040000    1.0052486   -3.3016249      1728000    4194.8027       120200         6424 
24050000    1.0129017   -3.3067203      1728000    4196.5647       120250         6428 
24060000   0.97560708   -3.1776909      1728000    4198.3445       120300         6431 
24070000    1.0175635   -3.2354704      1728000    4200.1257       120350         6432 
24080000   0.97701656   -3.2724358      1728000    4201.9127       120400         6433 
24090000   0.99626978   -3.1553286      1728000    4203.7125       120450         6436 
24100000   0.95467961    -3.299805      1728000    4205.5086       120500         6437 
24110000   0.96932562   -3.3197512      1728000    4207.3372       120550         6437 
24120000    1.0442474   -3.2750844      1728000    4209.1184       120600         6438 
24130000     1.053817   -3.2669618      1728000    4210.9234       120650         6438 
24140000    1.0134521    -3.113711      1728000    4212.7277       120700         6440 
24150000    1.0560712   -3.0713478      1728000    4214.5155       120750         6442 
24160000    1.0630235   -3.3612183      1728000    4216.2815       120800         6442 
24170000   0.99189958   -3.2239371      1728000    4218.0729       120850         6445 
24180000    1.0144915   -3.2587046      1728000    4219.8528       120900         6447 
24190000   0.94957959   -3.2698317      1728000    4221.6799       120950         6450 
24200000   0.96724853   -3.2200101      1728000    4223.4844       121000         6453 
24210000    1.0279319   -3.2192285      1728000    4225.2744       121050         6453 
24220000    1.0815659   -3.2591276      1728000    4227.0604       121100         6456 
24230000   0.97600329   -3.2570911      1728000    4228.8408       121150         6456 
24240000   0.91966103    -3.296994      1728000    4230.6233       121200         6456 
24250000   0.99074429   -3.2960906      1728000    4232.3995       121250         6458 
24260000    1.0666947   -3.3161664      1728000    4234.1827       121300         6461 
24270000     1.029894   -3.2262521      1728000    4235.9543       121350         6461 
24280000    1.0060174    -3.292768      1728000    4237.7366       121400         6462 
24290000   0.96815784   -3.2170324      1728000    4239.5016       121450         6463 
24300000    1.0281448    -3.290288      1728000    4241.2896       121500         6466 
24310000    1.0237603   -3.2069406      1728000    4243.0637       121550         6467 
24320000   0.98550341   -3.2656494      1728000    4244.8977       121600         6468 
24330000    1.0196038   -3.1806735      1728000    4246.6643       121650         6470 
24340000   0.93873759   -3.2298656      1728000    4248.4237       121700         6472 
24350000    0.9604561   -3.2643702      1728000    4250.2037       121750         6473 
24360000   0.97137277   -3.3007062      1728000    4251.9837       121800         6474 
24370000   0.95239639   -3.2903641      1728000    4253.7498       121850         6474 
24380000     1.016845   -3.2372758      1728000    4255.5274       121900         6477 
24390000    1.0237683     -3.17912      1728000    4257.2881       121950         6478 
24400000   0.97708541   -3.2812886      1728000    4259.0608       122000         6480 
24410000    1.0019422   -3.1143638      1728000    4260.8197       122050         6481 
24420000    1.0028937   -3.1516307      1728000    4262.5932       122100         6484 
24430000    1.0132483   -3.1759573      1728000    4264.3768       122150         6486 
24440000     1.051667    -3.270796      1728000    4266.2598       122200         6489 
24450000   0.97597884   -3.0973581      1728000    4268.0274       122250         6491 
24460000   0.93765058   -3.2314749      1728000    4269.8242       122300         6493 
24470000    1.0409737   -3.1567231      1728000    4271.5667       122350         6495 
24480000    1.0114887   -3.2076384      1728000    4273.3237       122400         6497 
24490000   0.95622182   -3.1626329      1728000    4275.1684       122450         6497 
24500000   0.94148597   -3.1965319      1728000    4277.0172       122500         6498 
24510000   0.98363445   -3.1306445      1728000    4278.8623       122550         6501 
24520000   0.92304391    -3.182487      1728000    4280.6945       122600         6501 
24530000    0.9703132   -3.2280006      1728000    4282.4697       122650         6503 
24540000   0.96340759   -3.2809338      1728000    4284.2275       122700         6504 
24550000   0.99571043   -3.2320814      1728000     4286.006       122750         6506 
24560000   0.97966571   -3.2035977      1728000    4287.7948       122800         6507 
24570000   0.98814766   -3.1276903      1728000     4289.565       122850         6510 
24580000    1.0051787   -3.1628553      1728000    4291.3644       122900         6514 
24590000    1.0319293   -3.1025057      1728000    4293.1245       122950         6517 
24600000    1.0358961   -3.1700156      1728000    4294.8976       123000         6520 
24610000    1.0140133   -3.0912905      1728000    4296.6749       123050         6525 
24620000    1.0730157   -3.1920187      1728000    4298.4498       123100         6528 
24630000   0.99664484   -3.1807357      1728000    4300.1881       123150         6531 
24640000   0.98429186   -3.0968421      1728000    4301.9349       123200         6535 
24650000   0.99551967   -3.1039905      1728000    4303.6787       123250         6537 
24660000     1.008942   -3.0614121      1728000    4305.4704       123300         6538 
24670000   0.98172711   -3.1850754      1728000    4307.2723       123350         6539 
24680000   0.98860886   -3.1506314      1728000    4309.0318       123400         6541 
24690000   0.93100542   -3.1769032      1728000    4310.8132       123450         6542 
24700000   0.98802825   -3.0613703      1728000    4312.5794       123500         6544 
24710000   0.96256124   -2.9969004      1728000    4314.3048       123550         6548 
24720000   0.93347132    -3.035615      1728000    4316.0546       123600         6552 
24730000   0.98915808   -3.0593926      1728000    4317.7955       123650         6555 
24740000   0.97267323   -3.1361271      1728000    4319.5276       123700         6557 
24750000     1.029638    -3.086335      1728000    4321.2628       123750         6560 
24760000   0.98925937   -3.1460126      1728000    4323.0054       123800         6564 
24770000    1.0012565   -3.0294683      1728000    4324.7437       123850         6565 
24780000     1.041241   -3.0981279      1728000      4326.47       123900         6569 
24790000   0.93974952   -3.1187673      1728000    4328.2189       123950         6571 
24800000   0.99026637   -3.1202028      1728000    4329.9534       124000         6575 
24810000   0.99581853   -3.0494301      1728000    4331.6846       124050         6577 
24820000   0.97755745   -2.9648144      1728000    4333.4261       124100         6583 
24830000   0.94688917   -3.0591291      1728000    4335.1538       124150         6587 
24840000    1.0074404   -3.0844562      1728000    4336.9494       124200         6590 
24850000     1.038586   -3.0749278      1728000    4338.9455       124250         6592 
24860000   0.99713425   -3.0405663      1728000    4340.7129       124300         6595 
24870000    1.0277249   -3.0406575      1728000    4342.4527       124350         6596 
24880000   0.98744413   -3.0188197      1728000    4344.2025       124400         6600 
24890000   0.98061354   -2.9965015      1728000    4345.9516       124450         6603 
24900000    1.0393218   -3.0649502      1728000    4347.7039       124500         6607 
24910000    1.0780138    -3.097172      1728000    4349.4369       124550         6609 
24920000   0.97756878   -3.0915175      1728000     4351.177       124600         6611 
24930000   0.98233862   -3.0857923      1728000    4352.9248       124650         6616 
24940000     1.109123   -3.0787024      1728000    4354.6627       124700         6620 
24950000   0.91937453   -3.1435813      1728000    4356.4219       124750         6622 
24960000    1.0318532   -3.1280392      1728000    4358.1831       124800         6624 
24970000   0.98180085   -3.1834771      1728000    4359.9315       124850         6627 
24980000    1.0855363   -3.1941357      1728000    4361.6872       124900         6628 
24990000    1.0011411   -3.1246907      1728000    4363.4503       124950         6631 
25000000    1.0024907   -3.1674929      1728000     4365.211       125000         6634 
25010000    1.0276503   -3.2243323      1728000    4366.9663       125050         6637 
25020000   0.97169262   -3.1790556      1728000    4368.7578       125100         6641 
25030000    1.0282685   -3.0692166      1728000    4370.5229       125150         6642 
25040000    1.0427888   -3.1665762      1728000    4372.2728       125200         6646 
25050000   0.99416362   -3.0443774      1728000    4374.0139       125250         6647 
25060000   0.96831467    -3.158497      1728000    4375.7848       125300         6647 
25070000   0.95646564   -3.1458099      1728000    4377.5377       125350         6649 
25080000    1.0461937   -3.1430112      1728000    4379.2815       125400         6653 
25090000    1.0173926   -3.1197921      1728000    4381.0789       125450         6658 
25100000   0.99572211   -3.1849272      1728000    4382.8719       125500         6661 
25110000   0.99069512   -3.1173166      1728000    4384.6126       125550         6663 
25120000    1.0099213   -3.0879071      1728000    4386.3617       125600         6664 
25130000    1.0296149   -3.0654979      1728000    4388.1018       125650         6665 
25140000    1.0363573    -3.092067      1728000    4389.8747       125700         6667 
25150000    1.0272139   -3.1401759      1728000    4391.6406       125750         6667 
25160000     1.014879   -3.1061782      1728000    4393.4019       125800         6670 
25170000   0.99863774   -3.1554181      1728000    4395.1519       125850         6671 
25180000   0.97921506   -3.0789386      1728000    4396.9149       125900         6675 
25190000    1.0187308   -3.1888837      1728000    4398.6707       125950         6678 
25200000    0.9841021   -3.1883272      1728000    4400.4447       126000         6681 
25210000    1.0092349   -3.1072332      1728000    4402.2258       126050         6682 
25220000    1.0606033   -3.0865684      1728000    4403.9605       126100         6684 
25230000   0.98512593   -3.0895976      1728000    4405.6987       126150         6687 
25240000    1.0388267    -3.074146      1728000    4407.4518       126200         6689 
25250000    0.9553528   -3.0826102      1728000    4409.1837       126250         6692 
25260000    0.9876222   -3.0531508      1728000    4410.9293       126300         6695 
25270000    1.0616481   -3.0075624      1728000    4412.7048       126350         6695 
25280000   0.98351954   -3.1146326      1728000    4414.4695       126400         6695 
25290000    1.0066683    -3.202828      1728000    4416.2368       126450         6698 
25300000   0.94830985   -3.1433855      1728000    4417.9977       126500         6700 
25310000    1.0446087   -3.1266017      1728000    4419.7441       126550         6703 
25320000   0.97419435   -3.1966335      1728000    4421.4961       126600         6707 
25330000    1.0210645   -3.1925634      1728000    4423.2541       126650         6709 
25340000    1.0743349   -3.1483331      1728000    4425.0298       126700         6715 
25350000   0.99626167   -3.1531519      1728000    4426.7725       126750         6716 
25360000   0.97623534   -3.1724444      1728000    4428.5267       126800         6719 
25370000    1.0469713   -3.0821699      1728000    4430.2909       126850         6720 
25380000    1.0216835   -3.1839615      1728000    4432.0378       126900         6722 
25390000   0.97465953    -3.148853      1728000    4433.8118       126950         6722 
25400000    1.0012491    -3.143564      1728000    4435.5758       127000         6725 
25410000    1.0180012   -3.1708881      1728000    4437.3138       127050         6729 
25420000   0.99628754   -3.1611043      1728000    4439.0647       127100         6733 
25430000    1.0029246   -3.1393529      1728000    4440.8276       127150         6739 
25440000    0.9794498   -3.0771638      1728000    4442.5889       127200         6741 
25450000    0.9990674   -3.2225284      1728000    4444.3419       127250         6745 
25460000    1.0303621   -3.1770536      1728000    4446.0953       127300         6746 
25470000    1.0898931   -3.1582792      1728000    4447.8608       127350         6746 
25480000   0.99806599   -3.2194143      1728000    4449.6671       127400         6749 
25490000    1.0362905   -3.1350521      1728000    4451.4189       127450         6749 
25500000    1.0332647   -3.0567769      1728000    4453.1721       127500         6752 
25510000   0.96871667   -3.1821133      1728000    4454.9131       127550         6755 
25520000   0.97183883   -3.2203035      1728000    4456.6565       127600         6758 
25530000    1.0478266   -3.1855409      1728000    4458.3947       127650         6763 
25540000   0.96772544   -3.2067993      1728000    4460.1436       127700         6765 
25550000    1.0213119    -3.085825      1728000    4461.8977       127750         6767 
25560000    1.0272739   -3.2000009      1728000    4463.6571       127800         6769 
25570000    1.0143312   -3.1244586      1728000    4465.4353       127850         6769 
25580000   0.99374918   -3.1030801      1728000    4467.1673       127900         6771 
25590000   0.97659884    -3.068706      1728000    4469.0034       127950         6775 
25600000   0.97646861   -3.1671097      1728000    4470.7556       128000         6777 
25610000    1.0809377   -3.1374987      1728000    4472.5044       128050         6777 
25620000    1.0288074   -3.1345763      1728000    4474.2648       128100         6781 
25630000   0.99152437   -3.2068358      1728000    4476.0149       128150         6782 
25640000   0.94166916   -3.1655496      1728000    4478.0465       128200         6783 
25650000    1.0252167   -3.1341534      1728000    4479.8029       128250         6786 
25660000    1.0186471   -3.0379827      1728000    4481.5459       128300         6788 
25670000   0.97100614   -3.1489544      1728000    4483.2836       128350         6789 
25680000    1.0545212    -3.172872      1728000    4485.0868       128400         6792 
25690000    1.0170371   -3.0483851      1728000    4486.8377       128450         6796 
25700000   0.97464017   -2.9849493      1728000    4488.5858       128500         6797 
25710000   0.98547781   -3.1375731      1728000    4490.3159       128550         6799 
25720000   0.94279135   -3.1331321      1728000    4492.0518       128600         6803 
25730000    0.9734219   -3.1678982      1728000    4493.7879       128650         6805 
25740000    1.0319208   -3.1444269      1728000    4495.5395       128700         6806 
25750000    0.9676718   -3.0360103      1728000    4497.2799       128750         6810 
25760000    1.0509667   -3.0245254      1728000    4499.0147       128800         6813 
25770000    1.0358144   -3.1450435      1728000    4500.7807       128850         6814 
25780000    1.0384703    -3.190116      1728000    4502.5849       128900         6817 
25790000   0.94082717   -3.0490021      1728000    4504.3276       128950         6819 
25800000    1.0008523   -3.1537451      1728000     4506.091       129000         6820 
25810000    1.0231181   -3.1365905      1728000    4507.8608       129050         6823 
25820000    1.0266054   -3.1138819      1728000    4509.6061       129100         6824 
25830000   0.97488458   -3.0500032      1728000    4511.4028       129150         6827 
25840000   0.96584018   -3.2576832      1728000    4513.1638       129200         6828 
25850000    1.0163583     -3.18241      1728000    4514.9268       129250         6830 
25860000     1.075084   -3.0554236      1728000    4516.6738       129300         6831 
25870000   0.99200114   -3.1857154      1728000    4518.4672       129350         6832 
25880000    0.9520099   -3.2051063      1728000    4520.2294       129400         6834 
25890000    1.0370849    -3.105926      1728000     4521.993       129450         6834 
25900000    0.9759777   -3.1078512      1728000     4523.745       129500         6835 
25910000    0.9687718    -3.139992      1728000    4525.5075       129550         6838 
25920000   0.98092631   -3.2178389      1728000    4527.2847       129600         6839 
25930000    1.0250294   -3.1268738      1728000    4529.0484       129650         6840 
25940000    1.0332841    -3.149451      1728000    4530.8005       129700         6841 
25950000   0.96019699   -3.1754247      1728000    4532.5565       129750         6843 
25960000    1.0068683   -3.2188177      1728000    4534.3067       129800         6845 
25970000    1.0291365   -3.1255101      1728000    4536.0741       129850         6847 
25980000    1.0200432   -3.2680462      1728000    4537.8368       129900         6849 
25990000     1.043172   -3.2245033      1728000    4539.5949       129950         6851 
26000000   0.93067947   -3.1483943      1728000    4541.3847       130000         6852 
26010000   0.94816199   -3.1672824      1728000    4543.1476       130050         6854 
26020000    1.0096727   -3.2929135      1728000    4544.9048       130100         6858 
26030000    1.0121951     -3.09686      1728000    4546.6879       130150         6860 
26040000   0.99109102   -3.2044016      1728000    4548.4459       130200         6863 
26050000    1.0246846   -3.2808186      1728000    4550.2048       130250         6864 
26060000    1.0191887   -3.1736949      1728000     4551.991       130300         6867 
26070000    1.0243996   -3.1835679      1728000     4553.811       130350         6868 
26080000     1.021259   -3.1652217      1728000    4555.6891       130400         6869 
26090000    1.0076035   -3.0447022      1728000    4557.4539       130450         6871 
26100000    0.9850304   -3.0582553      1728000    4559.2266       130500         6874 
26110000    1.0337223   -3.1564712      1728000    4561.0048       130550         6875 
26120000    1.0793819   -3.2248356      1728000    4562.8509       130600         6879 
26130000   0.94642503   -3.1621368      1728000    4564.8299       130650         6882 
26140000   0.98092394   -3.1840945      1728000      4566.72       130700         6884 
26150000   0.98883689   -3.2262847      1728000    4568.5602       130750         6885 
26160000    1.0176872   -3.2680516      1728000    4570.4273       130800         6886 
26170000    1.0304528   -3.1874706      1728000    4572.1999       130850         6890 
26180000    1.0015644   -3.1645874      1728000    4573.9992       130900         6893 
26190000    1.0287145    -3.033315      1728000    4575.8443       130950         6898 
26200000    0.9662573   -3.2274916      1728000    4577.6045       131000         6901 
26210000    0.9706991   -3.2299036      1728000    4579.3875       131050         6905 
26220000   0.96308508   -3.1428265      1728000    4581.1399       131100         6906 
26230000   0.98804541   -3.1880074      1728000    4582.8887       131150         6908 
26240000    1.0462852   -3.0138567      1728000    4584.6534       131200         6912 
26250000    1.0242636   -3.1267271      1728000    4586.4009       131250         6914 
26260000   0.94205548   -3.0545369      1728000    4588.1771       131300         6916 
26270000   0.91712996   -3.1206019      1728000    4589.9278       131350         6918 
26280000   0.95527578   -3.1245969      1728000    4591.6941       131400         6920 
26290000    1.0160254   -3.2030482      1728000    4593.4849       131450         6923 
26300000    1.0484129    -3.220228      1728000     4595.246       131500         6923 
26310000    1.0538686   -3.2747009      1728000    4597.0719       131550         6923 
26320000    1.0813611   -3.1818804      1728000    4598.8312       131600         6924 
26330000   0.87235876   -3.1627428      1728000    4600.5891       131650         6924 
26340000   0.99750553   -3.1897591      1728000    4602.3399       131700         6925 
26350000    1.0394172   -3.1473146      1728000    4604.1179       131750         6927 
26360000   0.96014402   -3.1195061      1728000     4605.885       131800         6931 
26370000   0.98082118   -3.1617997      1728000    4607.6461       131850         6934 
26380000    1.0361704   -3.1516469      1728000    4609.4218       131900         6935 
26390000   0.98678734   -3.0831413      1728000    4611.1881       131950         6937 
26400000   0.98737795   -3.2545362      1728000     4612.963       132000         6941 
26410000   0.99435226   -3.3310749      1728000    4614.7379       132050         6943 
26420000    1.0873539   -3.2310821      1728000    4616.5117       132100         6944 
26430000     1.043145   -3.1870826      1728000    4618.2741       132150         6946 
26440000    1.0001693   -3.3039399      1728000     4620.117       132200         6948 
26450000   0.97081101   -3.1806657      1728000    4621.8873       132250         6949 
26460000    1.0408492   -3.1648306      1728000    4623.6659       132300         6949 
26470000   0.92324989   -3.2221073      1728000    4625.4394       132350         6949 
26480000    1.0263812   -3.2105053      1728000    4627.2391       132400         6949 
26490000    0.9921991     -3.21659      1728000    4629.0258       132450         6950 
26500000   0.98559185   -3.3418806      1728000    4630.8401       132500         6950 
26510000    1.0192249   -3.3916836      1728000    4632.6218       132550         6953 
26520000   0.98669244   -3.1709015      1728000    4634.3988       132600         6956 
26530000    1.0052163   -3.2863665      1728000      4636.17       132650         6959 
26540000   0.96490399   -3.1249948      1728000      4637.94       132700         6960 
26550000    1.0230213   -3.1844822      1728000    4639.7351       132750         6962 
26560000   0.95624097   -3.0971763      1728000    4641.5219       132800         6962 
26570000   0.94414095    -3.244867      1728000    4643.2852       132850         6966 
26580000   0.98999667   -3.2462906      1728000    4645.0619       132900         6969 
26590000    1.0317809   -3.1723961      1728000      4646.87       132950         6970 
26600000   0.98152839   -3.1023063      1728000    4648.6488       133000         6973 
26610000   0.93782957   -3.2020118      1728000    4650.4262       133050         6973 
26620000    1.0200205   -3.1845241      1728000     4652.196       133100         6976 
26630000    1.0232911    -3.207695      1728000    4653.9642       133150         6977 
26640000   0.99636994   -3.1295041      1728000    4655.7371       133200         6979 
26650000    1.0418242   -3.2361348      1728000    4657.4979       133250         6981 
26660000   0.97025144   -3.2603607      1728000    4659.2859       133300         6981 
26670000   0.96565045   -3.1442576      1728000    4661.0668       133350         6981 
26680000   0.99596509   -3.0357376      1728000    4662.8281       133400         6983 
26690000   0.92647276   -3.1931623      1728000    4664.5791       133450         6986 
26700000    0.9542373   -3.1955478      1728000    4666.3511       133500         6988 
26710000    0.9387287   -3.2308816      1728000     4668.138       133550         6989 
26720000    1.0627742   -3.2837344      1728000    4669.9184       133600         6989 
26730000    1.0319735   -3.2198956      1728000    4671.7152       133650         6990 
26740000   0.99738687   -3.1421486      1728000    4673.4939       133700         6990 
26750000    1.0519848   -3.1701151      1728000    4675.2998       133750         6990 
26760000   0.97577215   -3.2720561      1728000    4677.0731       133800         6994 
26770000    1.0070927   -3.3361038      1728000    4678.8671       133850         6994 
26780000    0.9665456   -3.2362376      1728000      4680.65       133900         6998 
26790000    0.9918575   -3.2439529      1728000     4682.436       133950         6998 
26800000   0.95930769   -3.2912237      1728000    4684.2212       134000         7001 
26810000    1.0128382   -3.1530176      1728000    4686.0188       134050         7002 
26820000   0.95343276   -3.1030004      1728000    4687.7778       134100         7004 
26830000   0.99861128   -3.2358167      1728000    4689.5592       134150         7007 
26840000   0.97653001   -3.2155297      1728000    4691.3404       134200         7007 
26850000    1.0231566   -3.3466962      1728000    4693.1094       134250         7009 
26860000    1.0390769   -3.1601456      1728000    4694.8893       134300         7012 
26870000    1.0084825   -3.3961264      1728000    4696.6593       134350         7013 
26880000    1.0892958    -3.149546      1728000    4698.4352       134400         7014 
26890000    1.0407025   -3.2444706      1728000    4700.1912       134450         7016 
26900000    1.0736725   -3.3005835      1728000    4701.9642       134500         7020 
26910000   0.96818401   -3.2718518      1728000    4703.7342       134550         7023 
26920000   0.98930572   -3.2105775      1728000    4705.5252       134600         7023 
26930000     1.069191   -3.1988649      1728000    4707.3032       134650         7024 
26940000    1.0188308   -3.2231338      1728000    4709.1002       134700         7026 
26950000   0.94784901   -3.2495983      1728000    4710.8731       134750         7026 
26960000   0.99093853   -3.2517053      1728000    4712.6492       134800         7026 
26970000   0.98106857   -3.1957347      1728000    4714.4331       134850         7027 
26980000   0.97478709   -3.2788451      1728000    4716.2102       134900         7028 
26990000    1.0113143   -3.2987264      1728000    4717.9712       134950         7031 
27000000     0.917253   -3.2542734      1728000    4719.7661       135000         7031 
27010000   0.95331317   -3.2309305      1728000    4721.5443       135050         7034 
27020000   0.94256163   -3.2113032      1728000    4723.3231       135100         7036 
27030000   0.98978909   -3.2545892      1728000    4725.0942       135150         7038 
27040000    1.0128986   -3.2474576      1728000    4726.9092       135200         7039 
27050000   0.95669431   -3.2204149      1728000    4728.6791       135250         7041 
27060000    1.0270659   -3.2049481      1728000    4730.4501       135300         7043 
27070000    1.0171666   -3.2762619      1728000     4732.233       135350         7046 
27080000    1.0278814   -3.1953203      1728000     4734.023       135400         7047 
27090000   0.97176805   -3.3363897      1728000    4735.8117       135450         7051 
27100000    1.0633414   -3.2510085      1728000    4737.6002       135500         7053 
27110000    0.9580756   -3.2732448      1728000     4739.391       135550         7056 
27120000      1.02651     -3.19554      1728000     4741.199       135600         7058 
27130000   0.97106026   -3.2837704      1728000    4742.9793       135650         7060 
27140000    1.0101157    -3.297714      1728000    4744.7612       135700         7063 
27150000    1.0032709   -3.1715818      1728000     4746.537       135750         7064 
27160000    1.0171044   -3.2060067      1728000    4748.3073       135800         7066 
27170000   0.95979135   -3.1186787      1728000    4750.0792       135850         7067 
27180000    1.0845619   -3.1556707      1728000     4751.884       135900         7067 
27190000   0.99413634   -3.2803332      1728000    4753.6672       135950         7070 
27200000    1.0663933   -3.2051673      1728000     4755.462       136000         7074 
27210000     1.030037   -3.2643358      1728000    4757.2253       136050         7075 
27220000     1.020805   -3.2832663      1728000    4758.9893       136100         7080 
27230000    1.0014584   -3.1948094      1728000    4760.7603       136150         7084 
27240000   0.97316037   -3.2229821      1728000    4762.5222       136200         7087 
27250000    1.0795743   -3.1505754      1728000    4764.2901       136250         7090 
27260000   0.98264499   -3.1993269      1728000    4766.0703       136300         7093 
27270000   0.96527278   -3.2011085      1728000     4767.875       136350         7096 
27280000   0.96548153   -3.2444577      1728000    4769.6525       136400         7096 
27290000   0.97599543    -3.288027      1728000      4771.48       136450         7098 
27300000   0.97208416   -3.2579144      1728000    4773.3452       136500         7098 
27310000   0.99875278   -3.2200098      1728000    4775.1712       136550         7102 
27320000    1.0157556   -3.2679817      1728000    4776.9936       136600         7103 
27330000    1.0026798    -3.242431      1728000     4778.776       136650         7104 
27340000    1.0260691   -3.2574151      1728000     4780.548       136700         7108 
27350000   0.93696326   -3.1079525      1728000    4782.3243       136750         7111 
27360000    1.0395012   -3.0827349      1728000    4784.1313       136800         7113 
27370000    1.0132873   -3.1099088      1728000    4785.9319       136850         7114 
27380000    1.0572184   -3.2213352      1728000    4787.7063       136900         7116 
27390000    1.0043823   -3.1335137      1728000    4789.4711       136950         7116 
27400000   0.96001114   -3.1413106      1728000    4791.2241       137000         7120 
27410000    1.0280234   -3.2081248      1728000    4793.0131       137050         7125 
27420000    1.0509686   -3.1916885      1728000    4794.8222       137100         7127 
27430000    0.9902473   -3.2696116      1728000    4796.5907       137150         7127 
27440000    1.0292896   -3.1542037      1728000    4798.4062       137200         7127 
27450000    1.0440084   -3.1900924      1728000    4800.1766       137250         7130 
27460000   0.93775077   -3.0959643      1728000    4802.0066       137300         7133 
27470000    1.0265223   -3.0806453      1728000      4803.75       137350         7134 
27480000    1.0562842   -3.0953885      1728000    4805.5102       137400         7138 
27490000    1.0246358   -3.0911945      1728000    4807.2643       137450         7140 
27500000   0.99979603    -3.167347      1728000    4809.0281       137500         7142 
27510000   0.92090452   -3.1626886      1728000    4810.7981       137550         7144 
27520000    0.9385237   -3.1206706      1728000    4812.5533       137600         7149 
27530000   0.97596693   -3.2534242      1728000    4814.3121       137650         7151 
27540000    1.0285281   -3.1620392      1728000    4816.0849       137700         7153 
27550000   0.91395373   -3.1251929      1728000    4817.8464       137750         7155 
27560000    1.0268503   -3.2983206      1728000     4819.617       137800         7156 
27570000    1.0006144   -3.2589038      1728000    4821.3834       137850         7160 
27580000    1.0145943   -3.2231134      1728000    4823.1573       137900         7162 
27590000   0.96554785   -3.1690114      1728000    4824.9544       137950         7162 
27600000   0.97094809   -3.1326981      1728000    4826.7431       138000         7163 
27610000     1.006235   -3.3161363      1728000    4828.5083       138050         7169 
27620000    1.0344784   -3.1813373      1728000    4830.2675       138100         7169 
27630000   0.98727922     -3.16458      1728000    4832.0504       138150         7170 
27640000    1.0500722   -3.1418168      1728000    4833.8198       138200         7171 
27650000    1.0993847   -3.2121936      1728000    4835.6016       138250         7172 
27660000    1.0034873   -3.2067522      1728000    4837.3732       138300         7174 
27670000    1.0109349   -3.2240279      1728000    4839.1396       138350         7176 
27680000   0.96232333   -3.2852762      1728000    4840.9121       138400         7177 
27690000    1.0013218    -3.202077      1728000    4842.6974       138450         7180 
27700000    1.0271535   -3.1773441      1728000    4844.4733       138500         7180 
27710000   0.98181384   -3.1771674      1728000    4846.2657       138550         7180 
27720000    1.0251527   -3.2264868      1728000    4848.0365       138600         7181 
27730000    1.0278353   -3.1760995      1728000    4849.8102       138650         7183 
27740000    1.0297205   -3.3328376      1728000    4851.6273       138700         7188 
27750000    1.0479915   -3.2727997      1728000    4853.4165       138750         7191 
27760000    1.0072126   -3.1650601      1728000    4855.2167       138800         7194 
27770000    1.0270458   -3.3364902      1728000    4857.0653       138850         7195 
27780000    0.9920834   -3.1575391      1728000    4858.8427       138900         7199 
27790000   0.96426396   -3.1689683      1728000    4860.6221       138950         7203 
27800000   0.93703837    -3.219989      1728000    4862.4063       139000         7207 
27810000    1.0396634   -3.3048932      1728000    4864.1956       139050         7210 
27820000    1.0943065   -3.2442535      1728000    4865.9923       139100         7213 
27830000    1.0125382   -3.1983792      1728000    4867.7843       139150         7214 
27840000   0.91950451    -3.110693      1728000    4869.5598       139200         7216 
27850000    1.0379432   -3.3253436      1728000    4871.3332       139250         7218 
27860000   0.99369644   -3.1879892      1728000    4873.1345       139300         7220 
27870000   0.90126171   -3.2692975      1728000     4874.939       139350         7221 
27880000    1.0376038   -3.0398614      1728000    4876.7139       139400         7222 
27890000   0.96903604   -3.2762498      1728000    4878.4964       139450         7226 
27900000    1.0624201   -3.3296641      1728000    4880.2823       139500         7229 
27910000   0.97263151   -3.2035548      1728000    4882.0853       139550         7234 
27920000    1.0409701   -3.2884426      1728000     4883.883       139600         7234 
27930000    0.9805701   -3.1362274      1728000    4885.6743       139650         7235 
27940000    1.0291686   -3.3188684      1728000    4887.4382       139700         7235 
27950000   0.95816878   -3.1342718      1728000    4889.2134       139750         7239 
27960000    1.0210095   -3.2095739      1728000    4891.0336       139800         7242 
27970000     1.025525   -3.2091108      1728000    4892.8191       139850         7243 
27980000   0.99977495    -3.263293      1728000    4894.6013       139900         7244 
27990000     1.073996   -3.1970916      1728000    4896.4012       139950         7245 
28000000    1.0262623   -3.2673158      1728000    4898.2131       140000         7248 
28010000   0.94774849   -3.2333936      1728000     4899.974       140050         7252 
28020000    1.0494243   -3.2510024      1728000    4901.7581       140100         7252 
28030000    0.9441425   -3.2297864      1728000    4903.5372       140150         7255 
28040000    1.0036587    -3.257162      1728000    4905.3273       140200         7256 
28050000    1.0690922   -3.1925303      1728000    4907.1203       140250         7258 
28060000    1.0301814     -3.17241      1728000    4908.9182       140300         7258 
28070000   0.95724542   -3.1396002      1728000    4910.7124       140350         7260 
28080000    1.0136423   -3.1237576      1728000    4912.5405       140400         7263 
28090000   0.99237551   -3.2526475      1728000     4914.329       140450         7266 
28100000   0.95727741   -3.2400654      1728000    4916.1229       140500         7266 
28110000   0.99555144   -3.2408039      1728000    4917.9063       140550         7269 
28120000   0.92771665   -3.2903629      1728000    4919.7142       140600         7270 
28130000   0.94086183   -3.3214122      1728000    4921.4771       140650         7272 
28140000    1.0210331   -3.2501573      1728000    4923.2744       140700         7273 
28150000   0.99547483   -3.2107054      1728000     4925.048       140750         7275 
28160000   0.93544097   -3.1556916      1728000    4926.8194       140800         7275 
28170000   0.97788446   -3.0986786      1728000    4928.5954       140850         7275 
28180000   0.96343475    -3.161526      1728000    4930.3682       140900         7279 
28190000    1.0465879   -3.1742589      1728000    4932.1643       140950         7281 
28200000   0.96424457   -3.3103274      1728000     4933.994       141000         7283 
28210000   0.96755851   -3.1187839      1728000    4935.7852       141050         7284 
28220000    1.0313013   -3.1338947      1728000    4937.5395       141100         7288 
28230000   0.96474821   -3.1545093      1728000    4939.3135       141150         7291 
28240000    1.0433968   -3.2095584      1728000    4941.1032       141200         7296 
28250000    1.0487911   -3.2945982      1728000    4942.8741       141250         7298 
28260000    0.9840582   -2.9695541      1728000    4944.6462       141300         7302 
28270000     1.017637   -3.2295819      1728000    4946.4112       141350         7303 
28280000   0.98661018    -3.019963      1728000    4948.1785       141400         7307 
28290000    1.0291904   -3.1935517      1728000    4950.0181       141450         7310 
28300000    1.0071874   -3.2324165      1728000    4951.9322       141500         7313 
28310000   0.98003354   -3.1012212      1728000    4953.7493       141550         7318 
28320000    1.0098906    -3.168988      1728000    4955.6078       141600         7319 
28330000    1.0229694   -3.2781509      1728000    4957.4061       141650         7320 
28340000    1.0851648   -3.3516613      1728000    4959.1895       141700         7321 
28350000   0.94945944   -3.1367448      1728000    4960.9696       141750         7321 
28360000   0.93721387   -3.2388808      1728000    4962.7564       141800         7322 
28370000   0.95834911   -3.3750715      1728000    4964.5383       141850         7322 
28380000   0.95969889    -3.237206      1728000    4966.3323       141900         7323 
28390000   0.95192835   -3.3318693      1728000    4968.1275       141950         7323 
28400000    1.0636134    -3.313686      1728000    4969.9333       142000         7326 
28410000   0.97341807    -3.223083      1728000    4971.7232       142050         7326 
28420000   0.95607461   -3.2064277      1728000    4973.4924       142100         7329 
28430000   0.96613173   -3.2451419      1728000    4975.3046       142150         7331 
28440000    1.1080929   -3.2747866      1728000    4977.1118       142200         7333 
28450000    1.0221601   -3.3566028      1728000    4978.9139       142250         7335 
28460000    1.0112601   -3.2093756      1728000    4980.6894       142300         7337 
28470000   0.96323981   -3.2333995      1728000    4982.4781       142350         7338 
28480000    1.0349326   -3.3322478      1728000      4984.29       142400         7340 
28490000    1.0326459   -3.3087246      1728000    4986.0853       142450         7341 
28500000    1.0199603   -3.2735029      1728000    4987.8753       142500         7342 
28510000   0.99838456   -3.1666795      1728000    4989.6733       142550         7343 
28520000   0.96031069   -3.2362262      1728000    4991.4513       142600         7347 
28530000     1.072081   -3.1449518      1728000    4993.2254       142650         7351 
28540000   0.95850074   -3.1506304      1728000    4994.9882       142700         7353 
28550000   0.99867407   -3.3753288      1728000    4996.7784       142750         7355 
28560000   0.95719494    -3.254481      1728000    4998.5754       142800         7356 
28570000   0.99881699   -3.2566463      1728000    5000.3663       142850         7359 
28580000   0.98372936   -3.1605315      1728000    5002.1352       142900         7359 
28590000   0.95857856   -3.2605755      1728000    5003.9753       142950         7362 
28600000   0.97836179   -3.2435889      1728000    5005.7489       143000         7362 
28610000   0.98252028   -3.1857195      1728000    5007.5135       143050         7367 
28620000    1.1165192   -3.1987907      1728000    5009.2897       143100         7369 
28630000   0.98906337      -3.2255      1728000    5011.0962       143150         7372 
28640000   0.96515977   -3.2038123      1728000    5012.8699       143200         7375 
28650000   0.94747872   -3.1269052      1728000    5014.6453       143250         7379 
28660000   0.97430709   -3.1285567      1728000    5016.4252       143300         7381 
28670000   0.95343361   -3.1522877      1728000    5018.1884       143350         7382 
28680000    1.0215768   -3.1620015      1728000    5019.9754       143400         7383 
28690000    0.9426591   -3.2168717      1728000    5021.7564       143450         7386 
28700000    1.0079753   -3.3557752      1728000    5023.5522       143500         7388 
28710000    1.0305766   -3.1631768      1728000     5025.351       143550         7388 
28720000    1.0028275   -3.3267128      1728000    5027.1423       143600         7389 
28730000   0.97720293   -3.1528421      1728000    5028.9126       143650         7394 
28740000    1.0320339   -3.2623264      1728000    5030.6968       143700         7397 
28750000    1.0665922   -3.2691942      1728000    5032.4972       143750         7398 
28760000    1.0003289   -3.2504336      1728000    5034.2733       143800         7402 
28770000   0.95095846   -3.2246168      1728000    5036.0555       143850         7402 
28780000   0.97256653   -3.1900488      1728000    5037.8207       143900         7404 
28790000    1.0465702   -3.2215403      1728000    5039.5975       143950         7405 
28800000    1.0006984   -3.2559002      1728000    5041.3882       144000         7405 
28810000   0.98199051   -3.2757323      1728000    5043.1673       144050         7407 
28820000   0.97136553   -3.3180911      1728000    5044.9527       144100         7408 
28830000   0.97470224   -3.2059943      1728000    5046.7341       144150         7414 
28840000    1.0482711   -3.1436922      1728000    5048.5012       144200         7417 
28850000    1.0659814   -3.1129299      1728000    5050.2491       144250         7423 
28860000   0.95231007   -3.2579063      1728000    5052.0116       144300         7427 
28870000    1.0166293   -3.2564816      1728000    5053.7903       144350         7428 
28880000   0.99603602   -3.1569095      1728000     5055.584       144400         7430 
28890000    1.0000088    -3.130916      1728000    5057.3504       144450         7433 
28900000    1.0601961   -3.2305066      1728000    5059.1231       144500         7436 
28910000   0.98113348   -3.0891017      1728000    5060.9013       144550         7437 
28920000    1.0184058   -3.1121683      1728000    5062.7015       144600         7441 
28930000    1.0097961   -3.1363616      1728000    5064.4529       144650         7442 
28940000   0.99028557   -3.2786135      1728000    5066.2009       144700         7443 
28950000    1.0227428   -3.2454702      1728000    5067.9686       144750         7443 
28960000   0.99926822   -3.2212819      1728000     5069.743       144800         7446 
28970000   0.97882582   -3.1953761      1728000    5071.5306       144850         7447 
28980000   0.99450968   -3.2356485      1728000    5073.2942       144900         7449 
28990000   0.97054775   -3.1655592      1728000    5075.0706       144950         7452 
29000000    1.0312755    -3.108777      1728000    5076.8559       145000         7461 
29010000    1.0350778   -3.0261858      1728000    5078.6262       145050         7463 
29020000     1.033165   -3.2440518      1728000    5080.3996       145100         7465 
29030000   0.99770952   -3.1931779      1728000    5082.1864       145150         7467 
29040000    1.0575545   -3.2031046      1728000    5083.9504       145200         7469 
29050000     1.051546   -3.2035822      1728000    5085.7409       145250         7471 
29060000    1.0539353   -3.2909311      1728000    5087.5364       145300         7473 
29070000    1.0029522   -3.1656049      1728000    5089.3272       145350         7476 
29080000   0.97166715   -3.2094172      1728000    5091.0847       145400         7480 
29090000    1.0649995   -3.1111517      1728000    5092.8648       145450         7481 
29100000   0.98554506   -3.1226684      1728000    5094.6432       145500         7482 
29110000    1.0237225   -3.2708552      1728000    5096.4093       145550         7486 
29120000   0.99761469   -3.1140207      1728000    5098.1862       145600         7489 
29130000   0.99348912   -3.2162206      1728000    5099.9745       145650         7490 
29140000   0.97031176   -3.2211897      1728000    5101.7334       145700         7494 
29150000    1.0145342   -3.3496314      1728000    5103.5034       145750         7497 
29160000    1.0510585   -3.3421189      1728000    5105.3347       145800         7498 
29170000   0.98299363    -3.249274      1728000    5107.1395       145850         7499 
29180000   0.97708971   -3.2839514      1728000    5108.9204       145900         7499 
29190000   0.97346597   -3.2850787      1728000    5110.7386       145950         7501 
29200000    1.0144801   -3.2311413      1728000    5112.5324       146000         7501 
29210000   0.89447501   -3.2192842      1728000    5114.3226       146050         7505 
29220000    1.0320272   -3.1351929      1728000    5116.0965       146100         7508 
29230000    1.0147122   -3.1205184      1728000    5117.8579       146150         7514 
29240000    1.0151089    -3.229743      1728000    5119.6225       146200         7516 
29250000    1.0182177   -3.1157138      1728000    5121.3927       146250         7517 
29260000   0.90809227   -3.2266756      1728000    5123.1604       146300         7518 
29270000    1.0155522   -3.1931897      1728000    5124.9324       146350         7521 
29280000   0.94146774   -2.9985701      1728000    5126.6905       146400         7523 
29290000    1.0287103   -3.0680021      1728000    5128.4534       146450         7526 
29300000   0.94677652   -3.0653744      1728000    5130.1984       146500         7529 
29310000    1.0079131   -3.1263757      1728000    5131.9444       146550         7535 
29320000    1.0174603   -3.1305186      1728000    5133.7213       146600         7537 
29330000   0.99820284   -3.1636106      1728000    5135.4869       146650         7541 
29340000   0.99636104   -3.1759496      1728000    5137.2547       146700         7544 
29350000   0.94195954    -3.191252      1728000     5139.019       146750         7545 
29360000    1.0403646   -3.0990989      1728000    5140.7736       146800         7547 
29370000   0.99883919   -3.2395676      1728000    5142.5512       146850         7549 
29380000   0.95536961   -3.0127232      1728000    5144.3328       146900         7553 
29390000   0.89879104   -3.0975987      1728000    5146.0745       146950         7555 
29400000     1.019687   -3.1899079      1728000    5147.8417       147000         7556 
29410000    1.0782196   -3.1816555      1728000    5149.6603       147050         7558 
29420000     0.988101   -3.1482914      1728000    5151.4374       147100         7558 
29430000   0.96618941   -3.1678486      1728000    5153.2056       147150         7561 
29440000    1.0284011   -3.2217118      1728000    5154.9888       147200         7561 
29450000   0.94869497   -3.3198077      1728000    5156.7648       147250         7562 
29460000   0.98968146   -3.2232482      1728000     5158.539       147300         7563 
29470000    1.0414633   -3.1766522      1728000    5160.3235       147350         7565 
29480000    1.0644573   -3.3470959      1728000    5162.1144       147400         7568 
29490000   0.99848905   -3.2070755      1728000    5163.8938       147450         7569 
29500000     0.956671   -3.2215897      1728000    5165.6974       147500         7571 
29510000    1.0005219   -3.3055448      1728000    5167.4823       147550         7571 
29520000   0.98645328   -3.2429306      1728000    5169.2536       147600         7576 
29530000    0.9614543    -3.093926      1728000    5171.0365       147650         7578 
29540000    1.0153115   -3.3592075      1728000    5172.8115       147700         7579 
29550000    1.0094648   -3.2588859      1728000    5174.6156       147750         7579 
29560000    1.0331907    -3.343817      1728000    5176.4024       147800         7581 
29570000   0.96118884   -3.1691947      1728000    5178.2036       147850         7583 
29580000   0.93007295   -3.2099681      1728000    5179.9924       147900         7585 
29590000    1.0145808   -3.1686534      1728000    5181.7764       147950         7588 
29600000    1.0155147    -3.246853      1728000    5183.6166       148000         7591 
29610000    1.0099471   -3.2080216      1728000    5185.3982       148050         7591 
29620000   0.99471562   -3.3772746      1728000    5187.1894       148100         7591 
29630000   0.97356028   -3.2726354      1728000    5188.9955       148150         7591 
29640000    1.0229872   -3.2869892      1728000    5190.7765       148200         7592 
29650000   0.94934412   -3.2225814      1728000    5192.5555       148250         7593 
29660000    1.0139879    -3.183444      1728000    5194.3445       148300         7594 
29670000    1.0592501    -3.131159      1728000    5196.1395       148350         7596 
29680000   0.97751561   -3.1501259      1728000    5197.9208       148400         7596 
29690000   0.90199398   -3.3111211      1728000    5199.7115       148450         7597 
29700000    1.0027346    -3.339424      1728000    5201.5254       148500         7599 
29710000    1.0088157   -3.2593947      1728000    5203.3366       148550         7600 
29720000   0.95254436   -3.3473773      1728000    5205.1313       148600         7600 
29730000   0.92922939   -3.2450354      1728000    5206.9254       148650         7601 
29740000   0.99586221   -3.3100735      1728000    5208.7205       148700         7601 
29750000   0.93299112   -3.2921638      1728000    5210.4954       148750         7602 
29760000   0.96524902   -3.1865979      1728000    5212.2695       148800         7603 
29770000    1.0078044   -3.2950839      1728000    5214.0611       148850         7604 
29780000    1.0650179   -3.2557381      1728000    5215.8447       148900         7608 
29790000   0.94881912   -3.2986566      1728000    5217.6988       148950         7610 
29800000    1.0343132   -3.1924271      1728000    5219.5028       149000         7611 
29810000    1.0940442   -3.1804869      1728000    5221.2771       149050         7611 
29820000    1.0064587   -3.3196908      1728000    5223.0709       149100         7612 
29830000   0.96362117   -3.2410653      1728000    5224.8533       149150         7612 
29840000    1.0473896   -3.2387325      1728000    5226.6423       149200         7614 
29850000    1.0823238   -3.2845502      1728000    5228.4175       149250         7614 
29860000     1.043226   -3.2744385      1728000    5230.1989       149300         7614 
29870000    1.0572762   -3.2737978      1728000    5231.9836       149350         7615 
29880000    1.0342191    -3.340032      1728000    5233.7769       149400         7615 
29890000   0.95526878    -3.311427      1728000    5235.5875       149450         7618 
29900000   0.96196036   -3.3186419      1728000    5237.3836       149500         7618 
29910000   0.98044825   -3.1992474      1728000    5239.1566       149550         7621 
29920000   0.98152754   -3.3346808      1728000    5240.9527       149600         7623 
29930000    1.0129662   -3.1893715      1728000    5242.7213       149650         7623 
29940000   0.96770647   -3.3075468      1728000     5244.499       149700         7625 
29950000   0.97751302   -3.2643312      1728000    5246.2789       149750         7627 
29960000   0.98341861   -3.2805661      1728000    5248.0596       149800         7628 
29970000   0.90237036   -3.2707195      1728000    5249.8601       149850         7632 
29980000   0.99660464   -3.2379107      1728000    5251.6327       149900         7634 
29990000    1.0147277    -3.263765      1728000    5253.4042       149950         7637 
30000000   0.96293861   -3.3723824      1728000    5255.2494       150000         7639 
30010000   0.99220583   -3.2448528      1728000     5257.046       150050         7641 
30020000    1.0575924   -3.1206413      1728000    5258.8193       150100         7641 
30030000    1.0251064   -3.2888381      1728000    5260.5887       150150         7642 
30040000     1.050713   -3.2636408      1728000    5262.3555       150200         7646 
30050000   0.99201505   -3.2151838      1728000    5264.1467       150250         7646 
30060000    1.1198835   -3.1401952      1728000    5265.9337       150300         7650 
30070000   0.99347446   -3.2212647      1728000    5267.7046       150350         7652 
30080000    1.0369076   -3.3280957      1728000    5269.4855       150400         7653 
30090000   0.98177408   -3.2073451      1728000    5271.2725       150450         7654 
30100000   0.97222774   -3.2689891      1728000    5273.0768       150500         7655 
30110000     1.006486   -3.3077948      1728000    5274.8543       150550         7659 
30120000   0.97349405   -3.2543061      1728000    5276.6356       150600         7661 
30130000    1.0016271   -3.2239636      1728000    5278.3926       150650         7662 
30140000    1.1278026   -3.2026797      1728000    5280.1657       150700         7663 
30150000   0.95070342   -3.2717633      1728000    5281.9918       150750         7664 
30160000    1.0234381   -3.3068913      1728000    5283.7745       150800         7666 
30170000    1.0002758   -3.1403596      1728000    5285.5558       150850         7669 
30180000   0.92234636   -3.2416058      1728000    5287.3296       150900         7669 
30190000    1.0691907   -3.3500479      1728000    5289.1245       150950         7670 
30200000    1.0387828   -3.2912377      1728000    5290.9434       151000         7672 
30210000    1.0310416    -3.332941      1728000    5292.7347       151050         7674 
30220000   0.97314626   -3.2636212      1728000    5294.5166       151100         7674 
30230000   0.96020998   -3.2920042      1728000    5296.3216       151150         7676 
30240000   0.97552558   -3.3140379      1728000    5298.1056       151200         7677 
30250000    1.0272358    -3.258833      1728000    5299.8996       151250         7679 
30260000   0.97696994   -3.3601609      1728000    5301.6879       151300         7679 
30270000   0.96807791   -3.2368045      1728000    5303.4606       151350         7680 
30280000    1.0017931   -3.1462198      1728000    5305.2336       151400         7680 
30290000   0.96152461   -3.2217586      1728000    5307.0255       151450         7686 
30300000    1.0212136   -3.2591275      1728000    5308.8065       151500         7691 
30310000   0.97854585   -3.1734863      1728000    5310.6417       151550         7694 
30320000   0.96193904    -3.196325      1728000    5312.4248       151600         7697 
30330000    1.0093014   -3.1969173      1728000    5314.2107       151650         7701 
30340000   0.99103773   -3.2813097      1728000    5315.9857       151700         7703 
30350000   0.97704756    -3.274117      1728000    5317.7735       151750         7703 
30360000    1.0355687   -3.3114307      1728000    5319.5601       151800         7705 
30370000    1.0136499   -3.0519323      1728000    5321.3186       151850         7706 
30380000   0.93975906   -3.2210619      1728000    5323.0698       151900         7709 
30390000   0.98688997   -3.2756469      1728000    5324.8452       151950         7709 
30400000    1.0899697   -3.3078986      1728000    5326.6066       152000         7711 
30410000   0.98328863   -3.2517974      1728000    5328.3788       152050         7712 
30420000      1.05915   -3.2187009      1728000    5330.1421       152100         7716 
30430000   0.97961124   -3.2631298      1728000     5331.915       152150         7717 
30440000    1.0231774   -3.2356068      1728000    5333.6786       152200         7717 
30450000    1.0454007   -3.2885737      1728000    5335.4567       152250         7718 
30460000   0.94775207   -3.1007001      1728000    5337.2185       152300         7720 
30470000   0.99221764   -3.2436371      1728000    5338.9895       152350         7722 
30480000   0.98817215   -3.0624525      1728000    5340.7637       152400         7726 
30490000    1.0255811   -3.2812461      1728000    5342.5613       152450         7727 
30500000    1.0276227   -3.1643076      1728000    5344.3396       152500         7729 
30510000   0.93282324   -3.2109981      1728000     5346.106       152550         7733 
30520000   0.93577777   -3.1901867      1728000    5347.8627       152600         7736 
30530000    1.0144926   -3.2193705      1728000    5349.6316       152650         7736 
30540000   0.97240397   -3.2751602      1728000    5351.4168       152700         7738 
30550000   0.92473018    -3.099205      1728000    5353.1836       152750         7742 
30560000   0.98369381   -3.2209702      1728000    5354.9724       152800         7743 
30570000    1.0020782    -3.234225      1728000    5356.7376       152850         7745 
30580000   0.97963042   -3.1388175      1728000    5358.5166       152900         7747 
30590000   0.99051292   -3.2132531      1728000    5360.2937       152950         7751 
30600000   0.96134077   -3.0471394      1728000    5362.0877       153000         7753 
30610000   0.99440942   -3.1566592      1728000    5363.8629       153050         7756 
30620000   0.99492617   -3.3239377      1728000    5365.6387       153100         7761 
30630000   0.96086155   -3.2828153      1728000    5367.4164       153150         7762 
30640000   0.93562667   -3.2110771      1728000    5369.2597       153200         7764 
30650000    1.0439925   -3.2370852      1728000    5371.0467       153250         7765 
30660000    1.0069794   -3.2720861      1728000    5372.8508       153300         7765 
30670000    0.9609718   -3.2512464      1728000    5374.6357       153350         7767 
30680000    1.0342149   -3.3340397      1728000    5376.4177       153400         7768 
30690000   0.92342804    -3.337067      1728000    5378.1958       153450         7769 
30700000    1.0307147   -3.3226677      1728000    5379.9938       153500         7770 
30710000    0.9808814   -3.1757987      1728000    5381.7647       153550         7773 
30720000    1.0131538   -3.1672326      1728000    5383.5237       153600         7774 
30730000   0.97226768   -3.1134964      1728000    5385.2938       153650         7776 
30740000   0.97602868   -3.2578906      1728000    5387.0728       153700         7777 
30750000    1.0532058   -3.1627115      1728000    5388.8597       153750         7779 
30760000    1.0052406   -3.1521789      1728000    5390.6512       153800         7780 
30770000   0.96646425   -3.1927243      1728000    5392.4327       153850         7781 
30780000    1.0524869   -3.3014933      1728000    5394.2387       153900         7782 
30790000    1.0449575    -3.262453      1728000     5396.005       153950         7785 
30800000   0.95398154   -3.1742699      1728000    5397.8542       154000         7787 
30810000    1.0016605   -3.2513769      1728000    5399.6174       154050         7790 
30820000   0.97096228   -3.2062747      1728000    5401.4016       154100         7791 
30830000   0.99564874   -3.1894007      1728000    5403.1852       154150         7793 
30840000   0.97898146   -3.2249045      1728000    5404.9567       154200         7795 
30850000   0.96593938   -3.1296885      1728000    5406.7349       154250         7796 
30860000    1.0530932   -3.3851009      1728000    5408.5107       154300         7799 
30870000    1.0351851   -3.3213056      1728000    5410.2982       154350         7801 
30880000   0.99782284   -3.1852582      1728000    5412.0892       154400         7801 
30890000   0.97353377   -3.3112382      1728000    5413.9081       154450         7802 
30900000   0.98848183   -3.0662475      1728000    5415.6918       154500         7805 
30910000    1.0253841   -3.2322146      1728000    5417.4566       154550         7806 
30920000    1.0262028   -3.1234776      1728000    5419.2338       154600         7809 
30930000   0.97425875   -3.2750611      1728000     5421.009       154650         7810 
30940000   0.98024814   -3.0571399      1728000    5422.7586       154700         7811 
30950000    1.0202346   -3.0916961      1728000    5424.5158       154750         7813 
30960000     0.976226   -3.0876952      1728000    5426.2517       154800         7814 
30970000   0.95692973   -3.0263921      1728000    5427.9937       154850         7815 
30980000    1.0068884   -3.1935542      1728000    5429.7468       154900         7816 
30990000   0.96463547   -3.1098305      1728000    5431.5058       154950         7817 
31000000   0.98815925   -3.1803026      1728000    5433.2637       155000         7820 
31010000    1.0556553   -3.1770773      1728000    5435.0267       155050         7822 
31020000    1.0175461    -3.202988      1728000    5436.7887       155100         7825 
31030000    1.0049872   -3.1816298      1728000    5438.5808       155150         7827 
31040000   0.94626853   -3.0285933      1728000    5440.3458       155200         7829 
31050000    1.0038056     -3.27843      1728000    5442.1097       155250         7830 
31060000   0.98202739   -3.2785807      1728000    5443.8827       155300         7832 
31070000   0.97349262   -3.2110335      1728000    5445.6488       155350         7834 
31080000   0.97310153   -3.1634393      1728000    5447.4198       155400         7836 
31090000    1.0569366   -3.2368255      1728000    5449.1766       155450         7837 
31100000    1.0514054   -3.1041105      1728000    5450.9418       155500         7840 
31110000    1.0118782   -3.1792437      1728000    5452.6967       155550         7841 
31120000   0.96916748   -3.1843756      1728000    5454.4686       155600         7842 
31130000   0.96810256   -3.1749664      1728000    5456.2329       155650         7845 
31140000   0.93171002   -3.1382247      1728000     5457.995       155700         7845 
31150000    1.0183633   -3.0347854      1728000    5459.7566       155750         7850 
31160000   0.99103929   -3.0023639      1728000    5461.5047       155800         7853 
31170000    1.0136149   -3.1315123      1728000    5463.2528       155850         7853 
31180000   0.98717179   -3.1736505      1728000    5464.9928       155900         7856 
31190000    1.0038549   -3.1417672      1728000    5466.7699       155950         7860 
31200000    1.0277133   -3.1607586      1728000    5468.5302       156000         7860 
31210000   0.97239842   -3.2407351      1728000     5470.272       156050         7862 
31220000     1.067587   -3.1239575      1728000    5472.0383       156100         7867 
31230000   0.96887176   -3.2786168      1728000    5473.8099       156150         7869 
31240000   0.96351837   -3.1355886      1728000    5475.5852       156200         7870 
31250000   0.94271223   -3.2660591      1728000    5477.3577       156250         7872 
31260000    1.0203083   -3.2066422      1728000    5479.1273       156300         7872 
31270000     1.038365   -3.2214708      1728000    5480.9015       156350         7874 
31280000   0.99067884   -3.2010215      1728000    5482.6786       156400         7878 
31290000   0.99867194    -3.296702      1728000     5484.453       156450         7879 
31300000    1.0268024   -3.2517009      1728000    5486.2276       156500         7880 
31310000    1.0090467   -3.0893134      1728000    5488.0031       156550         7881 
31320000    1.0430298   -3.3448667      1728000    5489.7865       156600         7883 
31330000    1.0367457   -3.3112118      1728000    5491.5716       156650         7885 
31340000    1.0688341   -3.2593456      1728000     5493.361       156700         7886 
31350000   0.97400112   -3.1565484      1728000    5495.1458       156750         7886 
31360000   0.98288513   -3.2160929      1728000    5496.9198       156800         7890 
31370000    1.0836292   -3.4373354      1728000    5498.7047       156850         7890 
31380000   0.95747363   -3.3386504      1728000    5500.4938       156900         7890 
31390000    1.0290018   -3.3445687      1728000    5502.2888       156950         7892 
31400000    1.0052493   -3.2622861      1728000    5504.0856       157000         7894 
31410000   0.98359071   -3.2887755      1728000    5505.8989       157050         7895 
31420000    1.0044092   -3.2207814      1728000    5507.6805       157100         7899 
31430000   0.97420791   -3.2505626      1728000    5509.4488       157150         7900 
31440000    1.0746264    -3.170962      1728000    5511.2193       157200         7901 
31450000   0.94852236   -3.2174002      1728000    5513.0059       157250         7902 
31460000    1.0147436   -3.0695142      1728000    5514.8038       157300         7904 
31470000   0.99094555   -3.1615254      1728000    5516.5829       157350         7905 
31480000    1.0134585   -3.2963975      1728000    5518.3678       157400         7907 
31490000   0.95342894   -3.1514074      1728000    5520.1348       157450         7910 
31500000    1.0039611    -3.183094      1728000    5521.9329       157500         7911 
31510000   0.96541114   -3.2540945      1728000    5523.7039       157550         7913 
31520000   0.97645758    -3.164142      1728000     5525.495       157600         7914 
31530000    1.0469858   -3.1577878      1728000    5527.2658       157650         7917 
31540000   0.99073916   -3.2927288      1728000    5529.0478       157700         7917 
31550000   0.99339589   -3.2899394      1728000    5530.8389       157750         7918 
31560000    0.9440743   -3.2909397      1728000    5532.6238       157800         7918 
31570000    1.0263188   -3.1434462      1728000     5534.412       157850         7923 
31580000   0.96000539   -3.1659508      1728000    5536.2128       157900         7923 
31590000   0.98551501   -3.2303256      1728000    5537.9938       157950         7924 
31600000   0.95338638   -3.2146451      1728000    5539.7739       158000         7925 
31610000   0.93664203   -3.3274414      1728000     5541.565       158050         7925 
31620000   0.97271362    -3.215237      1728000    5543.3515       158100         7927 
31630000    1.0062208   -3.3287205      1728000    5545.1208       158150         7927 
31640000    1.0233619   -3.2229701      1728000    5546.8944       158200         7932 
31650000    1.0252849   -3.2627092      1728000    5548.6835       158250         7933 
31660000   0.90905485   -3.2997519      1728000     5550.473       158300         7933 
31670000     1.049974   -3.2692464      1728000    5552.2579       158350         7935 
31680000    1.0765598   -3.2011961      1728000    5554.0544       158400         7936 
31690000     1.016755   -3.1513182      1728000    5555.8287       158450         7940 
31700000   0.98937497   -3.2598766      1728000    5557.6349       158500         7944 
31710000    1.0062401   -3.3388893      1728000     5559.414       158550         7947 
31720000     1.026116   -3.3147602      1728000     5561.219       158600         7947 
31730000    1.0486037   -3.3134689      1728000    5563.0009       158650         7947 
31740000   0.97449873   -3.2887603      1728000     5564.797       158700         7949 
31750000    1.0254218    -3.181115      1728000    5566.5928       158750         7949 
31760000   0.96032575   -3.2002278      1728000    5568.3698       158800         7950 
31770000    1.0515697    -3.248942      1728000    5570.1427       158850         7953 
31780000    1.0219524   -3.3069569      1728000      5571.94       158900         7954 
31790000    1.0082001   -3.2464447      1728000    5573.7547       158950         7955 
31800000     1.011449   -3.2975242      1728000    5575.5991       159000         7956 
31810000    1.0445336   -3.2974997      1728000    5577.3938       159050         7958 
31820000   0.97938164   -3.3390411      1728000     5579.209       159100         7961 
31830000   0.99076459   -3.2607369      1728000     5581.006       159150         7966 
31840000    1.0771706    -3.265216      1728000    5582.7891       159200         7966 
31850000     1.058848    -3.306889      1728000      5584.57       159250         7966 
31860000   0.99361553   -3.3111632      1728000    5586.3699       159300         7967 
31870000    1.0203056   -3.1720228      1728000    5588.1578       159350         7967 
31880000    0.9841951    -3.272324      1728000    5589.9459       159400         7967 
31890000    1.0100188   -3.4512363      1728000    5591.7418       159450         7970 
31900000   0.98678145   -3.4266075      1728000    5593.5547       159500         7971 
31910000    1.0303974   -3.2178164      1728000    5595.3759       159550         7971 
31920000   0.96084631   -3.3083877      1728000    5597.1638       159600         7972 
31930000   0.97060531   -3.1680489      1728000    5598.9807       159650         7973 
31940000    1.0667397   -3.2126986      1728000    5600.7518       159700         7974 
31950000   0.96456061   -3.2699147      1728000    5602.5218       159750         7975 
31960000   0.99986956   -3.2363339      1728000     5604.315       159800         7977 
31970000   0.99516469    -3.204549      1728000    5606.0908       159850         7978 
31980000   0.99999104   -3.2642263      1728000    5607.8691       159900         7980 
31990000   0.98982965   -3.3912478      1728000    5609.6523       159950         7980 
32000000   0.99654653   -3.3136382      1728000    5611.4725       160000         7982 
32010000    1.0177143   -3.4001131      1728000    5613.2474       160050         7983 
32020000    1.0287274   -3.2551673      1728000    5615.0448       160100         7984 
32030000    1.0271319   -3.2542208      1728000     5616.841       160150         7986 
32040000    1.0752765   -3.3285652      1728000    5618.6362       160200         7987 
32050000    1.0234901   -3.2996814      1728000    5620.4283       160250         7989 
32060000    1.0752961   -3.1485858      1728000    5622.2165       160300         7991 
32070000   0.95654795   -3.4252128      1728000    5623.9857       160350         7993 
32080000   0.99817634   -3.2510825      1728000    5625.8408       160400         7993 
32090000      1.00077   -3.3581842      1728000     5627.675       160450         7994 
32100000    1.0095777   -3.2381721      1728000     5629.593       160500         7994 
32110000    1.0656453   -3.2299882      1728000     5631.495       160550         7995 
32120000    1.0509571   -3.2711829      1728000    5633.3329       160600         7996 
32130000    0.9930823   -3.1965229      1728000    5635.1349       160650         7999 
32140000     1.009318   -3.2150177      1728000     5636.939       160700         8001 
32150000   0.98628746   -3.2677185      1728000    5638.7453       160750         8001 
32160000   0.99528227   -3.1952889      1728000    5640.5201       160800         8001 
32170000    1.0675499   -3.2539751      1728000    5642.2933       160850         8002 
32180000   0.94352495   -3.2437311      1728000    5644.0784       160900         8003 
32190000    1.0223217   -3.3386119      1728000    5645.8696       160950         8007 
32200000   0.92405947    -3.169131      1728000    5647.6748       161000         8007 
32210000    1.0819327   -3.1345684      1728000     5649.473       161050         8010 
32220000   0.99758191    -3.234014      1728000    5651.2565       161100         8012 
32230000   0.99674155   -3.0716623      1728000    5653.0309       161150         8015 
32240000     1.018696   -3.1715299      1728000    5654.7939       161200         8017 
32250000    1.0434979   -3.1397844      1728000    5656.6171       161250         8021 
32260000    1.0205704   -3.3331478      1728000    5658.3994       161300         8022 
32270000    1.0004543   -3.3180905      1728000    5660.1831       161350         8026 
32280000   0.97367077   -3.2126919      1728000    5661.9661       161400         8026 
32290000   0.99485828    -3.302755      1728000    5663.7457       161450         8029 
32300000   0.97595398     -3.27978      1728000    5665.5569       161500         8029 
32310000   0.99846578   -3.2803094      1728000    5667.3431       161550         8031 
32320000   0.99917496   -3.2403457      1728000    5669.1289       161600         8036 
32330000    1.0505918   -3.2430094      1728000     5670.915       161650         8036 
32340000   0.95205451   -3.4499892      1728000    5672.7121       161700         8037 
32350000    1.0072791   -3.2272138      1728000     5674.496       161750         8037 
32360000     1.043968   -3.3261218      1728000     5676.302       161800         8039 
32370000    1.0413181   -3.3214759      1728000     5678.083       161850         8039 
32380000   0.97746866   -3.1465826      1728000    5679.8619       161900         8044 
32390000   0.98307024   -3.2585341      1728000    5681.6388       161950         8044 
32400000   0.98824487   -3.3025399      1728000    5683.4298       162000         8047 
32410000    0.9539509   -3.3308436      1728000    5685.2183       162050         8050 
32420000   0.99027582   -3.3101531      1728000    5686.9989       162100         8051 
32430000   0.99302855   -3.3075348      1728000    5688.8053       162150         8052 
32440000    1.0398172   -3.2371763      1728000    5690.5965       162200         8053 
32450000    1.0643709   -3.1926579      1728000    5692.3829       162250         8055 
32460000    1.0097924   -3.3135767      1728000    5694.1551       162300         8055 
32470000    1.0414233   -3.3278453      1728000     5695.954       162350         8057 
32480000    1.0210722   -3.3789917      1728000    5697.7471       162400         8057 
32490000   0.98114889   -3.2839767      1728000    5699.5521       162450         8058 
32500000   0.98380808   -3.2521889      1728000     5701.337       162500         8059 
32510000   0.96890433    -3.238582      1728000    5703.1051       162550         8061 
32520000    1.0150364   -3.1893201      1728000     5704.889       162600         8065 
32530000    1.0269474   -3.2682186      1728000     5706.678       162650         8067 
32540000   0.98977551   -3.3257972      1728000    5708.4711       162700         8068 
32550000    1.0552583    -3.167091      1728000     5710.266       162750         8069 
32560000   0.94780345   -3.3677907      1728000    5712.0503       162800         8070 
32570000    0.9759882   -3.2686034      1728000     5713.847       162850         8071 
32580000    1.0539397   -3.1968159      1728000     5715.639       162900         8072 
32590000   0.89483275   -3.3113299      1728000     5717.415       162950         8073 
32600000    1.0326569   -3.2323032      1728000     5719.206       163000         8076 
32610000   0.97689355   -3.1730854      1728000    5720.9859       163050         8078 
32620000    0.9252973   -3.2227634      1728000    5722.7491       163100         8078 
32630000   0.96766516   -3.2651045      1728000     5724.509       163150         8082 
32640000   0.99643301   -3.2439865      1728000    5726.2835       163200         8083 
32650000   0.97468467    -3.304168      1728000    5728.0595       163250         8085 
32660000    1.0380698   -3.2847954      1728000    5729.8521       163300         8086 
32670000   0.97275249   -3.2639659      1728000    5731.6437       163350         8090 
32680000    1.0210023   -3.0846706      1728000     5733.412       163400         8093 
32690000    1.0527614   -3.1810797      1728000    5735.1989       163450         8095 
32700000    1.0327943   -3.1664172      1728000    5736.9893       163500         8095 
32710000   0.98812515   -3.2722859      1728000    5738.7895       163550         8098 
32720000   0.98290546   -3.1854764      1728000    5740.5569       163600         8099 
32730000   0.97242499     -3.23989      1728000    5742.3255       163650         8100 
32740000     1.028478   -3.1874635      1728000    5744.1542       163700         8101 
32750000    1.0166041   -3.2630342      1728000    5745.9685       163750         8101 
32760000   0.99733555   -3.2331381      1728000    5747.7364       163800         8104 
32770000   0.98087518   -3.1480001      1728000    5749.4966       163850         8107 
32780000    1.0339988   -3.2164995      1728000    5751.2883       163900         8108 
32790000    1.0762591   -3.1233499      1728000    5753.0487       163950         8110 
32800000     1.015234   -3.2160253      1728000     5754.809       164000         8110 
32810000   0.98828025   -3.1981971      1728000    5756.5801       164050         8113 
32820000    1.0464746   -3.2077727      1728000    5758.3758       164100         8116 
32830000   0.98174685   -3.2871306      1728000    5760.1686       164150         8116 
32840000   0.99207221   -3.2576481      1728000    5761.9614       164200         8117 
32850000   0.95010429   -3.1602055      1728000    5763.7351       164250         8118 
32860000   0.96150443   -3.2341682      1728000    5765.5141       164300         8121 
32870000   0.96042601   -3.2231647      1728000    5767.2844       164350         8122 
32880000    1.0166686   -3.1054341      1728000    5769.0502       164400         8123 
32890000   0.96978419    -3.110196      1728000    5770.8042       164450         8125 
32900000    1.0428092   -3.1231058      1728000     5772.563       164500         8125 
32910000   0.98467911   -3.0631314      1728000    5774.3268       164550         8126 
32920000   0.99702339   -3.0682294      1728000    5776.0931       164600         8130 
32930000    1.0352982   -3.1174816      1728000    5777.8655       164650         8131 
32940000    1.0125849   -3.1227417      1728000    5779.6356       164700         8132 
32950000    1.0135812   -3.1359077      1728000    5781.3971       164750         8132 
32960000    1.0065564   -2.9787077      1728000    5783.1371       164800         8135 
32970000    1.0681738   -3.1234183      1728000     5784.887       164850         8137 
32980000    1.1249803   -3.0852629      1728000    5786.6254       164900         8138 
32990000    1.0266249    -3.210634      1728000    5788.3755       164950         8141 
33000000    1.1273788   -3.2760349      1728000    5790.1559       165000         8141 
33010000    1.0310678   -3.2292294      1728000    5791.9579       165050         8142 
33020000   0.98880222   -3.1888029      1728000    5793.7329       165100         8144 
33030000   0.96381024   -3.2042641      1728000     5795.521       165150         8145 
33040000    1.0401438   -3.1956323      1728000    5797.2942       165200         8145 
33050000   0.98455799   -3.2017186      1728000    5799.0582       165250         8147 
33060000    1.0153515    -3.217938      1728000    5800.8211       165300         8150 
33070000    1.0011798    -3.251604      1728000    5802.6032       165350         8150 
33080000     1.063116   -3.1709541      1728000    5804.4162       165400         8154 
33090000    1.0237209   -3.1664007      1728000    5806.1782       165450         8156 
33100000   0.97368954   -3.2968279      1728000    5807.9771       165500         8159 
33110000   0.99663885   -3.3208797      1728000    5809.7408       165550         8160 
33120000   0.94198476   -3.2402006      1728000    5811.5121       165600         8162 
33130000   0.97744463   -3.2574984      1728000    5813.2895       165650         8167 
33140000   0.98958646   -3.1884232      1728000    5815.0458       165700         8171 
33150000   0.98519344   -3.1797749      1728000    5816.8231       165750         8172 
33160000    1.0084237   -3.2876223      1728000    5818.5911       165800         8174 
33170000   0.97710529   -3.2917395      1728000    5820.3721       165850         8174 
33180000    1.0077756   -3.2543026      1728000    5822.1662       165900         8175 
33190000    1.0090115   -3.2686584      1728000    5823.9562       165950         8175 
33200000      1.01175   -3.2325768      1728000    5825.7631       166000         8177 
33210000   0.95052992   -3.1731689      1728000    5827.5501       166050         8178 
33220000    1.0404328   -3.2414834      1728000     5829.329       166100         8179 
33230000    1.0087154    -3.201317      1728000    5831.1212       166150         8180 
33240000   0.95729411   -3.2902046      1728000    5832.9236       166200         8181 
33250000    1.0706211    -3.265431      1728000    5834.7348       166250         8184 
33260000       1.0199   -3.2671392      1728000    5836.5339       166300         8184 
33270000   0.99255755   -3.2017492      1728000    5838.3196       166350         8184 
33280000   0.95075399   -3.3346801      1728000    5840.1056       166400         8186 
33290000    1.0277602   -3.3535001      1728000     5841.899       166450         8186 
33300000    0.9900656   -3.1764396      1728000    5843.7172       166500         8189 
33310000   0.98610278   -3.2756631      1728000    5845.4981       166550         8189 
33320000     1.009243   -3.2826966      1728000    5847.3272       166600         8189 
33330000   0.97031234   -3.2830755      1728000    5849.1171       166650         8189 
33340000    1.0146383   -3.2608929      1728000    5850.9112       166700         8190 
33350000    1.0402943   -3.3512717      1728000    5852.6883       166750         8190 
33360000    1.0282183   -3.2803237      1728000    5854.4912       166800         8190 
33370000    1.0639188   -3.2190359      1728000    5856.3012       166850         8192 
33380000    1.0236579   -3.3014531      1728000    5858.0841       166900         8193 
33390000    1.0331686   -3.2140188      1728000    5859.8582       166950         8195 
33400000    1.0107188    -3.225037      1728000    5861.6712       167000         8197 
33410000   0.99901866   -3.3149894      1728000     5863.473       167050         8197 
33420000   0.96381536   -3.2793099      1728000     5865.251       167100         8200 
33430000    1.0259889   -3.3005913      1728000    5867.0352       167150         8201 
33440000    1.0642776   -3.1779815      1728000    5868.8162       167200         8202 
33450000    1.0079873   -3.2686989      1728000    5870.5902       167250         8205 
33460000   0.92512432   -3.3537428      1728000    5872.3862       167300         8206 
33470000    1.0398196   -3.3262691      1728000    5874.1881       167350         8207 
33480000   0.98607001   -3.1663713      1728000    5875.9952       167400         8208 
33490000   0.99667087   -3.0577787      1728000    5877.7776       167450         8211 
33500000    0.9599772   -3.2934126      1728000    5879.5593       167500         8212 
33510000    1.0190589   -3.0717931      1728000    5881.3336       167550         8213 
33520000   0.97434444   -3.1478045      1728000    5883.1073       167600         8213 
33530000    1.0047919   -3.0970708      1728000    5884.8683       167650         8215 
33540000    1.0602974   -3.2420282      1728000    5886.6392       167700         8217 
33550000    1.0152535    -3.325829      1728000    5888.4373       167750         8217 
33560000    1.0003307   -3.0741309      1728000    5890.2221       167800         8221 
33570000    1.0060436    -3.261608      1728000    5891.9909       167850         8223 
33580000    1.0446728   -3.2766623      1728000    5893.7912       167900         8224 
33590000   0.95542275   -3.2085486      1728000    5895.5834       167950         8225 
33600000    1.0305511   -3.1756692      1728000    5897.3902       168000         8225 
33610000   0.94230397   -3.2479364      1728000    5899.1931       168050         8226 
33620000    0.9774498   -3.2032576      1728000    5901.0196       168100         8227 
33630000   0.97780708    -3.274717      1728000    5902.8066       168150         8229 
33640000    1.0220845   -3.1575022      1728000    5904.6141       168200         8231 
33650000    1.0248527   -3.1680823      1728000    5906.3944       168250         8232 
33660000   0.98297584   -3.1084462      1728000    5908.1651       168300         8232 
33670000    1.0172412   -3.2679358      1728000    5909.9485       168350         8234 
33680000    0.9851587   -3.2938469      1728000    5911.7743       168400         8236 
33690000    1.0707768   -3.2621776      1728000    5913.5653       168450         8238 
33700000   0.95930515   -3.2360883      1728000    5915.3582       168500         8238 
33710000   0.94910917   -3.2634707      1728000    5917.1532       168550         8239 
33720000   0.96869906   -3.4393759      1728000    5918.9472       168600         8242 
33730000   0.99856307   -3.2518994      1728000    5920.7351       168650         8242 
33740000    1.0278821   -3.2514993      1728000    5922.5311       168700         8244 
33750000    0.9903113   -3.1526896      1728000    5924.3293       168750         8245 
33760000    1.0582472   -3.2008899      1728000    5926.1032       168800         8246 
33770000   0.97194634   -3.4553993      1728000    5927.9315       168850         8246 
33780000   0.93401229   -3.3651267      1728000    5929.7403       168900         8246 
33790000    1.0198456   -3.3716421      1728000    5931.5582       168950         8247 
33800000    1.0076821   -3.3468491      1728000    5933.3603       169000         8247 
33810000   0.95177812   -3.2259896      1728000    5935.1622       169050         8247 
33820000   0.97358935   -3.3634697      1728000    5936.9726       169100         8247 
33830000    1.0088612   -3.3450384      1728000    5938.7838       169150         8248 
33840000   0.99876372   -3.1638672      1728000    5940.5773       169200         8248 
33850000    1.0402727    -3.238344      1728000    5942.4002       169250         8250 
33860000   0.92294386    -3.266919      1728000    5944.1978       169300         8251 
33870000   0.96851277   -3.2168676      1728000    5946.0249       169350         8252 
33880000     1.025435   -3.3505077      1728000    5947.8381       169400         8253 
33890000   0.99198699   -3.3033836      1728000    5949.6561       169450         8254 
33900000   0.98726329   -3.2571402      1728000    5951.4874       169500         8255 
33910000   0.99618068   -3.2543639      1728000    5953.2783       169550         8257 
33920000    1.0380206   -3.2358272      1728000    5955.0642       169600         8258 
33930000   0.96952739   -3.1774571      1728000    5956.8483       169650         8259 
33940000   0.96612474   -3.2685903      1728000    5958.6261       169700         8259 
33950000   0.96784251   -3.2603666      1728000    5960.4061       169750         8260 
33960000     1.003593   -3.2072726      1728000    5962.1823       169800         8261 
33970000    1.0117469   -3.2701547      1728000    5963.9543       169850         8263 
33980000   0.99373752   -3.1902306      1728000    5965.7314       169900         8263 
33990000   0.98694313    -3.167838      1728000    5967.5053       169950         8264 
34000000   0.96873025   -3.3114134      1728000    5969.3062       170000         8267 
34010000   0.99399373   -3.1928887      1728000    5971.1034       170050         8268 
34020000    1.0234009   -3.1735568      1728000    5973.0148       170100         8268 
34030000   0.92709021   -3.2924596      1728000    5974.9076       170150         8270 
34040000    1.0281341   -3.2426217      1728000     5976.747       170200         8272 
34050000   0.99432067   -3.2775533      1728000    5978.5911       170250         8272 
34060000    1.0131047   -3.3033088      1728000    5980.4042       170300         8273 
34070000   0.97804494   -3.2635223      1728000    5982.1874       170350         8276 
34080000   0.95367939     -3.31069      1728000    5983.9812       170400         8278 
34090000   0.98141777   -3.3364028      1728000    5985.7757       170450         8280 
34100000   0.99235747    -3.420697      1728000    5987.5815       170500         8280 
34110000   0.93337328   -3.3251662      1728000    5989.4017       170550         8280 
34120000    1.0217872   -3.3809468      1728000    5991.1554       170600         8282 
34130000   0.96797314    -3.344478      1728000    5992.9083       170650         8284 
34140000   0.94841208   -3.3469578      1728000    5994.6602       170700         8285 
34150000    1.0263834   -3.2280714      1728000    5996.4064       170750         8290 
34160000   0.95007701   -3.3398253      1728000    5998.1534       170800         8292 
34170000   0.99689768   -3.2275526      1728000    5999.9096       170850         8294 
34180000   0.99424494    -3.243214      1728000    6001.6435       170900         8295 
34190000    1.0236634   -3.3449099      1728000    6003.3843       170950         8298 
34200000    1.0340253   -3.1666621      1728000    6005.1472       171000         8298 
34210000   0.99490665   -3.2397625      1728000    6006.9092       171050         8300 
34220000   0.94965939    -3.378216      1728000    6008.6663       171100         8302 
34230000   0.99262966   -3.3996578      1728000    6010.4212       171150         8304 
34240000    0.9338022   -3.3325946      1728000    6012.1779       171200         8305 
34250000    0.9433939   -3.2582734      1728000    6013.9426       171250         8306 
34260000     0.985164   -3.2982149      1728000     6015.712       171300         8307 
34270000   0.99926835   -3.2492053      1728000    6017.5035       171350         8309 
34280000    0.9727979   -3.3193374      1728000    6019.2625       171400         8310 
34290000    1.0219573   -3.3015856      1728000    6021.0156       171450         8310 
34300000    1.0211696   -3.1845057      1728000    6022.7793       171500         8313 
34310000   0.99464441   -3.1950709      1728000    6024.5122       171550         8315 
34320000    1.0318326   -3.2513895      1728000    6026.2454       171600         8316 
34330000   0.96098637    -3.291296      1728000    6027.9645       171650         8319 
34340000   0.96502481     -3.08456      1728000    6029.7012       171700         8320 
34350000   0.99328456   -3.2338017      1728000    6031.4367       171750         8321 
34360000    1.0132687   -3.2854912      1728000    6033.1715       171800         8323 
34370000   0.97385091   -3.2299463      1728000    6034.9094       171850         8324 
34380000    1.0077878   -3.3080564      1728000    6036.6243       171900         8327 
34390000    1.0498817   -3.2070111      1728000    6038.3792       171950         8327 
34400000   0.96406623     -3.20005      1728000    6040.1372       172000         8328 
34410000    1.0342009   -3.1883407      1728000    6041.8876       172050         8329 
34420000    1.0177271   -3.2582539      1728000    6043.6215       172100         8330 
34430000   0.98912453   -3.2678136      1728000    6045.3706       172150         8331 
34440000    1.0711857    -3.149386      1728000    6047.1064       172200         8332 
34450000    1.0593608   -3.2174796      1728000    6048.8373       172250         8334 
34460000   0.97164727   -3.1939237      1728000    6050.5593       172300         8336 
34470000   0.96549082   -3.1842264      1728000    6052.2803       172350         8340 
34480000    1.0395027   -3.2647212      1728000    6054.0093       172400         8342 
34490000   0.98072571   -3.2840337      1728000    6055.7404       172450         8345 
34500000   0.96113843   -3.2330564      1728000    6057.4701       172500         8345 
34510000   0.99712927    -3.145459      1728000    6059.1926       172550         8346 
34520000    1.0030097   -3.1982275      1728000    6060.9084       172600         8346 
34530000    1.0066573   -3.1177637      1728000    6062.6131       172650         8347 
34540000   0.97565001   -3.0735171      1728000    6064.3137       172700         8348 
34550000    0.9742047   -3.1478535      1728000    6066.0299       172750         8349 
34560000    1.0354817   -3.2459813      1728000     6067.739       172800         8351 
34570000   0.94066806   -3.1369013      1728000    6069.4554       172850         8353 
34580000     1.000776   -3.1575798      1728000    6071.1658       172900         8354 
34590000   0.96079498   -3.1858188      1728000    6072.8784       172950         8356 
34600000   0.97382998   -3.0235315      1728000    6074.6046       173000         8357 
34610000   0.95423825   -3.2537534      1728000    6076.3292       173050         8358 
34620000   0.99821685   -3.2498465      1728000    6078.0552       173100         8358 
34630000   0.94444479   -3.1800107      1728000    6079.7721       173150         8360 
34640000    1.0193343   -3.0785248      1728000    6081.4724       173200         8362 
34650000   0.99410745   -3.0804945      1728000    6083.1721       173250         8366 
34660000   0.96800572    -3.140334      1728000    6084.9863       173300         8370 
34670000    1.0103397   -3.1559516      1728000    6086.7905       173350         8374 
34680000   0.97803346   -3.2286134      1728000    6088.5986       173400         8375 
34690000     1.010653   -3.0803555      1728000    6090.5716       173450         8376 
34700000    0.9856602   -3.1340335      1728000    6092.4347       173500         8379 
34710000   0.98298198   -3.1850426      1728000    6094.2688       173550         8379 
34720000   0.98426762    -3.217412      1728000    6096.1429       173600         8382 
34730000   0.91014521   -3.2332903      1728000    6097.9631       173650         8382 
34740000    1.0462069   -3.2419029      1728000    6099.8196       173700         8387 
34750000    1.0092542   -3.2366782      1728000    6101.6957       173750         8389 
34760000    1.0174503   -3.1240497      1728000    6103.4908       173800         8389 
34770000   0.97689071   -3.1545127      1728000    6105.2731       173850         8390 
34780000    0.9798512   -3.2013283      1728000    6107.0679       173900         8391 
34790000   0.97990604   -3.3340906      1728000    6108.8747       173950         8391 
34800000    1.0115108   -3.1806116      1728000    6110.6627       174000         8393 
34810000    1.0325172   -3.2060133      1728000    6112.4727       174050         8395 
34820000    1.0134573   -3.1916262      1728000    6114.2645       174100         8396 
34830000    0.9822888   -3.2457086      1728000    6116.0598       174150         8399 
34840000    1.0741591   -3.2297767      1728000    6117.8433       174200         8401 
34850000   0.95969269   -3.1854423      1728000    6119.6595       174250         8404 
34860000    1.0144231   -3.2272303      1728000    6121.4387       174300         8408 
34870000   0.98336992   -3.1948525      1728000    6123.1974       174350         8408 
34880000   0.96761767   -3.1836177      1728000    6124.9586       174400         8408 
34890000    1.0331126   -3.1769929      1728000    6126.7528       174450         8411 
34900000    1.0114481   -3.3258209      1728000    6128.5659       174500         8411 
34910000   0.98912506   -3.2069409      1728000    6130.3557       174550         8412 
34920000   0.95462551   -3.1686822      1728000    6132.1397       174600         8412 
34930000    1.0239925    -3.148121      1728000    6133.9082       174650         8413 
34940000   0.96573803   -3.3404226      1728000    6135.7033       174700         8415 
34950000   0.96526865   -3.2671628      1728000    6137.4928       174750         8418 
34960000   0.93997605   -3.3489774      1728000    6139.2758       174800         8418 
34970000   0.95468042   -3.3282176      1728000    6141.0674       174850         8420 
34980000   0.94275298   -3.2340559      1728000    6142.8699       174900         8422 
34990000     1.066309   -3.2822753      1728000    6144.6624       174950         8424 
35000000   0.96572252   -3.2678773      1728000    6146.4506       175000         8425 
35010000    1.0724589   -3.2539248      1728000    6148.2307       175050         8428 
35020000    1.0020554   -3.2526935      1728000    6150.0119       175100         8430 
35030000   0.99417146   -3.2451371      1728000    6151.7826       175150         8431 
35040000    0.9698951   -3.2570068      1728000    6153.5699       175200         8435 
35050000    1.1003858   -3.2434916      1728000    6155.3707       175250         8437 
35060000    1.0572747   -3.2931371      1728000    6157.1355       175300         8440 
35070000   0.97608396   -3.0680278      1728000    6158.9076       175350         8441 
35080000    1.0050441   -3.2410414      1728000    6160.6867       175400         8442 
35090000    1.0248763   -3.1588321      1728000    6162.4699       175450         8443 
35100000   0.96444967   -3.2900912      1728000    6164.2703       175500         8443 
35110000   0.94373511   -3.2317999      1728000    6166.0345       175550         8445 
35120000   0.98606411   -3.2199461      1728000    6167.8164       175600         8447 
35130000   0.99229684   -3.1916407      1728000    6169.5733       175650         8449 
35140000     0.986954   -3.2288349      1728000    6171.3405       175700         8451 
35150000   0.98691576   -3.1177213      1728000     6173.116       175750         8454 
35160000    1.0043849   -3.2745109      1728000    6174.8978       175800         8456 
35170000   0.97220562   -3.2317396      1728000    6176.6859       175850         8458 
35180000    1.0587622   -3.2724565      1728000    6178.4698       175900         8460 
35190000    1.0204488   -3.1645957      1728000    6180.2632       175950         8462 
35200000    1.0323221   -3.2141684      1728000    6182.0365       176000         8465 
35210000    1.0220745   -3.3259004      1728000    6183.8395       176050         8466 
35220000   0.99524613   -3.1855414      1728000    6185.6362       176100         8466 
35230000    1.0049146   -3.2313989      1728000    6187.4233       176150         8466 
35240000   0.97593978   -3.1585522      1728000    6189.1971       176200         8469 
35250000    1.0146824   -3.1812883      1728000     6190.976       176250         8470 
35260000   0.97467278   -3.2274722      1728000    6192.7481       176300         8473 
35270000    1.0014091   -3.2854599      1728000    6194.5363       176350         8477 
35280000   0.97097179   -3.1778786      1728000    6196.3188       176400         8478 
35290000    0.9756116   -3.2048743      1728000    6198.0778       176450         8478 
35300000    1.0503139   -3.0835652      1728000     6199.859       176500         8479 
35310000   0.96930411   -3.0837866      1728000    6201.6269       176550         8481 
35320000     0.942882   -3.1764842      1728000    6203.3958       176600         8483 
35330000   0.97633762   -3.2776655      1728000    6205.1794       176650         8484 
35340000    1.0388709   -3.2094285      1728000    6206.9449       176700         8487 
35350000   0.98736769   -3.1539893      1728000    6208.7272       176750         8487 
35360000    1.0536912   -3.1974576      1728000    6210.4885       176800         8489 
35370000   0.93419525   -3.2144257      1728000    6212.2549       176850         8490 
35380000    1.0420699   -3.2345641      1728000    6214.0326       176900         8494 
35390000   0.92546536   -3.1351416      1728000    6215.7907       176950         8495 
35400000   0.97525959   -3.2473006      1728000      6217.56       177000         8495 
35410000    1.0138277   -3.3321901      1728000    6219.3158       177050         8498 
35420000    1.0025618   -3.1480312      1728000     6221.068       177100         8503 
35430000    1.0163248   -3.1128674      1728000    6222.8269       177150         8506 
35440000    1.0018717   -3.0959792      1728000    6224.5627       177200         8507 
35450000    1.0667982   -3.0953096      1728000    6226.3099       177250         8508 
35460000    1.0381087   -3.0687135      1728000    6228.0478       177300         8510 
35470000   0.95352636   -3.1213162      1728000    6229.8019       177350         8512 
35480000    1.0300619   -3.2252219      1728000    6231.5615       177400         8514 
35490000     0.956455   -3.1231655      1728000    6233.3306       177450         8514 
35500000   0.98053698   -3.1114347      1728000    6235.1155       177500         8514 
35510000   0.96310688   -3.1333795      1728000    6236.8695       177550         8515 
35520000   0.97496198   -3.2527482      1728000    6238.7968       177600         8518 
35530000   0.90546811   -3.2207896      1728000     6240.573       177650         8518 
35540000    1.0373588   -3.1511627      1728000    6242.3366       177700         8521 
35550000   0.98197768    -3.245521      1728000    6244.0818       177750         8522 
35560000    1.0068902   -3.1406136      1728000    6245.8476       177800         8522 
35570000   0.97970741   -3.2295516      1728000    6247.7986       177850         8523 
35580000     1.007117   -3.1810364      1728000    6249.5581       177900         8524 
35590000    1.0201194   -3.2287651      1728000    6251.3223       177950         8526 
35600000    1.0036236   -3.1481412      1728000    6253.0998       178000         8528 
35610000    1.0540161   -3.2888516      1728000    6254.8722       178050         8529 
35620000   0.97377404   -3.3066669      1728000    6256.6549       178100         8530 
35630000    1.0115091   -3.1891515      1728000    6258.4243       178150         8532 
35640000    1.0848735   -3.2591355      1728000    6260.2045       178200         8535 
35650000   0.96540755   -3.2404968      1728000    6261.9925       178250         8536 
35660000   0.94702803   -3.3011549      1728000    6263.7706       178300         8537 
35670000    1.0075218   -3.2498579      1728000    6265.5686       178350         8538 
35680000    1.0364234   -3.1405686      1728000    6267.3394       178400         8538 
35690000    1.0501284   -3.2607054      1728000    6269.1035       178450         8542 
35700000    1.1118973   -3.1619591      1728000    6270.8995       178500         8542 
35710000      1.06187   -3.3494991      1728000    6272.6545       178550         8542 
35720000   0.97416913    -3.072619      1728000    6274.4236       178600         8545 
35730000    1.0429405   -3.1721638      1728000    6276.1843       178650         8548 
35740000    1.0054433   -3.1466485      1728000    6277.9734       178700         8550 
35750000   0.99875335   -3.3750711      1728000    6279.7586       178750         8551 
35760000   0.96629504   -3.3394127      1728000    6281.5306       178800         8551 
35770000    1.0555574   -3.3901861      1728000    6283.3227       178850         8553 
35780000    1.0163795   -3.2803526      1728000     6285.111       178900         8553 
35790000    1.0215752   -3.2545435      1728000    6286.8822       178950         8553 
35800000   0.94585105   -3.2527142      1728000    6288.6767       179000         8554 
35810000    1.0390023   -3.1398601      1728000    6290.4506       179050         8554 
35820000   0.97775489   -3.1782272      1728000    6292.2156       179100         8557 
35830000    1.0640021   -3.1664842      1728000    6293.9845       179150         8557 
35840000   0.96790705   -3.3480944      1728000    6295.7697       179200         8560 
35850000     1.031284   -3.3061633      1728000    6297.5517       179250         8561 
35860000   0.96151508   -3.1475657      1728000    6299.3294       179300         8561 
35870000   0.98098592   -3.2906219      1728000    6301.1894       179350         8563 
35880000    1.0344467   -3.2251063      1728000    6302.9886       179400         8565 
35890000   0.97887736   -3.2178157      1728000    6304.7673       179450         8568 
35900000   0.99878334   -3.3333509      1728000    6306.5469       179500         8569 
35910000    1.0003048   -3.1633836      1728000    6308.3126       179550         8571 
35920000    1.0292448   -3.2857616      1728000    6310.1025       179600         8573 
35930000   0.97006711   -3.3691341      1728000    6311.8869       179650         8574 
35940000    1.0202677    -3.365517      1728000    6313.6587       179700         8575 
35950000   0.95135295   -3.1930805      1728000    6315.4466       179750         8575 
35960000   0.96589018   -3.2700132      1728000    6317.2368       179800         8575 
35970000   0.99556349   -3.2160425      1728000    6319.0225       179850         8576 
35980000    1.0096802   -3.3218196      1728000    6320.7938       179900         8580 
35990000    0.9544971    -3.070104      1728000    6322.5775       179950         8582 
36000000    1.0097499   -3.2772545      1728000    6324.4167       180000         8583 
36010000      0.97234   -3.3295741      1728000    6326.2587       180050         8584 
36020000    1.0435088   -3.1774738      1728000    6328.0562       180100         8584 
36030000    1.0066617   -3.2188811      1728000    6329.8804       180150         8587 
36040000    0.9656062   -3.2185183      1728000    6331.6844       180200         8588 
36050000    1.0526456   -3.1951879      1728000    6333.4806       180250         8589 
36060000   0.99041068   -3.1741057      1728000     6335.262       180300         8590 
36070000    1.0863925   -3.1329055      1728000    6337.0697       180350         8590 
36080000   0.98059701   -3.3007533      1728000    6338.8551       180400         8591 
36090000   0.96761237   -3.2315022      1728000    6340.6334       180450         8592 
36100000   0.96181388   -3.2752973      1728000    6342.4199       180500         8594 
36110000   0.97196008    -3.269472      1728000     6344.202       180550         8596 
36120000    1.0806323    -3.397471      1728000    6345.9794       180600         8597 
36130000   0.93986061   -3.3170306      1728000    6347.7676       180650         8598 
36140000   0.94319235   -3.3375274      1728000    6349.5498       180700         8599 
36150000   0.99507189    -3.279123      1728000    6351.3667       180750         8599 
36160000   0.99217049   -3.3288622      1728000    6353.1595       180800         8600 
36170000     1.025927   -3.3354143      1728000    6354.9537       180850         8603 
36180000    0.9723766   -3.3047134      1728000    6356.7304       180900         8604 
36190000    1.0166764   -3.1676836      1728000    6358.5068       180950         8605 
36200000    1.0400318   -3.3987253      1728000    6360.3015       181000         8606 
36210000   0.98011178   -3.3603495      1728000      6362.08       181050         8606 
36220000   0.99527523   -3.2994525      1728000    6363.8557       181100         8606 
36230000    1.0018676   -3.1782422      1728000     6365.643       181150         8606 
36240000    1.0451635   -3.1697929      1728000    6367.4047       181200         8608 
36250000    1.0043193    -3.211968      1728000    6369.1933       181250         8610 
36260000    1.0275328    -3.330813      1728000    6370.9948       181300         8610 
36270000    1.0663805   -3.2738067      1728000    6372.7756       181350         8610 
36280000    1.0353124   -3.2523877      1728000    6374.5759       181400         8611 
36290000   0.97409248   -3.2439944      1728000    6376.3667       181450         8613 
36300000   0.96134428   -3.3644132      1728000    6378.1698       181500         8614 
36310000   0.94925128   -3.2438556      1728000    6379.9396       181550         8615 
36320000    1.0119223   -3.3195817      1728000    6381.7493       181600         8616 
36330000    1.0882728   -3.1912486      1728000    6383.5216       181650         8618 
36340000    0.9758141   -3.2874986      1728000    6385.3004       181700         8622 
36350000   0.94370621   -3.2471256      1728000    6387.0867       181750         8622 
36360000    1.0029778   -3.2585771      1728000    6388.8522       181800         8624 
36370000     1.036014   -3.3607766      1728000    6390.6232       181850         8624 
36380000    1.0497628   -3.2180681      1728000       6392.4       181900         8627 
36390000    1.0106886   -3.4164539      1728000    6394.1788       181950         8628 
36400000   0.94497549   -3.2684612      1728000    6395.9676       182000         8629 
36410000    1.0497027   -3.2462047      1728000    6397.7402       182050         8632 
36420000    1.0597751   -3.2352639      1728000    6399.5317       182100         8635 
36430000   0.98724995   -3.2693017      1728000    6401.2985       182150         8638 
36440000   0.99699024   -3.2677485      1728000    6403.0724       182200         8640 
36450000   0.98547661   -3.2285198      1728000    6404.8418       182250         8641 
36460000   0.97114973   -3.2188863      1728000    6406.6208       182300         8641 
36470000    1.0154826   -3.2769213      1728000    6408.3891       182350         8643 
36480000    1.0486191   -3.2766792      1728000    6410.1665       182400         8644 
36490000   0.98760382   -3.2843244      1728000    6411.9588       182450         8646 
36500000   0.97527205   -3.2317733      1728000    6413.7538       182500         8648 
36510000   0.99914589    -3.313979      1728000    6415.5231       182550         8648 
36520000    1.0091134   -3.2956854      1728000    6417.2918       182600         8650 
36530000    0.9841901   -3.2471562      1728000    6419.0808       182650         8650 
36540000     1.061302    -3.244803      1728000     6420.842       182700         8651 
36550000   0.99809393   -3.2797156      1728000    6422.6151       182750         8653 
36560000     1.064737   -3.2371496      1728000    6424.3837       182800         8653 
36570000   0.94162095    -3.283441      1728000    6426.1463       182850         8654 
36580000   0.97691794   -3.2470355      1728000    6427.9083       182900         8656 
36590000    1.0853801   -3.2768772      1728000    6429.7059       182950         8656 
36600000    1.0452009   -3.2013049      1728000    6431.4967       183000         8658 
36610000    1.0345214   -3.3062019      1728000    6433.2796       183050         8659 
36620000    1.0120167   -3.2314444      1728000    6435.0397       183100         8659 
36630000     1.003957   -3.1780278      1728000    6436.7976       183150         8659 
36640000   0.98870473    -3.135819      1728000    6438.5603       183200         8659 
36650000   0.98412531   -3.3424858      1728000    6440.3233       183250         8660 
36660000    1.0292304   -3.1426812      1728000    6442.0942       183300         8662 
36670000    1.0242141    -3.316851      1728000    6443.8673       183350         8663 
36680000   0.99461643   -3.2586229      1728000    6445.6561       183400         8663 
36690000   0.99701691   -3.2400409      1728000    6447.4289       183450         8664 
36700000    0.9636323   -3.2291574      1728000    6449.2304       183500         8665 
36710000   0.94438782   -3.1436289      1728000    6451.0017       183550         8670 
36720000    1.0117224    -3.280133      1728000    6452.7841       183600         8671 
36730000   0.99199012   -3.3032496      1728000    6454.5538       183650         8674 
36740000    1.0167901   -3.1959903      1728000    6456.3101       183700         8678 
36750000    1.0115333   -3.1263709      1728000    6458.0673       183750         8682 
36760000    1.0263934   -3.2691293      1728000    6459.8554       183800         8684 
36770000    1.0252548   -3.2630971      1728000    6461.6283       183850         8686 
36780000   0.99523144   -3.2842443      1728000    6463.4178       183900         8689 
36790000   0.92256688   -3.2954467      1728000    6465.1903       183950         8692 
36800000   0.98825971   -3.3639353      1728000    6466.9864       184000         8696 
36810000    0.9808917   -3.2829821      1728000    6468.7669       184050         8696 
36820000    0.9441342   -3.3013638      1728000    6470.5636       184100         8698 
36830000   0.98777546   -3.0491059      1728000    6472.3272       184150         8700 
36840000   0.98379494   -3.1796041      1728000    6474.1033       184200         8700 
36850000   0.91579845   -3.3157937      1728000    6475.8761       184250         8700 
36860000   0.99624506   -3.3638558      1728000    6477.6685       184300         8700 
36870000    0.9491403   -3.3322171      1728000    6479.4549       184350         8701 
36880000    1.0192748   -3.2746285      1728000    6481.2563       184400         8702 
36890000    1.0796391    -3.282659      1728000    6483.0645       184450         8704 
36900000    1.0191057    -3.289212      1728000    6484.8527       184500         8705 
36910000    1.0129707     -3.27686      1728000    6486.6566       184550         8707 
36920000   0.99853778   -3.2999991      1728000    6488.4608       184600         8707 
36930000   0.94361265   -3.2983915      1728000    6490.2484       184650         8710 
36940000   0.97253154   -3.3911689      1728000    6492.0388       184700         8711 
36950000    1.0203539   -3.3553513      1728000    6493.8317       184750         8715 
36960000   0.93567562   -3.3969106      1728000    6495.6408       184800         8715 
36970000    1.0610277   -3.2039834      1728000    6497.4153       184850         8717 
36980000     1.013772   -3.3085723      1728000    6499.2036       184900         8717 
36990000    1.0471026   -3.2985279      1728000    6500.9961       184950         8718 
37000000   0.93481587    -3.258598      1728000     6502.797       185000         8721 
37010000   0.93774348   -3.2232189      1728000    6504.5663       185050         8721 
37020000   0.94396915   -3.2548277      1728000     6506.346       185100         8726 
37030000   0.93211509   -3.2105116      1728000    6508.1372       185150         8727 
37040000     1.013966   -3.2203578      1728000    6509.9187       185200         8729 
37050000    1.0146256   -3.2487873      1728000    6511.6904       185250         8729 
37060000    1.0111754   -3.3881655      1728000    6513.4823       185300         8732 
37070000    1.0417888   -3.2482804      1728000    6515.2773       185350         8734 
37080000    1.0579875   -3.1798903      1728000    6517.0688       185400         8735 
37090000   0.96063254   -3.2411546      1728000    6518.8311       185450         8738 
37100000   0.99482927   -3.2465457      1728000    6520.6247       185500         8740 
37110000   0.99233453   -3.3399792      1728000    6522.4014       185550         8741 
37120000   0.97614202   -3.3202777      1728000    6524.1894       185600         8745 
37130000    1.0221006   -3.3823819      1728000    6525.9773       185650         8746 
37140000    1.0615887   -3.3464652      1728000    6527.7718       185700         8746 
37150000    1.0004602   -3.1851608      1728000    6529.5466       185750         8747 
37160000    1.0236142   -3.2067315      1728000    6531.3392       185800         8749 
37170000   0.95079218   -3.1946672      1728000    6533.1057       185850         8752 
37180000   0.99319908    -3.292444      1728000    6534.8624       185900         8756 
37190000    1.0116382   -3.1782836      1728000    6536.6433       185950         8757 
37200000    1.0517704   -3.1425462      1728000    6538.4265       186000         8759 
37210000    1.0150771   -3.1862248      1728000     6540.197       186050         8759 
37220000    0.9952209   -3.2621482      1728000    6541.9683       186100         8761 
37230000    1.0109769    -3.249038      1728000    6543.7367       186150         8762 
37240000    1.0246293   -3.2186505      1728000    6545.5014       186200         8762 
37250000   0.96700654   -3.2813698      1728000    6547.2884       186250         8764 
37260000    1.0033364     -3.24631      1728000    6549.0477       186300         8765 
37270000   0.99508991    -3.193791      1728000    6550.8175       186350         8767 
37280000   0.97193656    -3.232093      1728000    6552.5924       186400         8768 
37290000   0.95122679   -3.1442216      1728000     6554.352       186450         8770 
37300000    1.0049988   -3.1645131      1728000    6556.1239       186500         8773 
37310000    1.0529775   -3.1900218      1728000    6557.8895       186550         8776 
37320000   0.98629091   -3.3013414      1728000    6559.6302       186600         8778 
37330000   0.98544825   -3.2107069      1728000    6561.4076       186650         8780 
37340000    1.0015811   -3.1531603      1728000    6563.1792       186700         8783 
37350000    0.9845262   -3.2398026      1728000    6564.9386       186750         8785 
37360000   0.99075886   -3.1963114      1728000    6566.7032       186800         8786 
37370000    1.0361679   -3.2129203      1728000    6568.4824       186850         8787 
37380000   0.97490272   -3.1558431      1728000    6570.2512       186900         8789 
37390000    1.0488864    -3.246255      1728000    6572.0094       186950         8790 
37400000   0.99624437   -3.1862428      1728000    6573.7866       187000         8794 
37410000    1.0231417   -3.2017579      1728000    6575.5568       187050         8795 
37420000     1.034708   -3.3214139      1728000    6577.3387       187100         8797 
37430000    1.0011405    -3.221267      1728000    6579.1175       187150         8799 
37440000    1.0058346   -3.2814885      1728000    6580.9127       187200         8800 
37450000   0.93351374   -3.2687546      1728000     6582.696       187250         8800 
37460000    1.0188274   -3.2465422      1728000    6584.4593       187300         8801 
37470000   0.95322044   -3.3222092      1728000    6586.2353       187350         8803 
37480000   0.99880836   -3.3982802      1728000    6588.0238       187400         8804 
37490000    1.0485651   -3.1721929      1728000    6589.7986       187450         8804 
37500000    0.9672905   -3.1625541      1728000    6591.5818       187500         8807 
37510000    1.0391984   -3.2735791      1728000    6593.3619       187550         8809 
37520000   0.92569984    -3.244318      1728000     6595.222       187600         8812 
37530000    1.0296845   -3.1986978      1728000    6597.0921       187650         8813 
37540000   0.98240816   -3.3034306      1728000    6598.8467       187700         8813 
37550000    1.0056271   -3.2684354      1728000     6600.622       187750         8813 
37560000    0.9288724   -3.2789014      1728000    6602.3926       187800         8816 
37570000   0.96591244   -3.2474685      1728000    6604.1382       187850         8816 
37580000   0.99925353   -3.1812676      1728000     6605.915       187900         8816 
37590000    1.0158385   -3.2435031      1728000    6607.6911       187950         8819 
37600000    1.0117719   -3.0779206      1728000    6609.4688       188000         8821 
37610000    1.0463984   -3.1439945      1728000    6611.2171       188050         8822 
37620000    1.1122417   -3.1623019      1728000    6612.9719       188100         8823 
37630000    1.0069374   -3.2874253      1728000    6614.7452       188150         8823 
37640000    1.0520351   -3.1099709      1728000     6616.548       188200         8823 
37650000   0.97811709   -3.1471379      1728000    6618.3671       188250         8825 
37660000    1.0313664   -3.1964834      1728000    6620.2102       188300         8826 
37670000     1.003992   -3.2415977      1728000    6622.0274       188350         8827 
37680000    1.0969445   -3.2285256      1728000    6623.8665       188400         8830 
37690000   0.96104942   -3.3593419      1728000    6625.6313       188450         8831 
37700000   0.98251742   -3.3201946      1728000    6627.4012       188500         8833 
37710000   0.97583338   -3.1966524      1728000    6629.2298       188550         8833 
37720000    1.0289631   -3.3207205      1728000    6631.0087       188600         8833 
37730000    1.0013494   -3.2174203      1728000    6632.7691       188650         8834 
37740000   0.99821147   -3.3574924      1728000    6634.5278       188700         8834 
37750000   0.99548127    -3.284586      1728000    6636.2957       188750         8834 
37760000    0.9685599   -3.2943861      1728000    6638.0279       188800         8836 
37770000    1.0267593   -3.1791756      1728000     6639.761       188850         8837 
37780000    0.9799576   -3.2289619      1728000     6641.509       188900         8839 
37790000    1.0340409   -3.2663416      1728000     6643.245       188950         8840 
37800000    1.0570188   -3.3000196      1728000    6644.9999       189000         8843 
37810000    1.0113834    -3.316555      1728000    6646.8029       189050         8844 
37820000    1.0463136   -3.2865562      1728000    6648.5758       189100         8845 
37830000     1.010784   -3.2980687      1728000    6650.3765       189150         8846 
37840000    1.0014163   -3.2349319      1728000     6652.163       189200         8848 
37850000    1.0195062   -3.3139677      1728000    6653.9206       189250         8849 
37860000   0.97739646   -3.2214896      1728000    6655.6888       189300         8849 
37870000    1.0073416   -3.2619447      1728000    6657.4541       189350         8850 
37880000    1.0194289   -3.3328808      1728000    6659.2261       189400         8850 
37890000    1.0506545   -3.2873958      1728000     6660.994       189450         8852 
37900000    1.0252162   -3.3504908      1728000    6662.7877       189500         8853 
37910000    1.0025833   -3.3492775      1728000     6664.587       189550         8854 
37920000    1.0397843   -3.2020874      1728000     6666.377       189600         8855 
37930000    1.0261559   -3.3591481      1728000    6668.1678       189650         8855 
37940000    1.0048824   -3.2712131      1728000     6669.943       189700         8855 
37950000    1.0455045   -3.3057168      1728000      6671.72       189750         8855 
37960000     1.032976    -3.490347      1728000    6673.4933       189800         8855 
37970000    0.9971572   -3.3138887      1728000    6675.2422       189850         8855 
37980000    1.0103946   -3.2292753      1728000     6677.034       189900         8855 
37990000    1.0555738   -3.3680852      1728000    6678.7942       189950         8855 
38000000    1.0643861   -3.2537105      1728000    6680.6047       190000         8856 
38010000   0.93799111   -3.3228438      1728000    6682.4108       190050         8857 
38020000    1.0123608   -3.3227513      1728000    6684.1743       190100         8858 
38030000    1.0043883   -3.2462069      1728000    6685.9718       190150         8858 
38040000   0.99951761   -3.2639899      1728000    6687.7509       190200         8858 
38050000    1.0678196   -3.1838001      1728000    6689.5038       190250         8863 
38060000    1.0492848   -3.2821412      1728000     6691.262       190300         8864 
38070000   0.94794549   -3.1800734      1728000    6693.0321       190350         8864 
38080000   0.92431863   -3.3520824      1728000    6694.8311       190400         8866 
38090000    1.0354477   -3.3365161      1728000    6696.6031       190450         8868 
38100000   0.99605535   -3.2932604      1728000    6698.3567       190500         8871 
38110000   0.99240376   -3.2196544      1728000    6700.1013       190550         8872 
38120000    1.0342363   -3.2802025      1728000    6701.9128       190600         8876 
38130000    1.0065393   -3.3651417      1728000    6703.7077       190650         8876 
38140000   0.98067738   -3.4377067      1728000    6705.4951       190700         8876 
38150000   0.97236458   -3.2509454      1728000    6707.2788       190750         8876 
38160000   0.98708624   -3.3323003      1728000    6709.1372       190800         8879 
38170000   0.95804253   -3.2914671      1728000    6710.9169       190850         8879 
38180000    1.0274123   -3.3465408      1728000    6712.7078       190900         8879 
38190000    1.0169838    -3.212193      1728000    6714.5178       190950         8879 
38200000   0.99014862   -3.3507216      1728000    6716.3354       191000         8879 
38210000   0.97341387   -3.3307938      1728000    6718.1401       191050         8882 
38220000   0.95620229   -3.3520643      1728000    6719.9149       191100         8883 
38230000   0.90309446   -3.2996222      1728000    6721.6707       191150         8886 
38240000    1.0268346   -3.3062894      1728000    6723.4201       191200         8888 
38250000   0.97426883   -3.3299662      1728000    6725.1831       191250         8888 
38260000    1.0147898   -3.1518563      1728000    6726.9571       191300         8889 
38270000    1.0303682   -3.2815173      1728000    6728.7108       191350         8889 
38280000    0.9941797   -3.3806177      1728000    6730.5029       191400         8889 
38290000    1.0024599   -3.2907862      1728000    6732.3257       191450         8889 
38300000    1.0128182   -3.2539223      1728000    6734.1063       191500         8890 
38310000    1.0177627   -3.2717358      1728000    6735.8847       191550         8891 
38320000     1.021053   -3.1594926      1728000     6737.635       191600         8892 
38330000   0.98977907   -3.1386844      1728000    6739.4012       191650         8892 
38340000    0.9542739   -3.3065002      1728000    6741.1531       191700         8894 
38350000    1.0138677   -3.1432963      1728000    6742.9009       191750         8894 
38360000   0.97429052   -3.1876412      1728000    6744.6757       191800         8894 
38370000   0.97508815   -3.3808222      1728000    6746.4899       191850         8895 
38380000   0.98564905   -3.1837106      1728000     6748.271       191900         8896 
38390000     1.042038   -3.1329551      1728000    6750.0899       191950         8897 
38400000     1.053828   -3.2364823      1728000    6751.8908       192000         8900 
38410000   0.97597022    -3.243646      1728000     6753.642       192050         8900 
38420000   0.99757334   -3.3168378      1728000    6755.4019       192100         8900 
38430000    1.0941554   -3.2698983      1728000    6757.1678       192150         8900 
38440000     1.050004   -3.0611864      1728000     6758.918       192200         8904 
38450000    1.0207579   -3.1921227      1728000    6760.6438       192250         8905 
38460000    1.0046471   -3.2640847      1728000     6762.393       192300         8907 
38470000    1.0283876   -3.2071189      1728000    6764.2059       192350         8907 
38480000   0.95847341   -3.2059143      1728000    6765.9911       192400         8907 
38490000    1.0320727   -3.1863784      1728000     6767.761       192450         8908 
38500000   0.96079698   -3.2513719      1728000    6769.5311       192500         8908 
38510000    1.0271044   -3.2247434      1728000    6771.2719       192550         8911 
38520000   0.97990476   -3.1514054      1728000    6773.0032       192600         8913 
38530000   0.97983232    -3.225847      1728000    6774.7581       192650         8915 
38540000    1.0315392   -3.2675125      1728000    6776.5245       192700         8916 
38550000    0.9683892   -3.2415726      1728000      6778.28       192750         8918 
38560000   0.98530317   -3.2379151      1728000     6780.012       192800         8920 
38570000    1.0407642   -3.2600526      1728000     6781.738       192850         8922 
38580000    1.0284075   -3.2634212      1728000    6783.4652       192900         8922 
38590000    1.0334363   -3.2808572      1728000    6785.2451       192950         8922 
38600000    1.0389227   -3.2229123      1728000    6787.0341       193000         8923 
38610000    1.0449918   -3.1947575      1728000    6788.7619       193050         8925 
38620000   0.99932156   -3.2469496      1728000    6790.5262       193100         8928 
38630000     1.023625   -3.3155356      1728000      6792.28       193150         8928 
38640000    1.0057766   -3.2541616      1728000    6794.0521       193200         8929 
38650000    0.9985994   -3.2862528      1728000    6795.8686       193250         8930 
38660000   0.96280887   -3.3179207      1728000    6797.7101       193300         8930 
38670000   0.99230137   -3.3026808      1728000    6799.5106       193350         8934 
38680000   0.98770372   -3.3612217      1728000    6801.3041       193400         8937 
38690000    1.0115059   -3.2080556      1728000    6803.1071       193450         8938 
38700000   0.96604063   -3.2123877      1728000    6804.8871       193500         8941 
38710000   0.96872865   -3.3831913      1728000    6806.6652       193550         8941 
38720000    1.0188592   -3.2050166      1728000    6808.4388       193600         8944 
38730000    1.0035217   -3.1828319      1728000    6810.1701       193650         8945 
38740000   0.96901029   -3.3065738      1728000     6811.921       193700         8947 
38750000    1.0132764   -3.3237601      1728000     6813.664       193750         8948 
38760000    1.0348261   -3.3621875      1728000    6815.4335       193800         8951 
38770000    0.9974602     -3.26209      1728000    6817.1829       193850         8952 
38780000    1.0114912   -3.1897402      1728000    6818.9262       193900         8954 
38790000   0.99398481   -3.3244023      1728000    6820.6751       193950         8957 
38800000    1.0451617   -3.3181645      1728000    6822.4352       194000         8958 
38810000    1.0009255   -3.3434732      1728000    6824.1961       194050         8958 
38820000    1.0158722   -3.3310411      1728000    6825.9742       194100         8960 
38830000   0.99419877   -3.2240723      1728000    6827.7222       194150         8962 
38840000   0.96114842   -3.2836243      1728000    6829.4807       194200         8962 
38850000    1.0370961   -3.2502336      1728000    6831.2222       194250         8963 
38860000    1.0251239   -3.2167946      1728000     6832.978       194300         8964 
38870000   0.98312279   -3.3037416      1728000    6834.7895       194350         8965 
38880000   0.99016222   -3.3382643      1728000    6836.5781       194400         8967 
38890000    1.0311085   -3.3733713      1728000    6838.3761       194450         8967 
38900000    1.0486082   -3.2807425      1728000    6840.1761       194500         8970 
38910000   0.98294806   -3.2635454      1728000    6841.9102       194550         8972 
38920000   0.95634691   -3.2255466      1728000     6843.696       194600         8972 
38930000    1.0652572   -3.2923249      1728000    6845.5242       194650         8974 
38940000   0.96994984   -3.2618894      1728000    6847.3076       194700         8975 
38950000    1.0225003   -3.3283656      1728000    6849.0883       194750         8978 
38960000   0.93729822   -3.2256367      1728000      6850.85       194800         8979 
38970000   0.99297409   -3.3657605      1728000    6852.6092       194850         8981 
38980000   0.98889356   -3.3491949      1728000    6854.3681       194900         8982 
38990000    1.0106151   -3.2741989      1728000     6856.148       194950         8984 
39000000   0.93946326   -3.2515449      1728000    6857.9172       195000         8987 
39010000   0.97364685   -3.3935257      1728000    6859.6911       195050         8987 
39020000    0.9261041   -3.1554504      1728000    6861.4468       195100         8990 
39030000    1.0013381     -3.20603      1728000    6863.1932       195150         8991 
39040000    1.0193792   -3.1861553      1728000    6864.9471       195200         8993 
39050000   0.96733952   -3.4030737      1728000    6866.6943       195250         8995 
39060000   0.98153621   -3.2645941      1728000    6868.4591       195300         8999 
39070000    0.9464483   -3.4141947      1728000    6870.1941       195350         9000 
39080000   0.96380919   -3.2840857      1728000    6871.9721       195400         9000 
39090000   0.96168301    -3.097269      1728000    6873.8103       195450         9000 
39100000    1.0347745   -3.3354724      1728000    6875.5742       195500         9000 
39110000   0.98309299   -3.2531726      1728000     6877.379       195550         9000 
39120000    0.9973714   -3.2907726      1728000    6879.1719       195600         9001 
39130000    1.0625546   -3.4265084      1728000    6880.9693       195650         9001 
39140000   0.94935674    -3.293904      1728000    6882.7162       195700         9003 
39150000    1.0217822   -3.2349518      1728000    6884.4742       195750         9003 
39160000    1.0623012   -3.2055209      1728000    6886.2476       195800         9004 
39170000   0.96825905   -3.3227109      1728000    6888.0182       195850         9005 
39180000   0.98312767   -3.2601011      1728000     6889.762       195900         9005 
39190000     1.041062   -3.3178725      1728000    6891.5601       195950         9005 
39200000    1.0410377   -3.3182591      1728000    6893.3542       196000         9006 
39210000    1.0310305   -3.3310342      1728000    6895.2248       196050         9006 
39220000    1.0344649   -3.3725122      1728000    6897.0192       196100         9006 
39230000    1.0071405   -3.2985971      1728000    6898.7813       196150         9008 
39240000    1.0220363   -3.1955947      1728000    6900.5293       196200         9008 
39250000   0.96542258   -3.2991478      1728000    6902.2703       196250         9009 
39260000    1.0673304   -3.2966877      1728000    6904.0182       196300         9010 
39270000   0.99688505   -3.2702496      1728000    6905.7535       196350         9012 
39280000    1.0080055   -3.3153859      1728000    6907.4823       196400         9014 
39290000    1.1036999   -3.2444109      1728000    6909.2163       196450         9015 
39300000    1.0094957    -3.214978      1728000    6910.9931       196500         9018 
39310000    1.0308614   -3.2502137      1728000    6912.8457       196550         9021 
39320000    1.0388039   -3.2466677      1728000    6914.6238       196600         9021 
39330000   0.96953385   -3.2830676      1728000     6916.373       196650         9022 
39340000    1.0039487   -3.2925087      1728000    6918.1752       196700         9024 
39350000    1.0303584   -3.3516415      1728000    6919.9266       196750         9024 
39360000   0.94229438   -3.1859262      1728000    6921.6803       196800         9026 
39370000   0.99814149   -3.2467356      1728000    6923.4695       196850         9027 
39380000    1.0195682    -3.158555      1728000    6925.4403       196900         9028 
39390000    1.0356408   -3.3823604      1728000    6927.2052       196950         9030 
39400000   0.98321395   -3.1429668      1728000    6928.9532       197000         9032 
39410000   0.95647017   -3.1668594      1728000     6930.738       197050         9032 
39420000    1.0145179   -3.2999439      1728000    6932.5612       197100         9035 
39430000    1.0522119   -3.2138605      1728000    6934.3121       197150         9037 
39440000    1.0323372   -3.1822635      1728000    6936.0492       197200         9041 
39450000   0.95481093   -3.1197148      1728000    6937.8773       197250         9043 
39460000   0.98862371   -3.1922509      1728000    6939.6824       197300         9045 
39470000   0.93926015   -3.2420428      1728000     6941.473       197350         9047 
39480000    1.0204727    -3.218035      1728000     6943.261       197400         9050 
39490000   0.98637933   -3.1361443      1728000    6945.0333       197450         9052 
39500000    1.0166425   -3.2243816      1728000    6946.7921       197500         9052 
39510000    1.0112653   -3.2739568      1728000    6948.5489       197550         9053 
39520000   0.97309432    -3.121706      1728000    6950.3232       197600         9055 
39530000    1.0250186   -3.1963038      1728000    6952.0946       197650         9056 
39540000    1.0362337   -3.1568243      1728000    6953.8433       197700         9058 
39550000   0.98445762   -3.2198544      1728000    6955.6011       197750         9061 
39560000     0.992987   -3.2617925      1728000    6957.3451       197800         9062 
39570000   0.99498064   -3.0463715      1728000    6959.1284       197850         9062 
39580000    1.0394766   -3.2496854      1728000    6960.8713       197900         9064 
39590000   0.92881303   -3.1527002      1728000    6962.6373       197950         9067 
39600000   0.93158236   -3.1733687      1728000    6964.4189       198000         9067 
39610000    0.8977914   -3.1481985      1728000    6966.1964       198050         9067 
39620000    1.0037129   -3.2435169      1728000    6967.9843       198100         9069 
39630000    1.0487829   -3.2021374      1728000    6969.7214       198150         9070 
39640000   0.94596769   -3.0962517      1728000    6971.4632       198200         9071 
39650000   0.97712467   -3.1305393      1728000    6973.2051       198250         9073 
39660000   0.95470979   -3.1076513      1728000    6974.9352       198300         9074 
39670000   0.96270911   -3.2374552      1728000    6976.6531       198350         9075 
39680000   0.98343951   -3.2919934      1728000    6978.3898       198400         9076 
39690000   0.99720298   -3.2914438      1728000    6980.1419       198450         9079 
39700000    1.0141869   -3.3233027      1728000    6981.9073       198500         9082 
39710000    1.0458412    -3.150734      1728000    6983.6459       198550         9082 
39720000   0.95343905   -3.2560844      1728000    6985.4008       198600         9085 
39730000    1.0992297   -3.0334086      1728000    6987.1462       198650         9086 
39740000    0.9961951   -3.2530223      1728000    6988.8708       198700         9088 
39750000   0.99091259   -3.3470482      1728000    6990.6172       198750         9088 
39760000   0.98768812   -3.2633579      1728000    6992.3503       198800         9090 
39770000    1.0242297   -3.2838607      1728000    6994.0773       198850         9091 
39780000    1.0260094   -3.4695347      1728000    6995.8123       198900         9092 
39790000   0.97939181   -3.2724466      1728000    6997.5491       198950         9092 
39800000    1.0374485   -3.2378361      1728000    6999.2973       199000         9092 
39810000   0.96436744   -3.1955897      1728000    7001.0303       199050         9094 
39820000    1.0190197   -3.1771899      1728000    7002.7794       199100         9094 
39830000   0.95181639   -3.2954927      1728000    7004.5791       199150         9096 
39840000   0.97358024   -3.2291915      1728000    7006.3669       199200         9098 
39850000    0.9839095   -3.2921527      1728000    7008.1371       199250         9099 
39860000   0.98214267   -3.1494723      1728000    7009.9384       199300         9100 
39870000    1.0184999   -3.1940545      1728000    7011.7349       199350         9101 
39880000     1.049285   -3.2805213      1728000    7013.5414       199400         9102 
39890000   0.94887156   -3.1448803      1728000    7015.2681       199450         9103 
39900000    1.0462563   -3.2148164      1728000    7017.0352       199500         9103 
39910000    1.0286166   -3.2673047      1728000    7019.1401       199550         9107 
39920000     1.032982   -3.3566073      1728000    7020.9105       199600         9107 
39930000    1.0310839   -3.2020114      1728000    7022.6813       199650         9108 
39940000   0.96935128   -3.3230194      1728000    7024.4779       199700         9108 
39950000    1.0105835   -3.2519576      1728000    7026.2573       199750         9109 
39960000   0.94433551   -3.1826853      1728000     7028.137       199800         9109 
39970000   0.97064614   -3.2103388      1728000    7029.9132       199850         9110 
39980000   0.96725148    -3.210813      1728000      7031.68       199900         9110 
39990000   0.96758269   -3.2767057      1728000     7033.475       199950         9112 
40000000   0.91510444   -3.2137922      1728000    7035.2622       200000         9114 
40010000    1.0335391   -3.3987239      1728000    7037.0584       200050         9115 
40020000   0.99677483   -3.3232483      1728000    7038.8261       200100         9117 
40030000   0.92925751   -3.0949543      1728000     7040.559       200150         9119 
40040000   0.99099269   -3.2584309      1728000    7042.3204       200200         9119 
40050000    1.0303746   -3.2543604      1728000    7044.0754       200250         9119 
40060000    1.0586519   -3.2957428      1728000    7045.8704       200300         9119 
40070000    1.0102287   -3.2535631      1728000    7047.5971       200350         9119 
40080000    1.0477965   -3.2012963      1728000    7049.3416       200400         9120 
40090000   0.94357412   -3.2683573      1728000    7051.0865       200450         9120 
40100000   0.99431228   -3.3314879      1728000    7052.8649       200500         9120 
40110000    1.0181223   -3.3735283      1728000    7054.6514       200550         9120 
40120000     1.044138   -3.3604055      1728000    7056.4675       200600         9121 
40130000   0.93412435    -3.255708      1728000    7058.2987       200650         9121 
40140000   0.97013571   -3.3725285      1728000    7060.0961       200700         9123 
40150000   0.90814516   -3.3127067      1728000    7061.8844       200750         9124 
40160000    1.0487518   -3.1576091      1728000    7063.6768       200800         9125 
40170000    1.0286675     -3.23799      1728000    7065.4922       200850         9126 
40180000    1.0642394   -3.2187306      1728000    7067.2337       200900         9128 
40190000    1.0419241   -3.3155457      1728000    7068.9845       200950         9130 
40200000    1.0094079   -3.3193384      1728000    7070.7685       201000         9132 
40210000   0.97374179   -3.2865856      1728000    7072.5415       201050         9135 
40220000   0.93003514   -3.1579015      1728000    7074.4028       201100         9136 
40230000   0.99357776   -3.3653339      1728000    7076.3393       201150         9137 
40240000    1.0396678   -3.2761445      1728000    7078.1583       201200         9140 
40250000    1.0129554   -3.3789504      1728000    7079.9013       201250         9143 
40260000    1.0237345   -3.2792209      1728000    7081.7354       201300         9144 
40270000   0.99292981   -3.3694875      1728000     7083.515       201350         9144 
40280000   0.96411059   -3.1515218      1728000    7085.3063       201400         9149 
40290000   0.97172049   -3.3275092      1728000    7087.1172       201450         9150 
40300000   0.94509493   -3.2864719      1728000    7088.9134       201500         9151 
40310000   0.96354356   -3.3265641      1728000    7090.7056       201550         9153 
40320000    1.0240774   -3.3172473      1728000    7092.5097       201600         9154 
40330000   0.96016442    -3.296091      1728000    7094.2674       201650         9154 
40340000   0.98957937   -3.1249458      1728000    7096.0565       201700         9155 
40350000   0.99179354   -3.1894239      1728000    7097.8572       201750         9157 
40360000      1.02089    -3.275952      1728000    7099.6534       201800         9161 
40370000   0.99352649   -3.2757022      1728000    7101.4063       201850         9162 
40380000    1.0146459   -3.3775561      1728000     7103.156       201900         9165 
40390000   0.93889806   -3.2568796      1728000    7104.9245       201950         9165 
40400000   0.90195202   -3.1739222      1728000    7106.7115       202000         9165 
40410000    1.0461097   -3.1976029      1728000    7108.4873       202050         9168 
40420000    1.0073436   -3.2901275      1728000    7110.3904       202100         9171 
40430000   0.97489192   -3.3423653      1728000    7112.1591       202150         9171 
40440000    0.9507015   -3.2521684      1728000    7113.9078       202200         9173 
40450000   0.97347811   -3.2196909      1728000    7115.6693       202250         9175 
40460000   0.96019691   -3.2206326      1728000    7117.3935       202300         9176 
40470000    1.0054888   -3.3274492      1728000    7119.1715       202350         9177 
40480000   0.96073535    -3.323074      1728000    7120.9572       202400         9178 
40490000    1.0285472   -3.1717792      1728000    7122.7424       202450         9178 
40500000   0.96504872   -3.1118214      1728000    7124.5196       202500         9178 
40510000    1.0196581   -3.1251292      1728000    7126.2844       202550         9181 
40520000   0.98708022   -3.1183366      1728000    7128.0423       202600         9183 
40530000    1.0358155   -3.2033258      1728000    7129.8151       202650         9184 
40540000   0.97744513   -3.3663901      1728000    7131.5846       202700         9186 
40550000   0.95526571   -3.2878591      1728000    7133.3743       202750         9186 
40560000   0.98349587   -3.2924759      1728000    7135.1567       202800         9187 
40570000    1.0179513    -3.341766      1728000      7136.95       202850         9188 
40580000   0.99674174    -3.318876      1728000    7138.8195       202900         9188 
40590000    1.0859211   -3.2873302      1728000    7140.6133       202950         9189 
40600000   0.99510331   -3.3352484      1728000    7142.3844       203000         9190 
40610000   0.94061129   -3.3162029      1728000    7144.1559       203050         9190 
40620000    1.0227619   -3.2722602      1728000    7146.0291       203100         9193 
40630000    1.0239365    -3.197853      1728000    7147.8724       203150         9193 
40640000   0.95613152   -3.1997261      1728000    7149.7216       203200         9194 
40650000    1.0449298   -3.2076444      1728000    7151.4658       203250         9196 
40660000   0.97031292   -3.2480727      1728000    7153.2495       203300         9198 
40670000     0.952447   -3.4118786      1728000    7155.0276       203350         9202 
40680000   0.93750812   -3.2643052      1728000    7156.7776       203400         9202 
40690000     1.010127   -3.2650877      1728000    7158.5124       203450         9205 
40700000   0.98248533   -3.1306279      1728000    7160.2556       203500         9206 
40710000    1.0406954   -3.3485024      1728000    7161.9983       203550         9208 
40720000    1.0367279   -3.2177226      1728000    7163.7364       203600         9209 
40730000   0.98476412   -3.2730859      1728000    7165.4944       203650         9212 
40740000    1.0082212   -3.2220278      1728000    7167.2286       203700         9213 
40750000   0.98831855   -3.3106764      1728000    7168.9626       203750         9214 
40760000    1.0088872   -3.2910237      1728000    7170.7104       203800         9216 
40770000    1.0055809   -3.2554872      1728000    7172.4355       203850         9217 
40780000    1.0392658   -3.1626579      1728000    7174.1642       203900         9219 
40790000    1.0461226   -3.2002641      1728000    7175.8776       203950         9221 
40800000   0.98233911   -3.2368711      1728000    7177.6256       204000         9223 
40810000    1.0297748    -3.232289      1728000    7179.3644       204050         9224 
40820000   0.98317571   -3.1772206      1728000    7181.0933       204100         9227 
40830000    1.0045013    -3.159754      1728000    7182.8415       204150         9230 
40840000   0.91388823   -3.0769806      1728000    7184.5906       204200         9231 
40850000    1.0282187   -3.1847675      1728000    7186.3154       204250         9232 
40860000   0.94844343   -3.1990469      1728000    7188.0407       204300         9233 
40870000    1.0425997   -3.2647236      1728000    7189.7716       204350         9234 
40880000    1.0363331    -3.105837      1728000    7191.4904       204400         9236 
40890000    0.9383814   -3.1417836      1728000    7193.2591       204450         9237 
40900000    1.0307167   -2.8634303      1728000    7194.9943       204500         9239 
40910000    0.9821214   -3.2360721      1728000    7196.7164       204550         9239 
40920000    1.0406643   -3.1004235      1728000    7198.4725       204600         9242 
40930000   0.96378692   -3.0999266      1728000    7200.1916       204650         9247 
40940000    1.0311454   -3.1403388      1728000    7201.9468       204700         9251 
40950000   0.99917415   -3.0636275      1728000     7203.707       204750         9254 
40960000    1.0595562   -3.0735655      1728000     7205.423       204800         9255 
40970000    1.0310174   -3.1035709      1728000    7207.1526       204850         9258 
40980000    1.0351735   -3.1748593      1728000    7208.9298       204900         9264 
40990000    1.0044901   -3.1266169      1728000    7210.6865       204950         9265 
41000000   0.98557704    -3.157191      1728000    7212.4747       205000         9269 
41010000   0.97467702   -3.1478564      1728000    7214.2804       205050         9271 
41020000   0.98846581    -3.145909      1728000    7216.0465       205100         9272 
41030000    1.0372949   -3.3043006      1728000    7217.7961       205150         9274 
41040000    1.0414545   -3.1600538      1728000    7219.5221       205200         9274 
41050000   0.99309785   -3.1404966      1728000    7221.3712       205250         9276 
41060000   0.97374404    -3.144647      1728000    7223.1844       205300         9280 
41070000     1.029255   -3.0948242      1728000    7224.9935       205350         9283 
41080000    1.0525479   -2.9736733      1728000    7226.7605       205400         9287 
41090000    1.0567358   -3.2227715      1728000    7228.5848       205450         9290 
41100000   0.93818581   -3.2383889      1728000    7230.3915       205500         9294 
41110000    1.0168138    -3.153997      1728000    7232.1885       205550         9295 
41120000    1.0161385   -3.0645282      1728000    7233.9369       205600         9298 
41130000    1.0202053   -3.2013126      1728000    7235.6767       205650         9300 
41140000   0.99064475   -3.2047489      1728000     7237.437       205700         9301 
41150000   0.99679644   -3.2717197      1728000    7239.1761       205750         9302 
41160000    1.0287715   -3.3379491      1728000    7240.9312       205800         9303 
41170000    1.1061031    -3.264551      1728000    7242.6666       205850         9304 
41180000    1.0265863   -3.3045518      1728000    7244.4214       205900         9304 
41190000    1.0330294   -3.4427814      1728000    7246.1887       205950         9305 
41200000    1.0277198   -3.3682352      1728000    7248.0069       206000         9306 
41210000    1.0195697   -3.2053881      1728000    7249.7827       206050         9306 
41220000   0.96784357   -3.3640954      1728000    7251.5736       206100         9307 
41230000   0.97842952   -3.4399249      1728000    7253.3546       206150         9308 
41240000    1.0598362   -3.3864983      1728000    7255.1387       206200         9308 
41250000   0.96761407   -3.3183255      1728000    7256.9116       206250         9310 
41260000    1.0494753     -3.27673      1728000    7258.7216       206300         9312 
41270000   0.99630052   -3.3012416      1728000    7260.5066       206350         9312 
41280000    1.0028108   -3.1959938      1728000    7262.2836       206400         9314 
41290000    1.0315437   -3.3758181      1728000    7264.0307       206450         9317 
41300000   0.93286948   -3.2936702      1728000    7265.8255       206500         9318 
41310000   0.97045117    -3.117028      1728000    7267.5975       206550         9318 
41320000    1.0032795   -3.3579648      1728000    7269.3554       206600         9319 
41330000    1.0022981   -3.2875024      1728000     7271.122       206650         9321 
41340000   0.96335693   -3.2224351      1728000    7272.8534       206700         9322 
41350000   0.97141503   -3.2362709      1728000    7274.5908       206750         9325 
41360000    1.0222163    -3.238873      1728000    7276.3444       206800         9327 
41370000    1.0569714   -3.3178559      1728000    7278.0959       206850         9328 
41380000    1.0334708   -3.4272295      1728000    7279.8442       206900         9330 
41390000    1.0187604   -3.1938561      1728000     7281.607       206950         9331 
41400000    1.0101056   -3.2481275      1728000    7283.3758       207000         9332 
41410000    1.0317558   -3.2711356      1728000    7285.1263       207050         9334 
41420000    1.0205035   -3.2170736      1728000    7286.9717       207100         9336 
41430000    1.0249572   -3.3518864      1728000    7288.7087       207150         9336 
41440000   0.98528362   -3.1889702      1728000    7290.4305       207200         9338 
41450000   0.99823288    -3.137901      1728000    7292.1486       207250         9339 
41460000   0.96062224   -3.2338135      1728000    7293.8587       207300         9340 
41470000    1.0094636   -3.3317359      1728000    7295.6674       207350         9342 
41480000    1.0309752   -3.3222178      1728000    7297.4506       207400         9346 
41490000   0.98753562   -3.2806573      1728000    7299.2447       207450         9348 
41500000   0.95952475   -3.1537168      1728000    7301.0257       207500         9351 
41510000   0.97886897   -3.2296302      1728000    7302.8087       207550         9351 
41520000   0.97877277     -3.20779      1728000    7304.5627       207600         9352 
41530000   0.99967379    -3.159972      1728000    7306.2945       207650         9353 
41540000   0.99409939   -3.1147693      1728000    7308.0522       207700         9355 
41550000    0.9481704   -3.2164535      1728000    7309.7995       207750         9357 
41560000    1.0464866   -3.0334107      1728000     7311.581       207800         9358 
41570000   0.99138712   -3.1366868      1728000     7313.505       207850         9360 
41580000   0.97155337   -3.0342298      1728000    7315.6525       207900         9362 
41590000    1.0068617   -3.2276972      1728000    7317.4567       207950         9362 
41600000    0.9269604   -3.0949075      1728000    7319.2323       208000         9364 
41610000    1.0946458   -3.1562319      1728000    7321.0705       208050         9365 
41620000    1.0344347   -3.1462102      1728000    7322.9199       208100         9369 
41630000    1.0273976   -3.0949926      1728000    7324.7405       208150         9370 
41640000    1.0038694   -3.1483223      1728000     7326.621       208200         9373 
41650000   0.99502147   -3.0864358      1728000    7328.3932       208250         9374 
41660000   0.91937288   -3.0902601      1728000    7330.1994       208300         9375 
41670000   0.97320623    -3.182649      1728000    7332.1064       208350         9376 
41680000    1.0449946   -3.0832051      1728000    7334.1823       208400         9378 
41690000     0.957242    -3.191153      1728000    7336.1714       208450         9380 
41700000    1.0578068    -3.240289      1728000    7338.0986       208500         9383 
41710000   0.95677128   -3.0790213      1728000    7339.9351       208550         9383 
41720000    1.0767501   -3.1999174      1728000    7341.7216       208600         9384 
41730000   0.98272632   -3.3913106      1728000    7343.5277       208650         9385 
41740000   0.97316066   -3.1055866      1728000    7345.3135       208700         9388 
41750000    1.0117382    -3.120903      1728000    7347.0745       208750         9388 
41760000    1.0357524   -3.1296222      1728000    7348.9184       208800         9388 
41770000    1.0302895   -3.1644806      1728000    7350.6858       208850         9391 
41780000   0.96878342    -3.262245      1728000    7352.5043       208900         9392 
41790000    1.0192182   -3.1612784      1728000     7354.309       208950         9395 
41800000    1.0308695   -3.2643633      1728000    7356.1437       209000         9397 
41810000   0.97910987    -3.209339      1728000     7357.921       209050         9399 
41820000     1.003193   -3.2361464      1728000    7359.7106       209100         9399 
41830000   0.96480058    -3.299822      1728000    7361.5483       209150         9402 
41840000   0.98613483   -3.3022022      1728000    7363.3646       209200         9402 
41850000    1.0306298   -3.3485019      1728000    7365.3079       209250         9404 
41860000   0.99810198    -3.483563      1728000     7367.191       209300         9404 
41870000   0.98192999   -3.2411598      1728000    7369.0871       209350         9408 
41880000    0.9639944   -3.2876009      1728000    7370.9862       209400         9412 
41890000    1.0343138   -3.0811767      1728000    7372.7867       209450         9412 
41900000    1.0159129   -3.2735338      1728000    7374.5778       209500         9412 
41910000    1.0559059   -3.2425847      1728000    7376.3388       209550         9414 
41920000   0.98460845   -3.3021911      1728000    7378.1348       209600         9415 
41930000   0.95070364   -3.0653306      1728000    7379.9196       209650         9419 
41940000   0.95634819   -3.1747927      1728000    7381.7228       209700         9422 
41950000    1.0035455    -3.238763      1728000    7383.5605       209750         9423 
41960000    0.9896933   -3.1538589      1728000    7385.3018       209800         9426 
41970000   0.94344198   -3.2841007      1728000    7387.0966       209850         9429 
41980000   0.95814833   -3.3201378      1728000    7388.9009       209900         9430 
41990000   0.91427178   -3.2112654      1728000    7390.7167       209950         9432 
42000000   0.98600801   -3.1252606      1728000    7392.5826       210000         9432 
42010000   0.99685936   -3.2497296      1728000    7394.3958       210050         9434 
42020000    1.0104304   -3.1539497      1728000    7396.2338       210100         9436 
42030000   0.95381131   -3.0308961      1728000    7397.9648       210150         9440 
42040000    1.0138749   -3.1267128      1728000    7399.7119       210200         9442 
42050000    0.9545688   -3.1885028      1728000    7401.5007       210250         9442 
42060000   0.96578293   -3.1629803      1728000    7403.6788       210300         9447 
42070000   0.89209802   -3.1898519      1728000    7405.5162       210350         9451 
42080000    1.0787319   -3.1264379      1728000    7407.3833       210400         9454 
42090000     0.957294   -3.0729046      1728000    7409.2539       210450         9457 
42100000    1.0331786   -3.1273817      1728000    7411.1251       210500         9459 
42110000    1.0209798    -3.219739      1728000    7412.9371       210550         9460 
42120000    1.0003642   -3.1925559      1728000    7414.6743       210600         9463 
42130000    0.9277758   -3.4165426      1728000    7416.4098       210650         9464 
42140000   0.97117524   -3.2569572      1728000    7418.1678       210700         9465 
42150000    1.0012522   -3.2294946      1728000    7419.9521       210750         9466 
42160000    1.0231384   -3.2057584      1728000    7421.8262       210800         9468 
42170000    0.9752975   -3.1913908      1728000    7423.5561       210850         9469 
42180000   0.96986628   -3.1852165      1728000    7425.3558       210900         9471 
42190000   0.89095308   -3.1875382      1728000     7427.124       210950         9472 
42200000   0.97833649   -3.2457462      1728000    7428.9165       211000         9474 
42210000   0.98023647   -3.2917316      1728000    7430.7428       211050         9477 
42220000   0.98440034   -3.2191558      1728000    7432.5109       211100         9478 
42230000    1.0268247     -3.16761      1728000    7434.3558       211150         9478 
42240000     1.020175   -3.3178328      1728000    7436.1598       211200         9478 
42250000    1.0323038   -3.2270977      1728000      7437.96       211250         9480 
42260000    0.9666488   -3.2685678      1728000    7439.7506       211300         9483 
42270000     1.031823   -3.2714444      1728000    7441.5224       211350         9485 
42280000     1.004383   -3.2726314      1728000    7443.3617       211400         9486 
42290000   0.97938336   -3.2399062      1728000    7445.1762       211450         9487 
42300000    1.0102064   -3.3125193      1728000    7446.9896       211500         9491 
42310000    1.0035859   -3.2136084      1728000    7448.7648       211550         9494 
42320000    1.0421664     -3.17279      1728000    7450.5349       211600         9496 
42330000    1.0805794   -3.3460297      1728000    7452.3269       211650         9498 
42340000    1.0289916   -3.1614484      1728000    7454.0677       211700         9501 
42350000    1.0149447    -3.353714      1728000    7455.8419       211750         9502 
42360000   0.94646298   -3.2213485      1728000    7457.6368       211800         9504 
42370000   0.97158874   -3.2024986      1728000    7459.4026       211850         9506 
42380000    1.0119116   -3.2268765      1728000    7461.2317       211900         9508 
42390000    1.0078962   -3.2170446      1728000    7462.9918       211950         9510 
42400000    1.0059506   -3.2425986      1728000    7464.7528       212000         9511 
42410000   0.99734991   -3.1715149      1728000    7466.5079       212050         9514 
42420000    0.9503549   -3.3561162      1728000    7468.2376       212100         9516 
42430000   0.94843306    -3.264728      1728000    7470.0059       212150         9517 
42440000   0.94501086   -3.2224734      1728000    7471.7567       212200         9518 
42450000   0.98500652   -3.4301038      1728000     7473.521       212250         9520 
42460000    1.0588895   -3.1866653      1728000    7475.2847       212300         9521 
42470000    1.0017335   -3.2273377      1728000    7477.0717       212350         9521 
42480000    1.0480266   -3.2858853      1728000    7478.8366       212400         9523 
42490000    1.0205158   -3.2455421      1728000    7480.6035       212450         9524 
42500000   0.98129459   -3.3354873      1728000    7482.3375       212500         9527 
42510000    1.0648666   -3.3252382      1728000    7484.0911       212550         9528 
42520000    1.0545723   -3.3292046      1728000    7485.8913       212600         9530 
42530000   0.99062235    -3.310578      1728000    7487.6428       212650         9531 
42540000    1.0145987   -3.3605174      1728000     7489.413       212700         9533 
42550000   0.93994358   -3.3003243      1728000      7491.17       212750         9533 
42560000   0.95695546   -3.2665755      1728000    7492.9349       212800         9534 
42570000   0.92135473   -3.2703635      1728000    7494.7507       212850         9535 
42580000   0.97834464   -3.2406571      1728000    7496.5318       212900         9536 
42590000   0.89067676   -3.1829584      1728000    7498.3165       212950         9539 
42600000    1.0120978   -3.2395742      1728000     7500.133       213000         9541 
42610000   0.98155385   -3.1705128      1728000    7501.9108       213050         9541 
42620000   0.95100529    -3.265343      1728000    7503.6796       213100         9543 
42630000   0.98747257   -3.1986791      1728000    7505.4262       213150         9544 
42640000   0.97737432   -3.0065203      1728000    7507.1671       213200         9545 
42650000   0.98049048    -3.253139      1728000    7508.9101       213250         9547 
42660000   0.93591089   -3.3045358      1728000    7510.7305       213300         9549 
42670000   0.96772364   -3.1894792      1728000    7512.4842       213350         9551 
42680000   0.95340167   -3.2164707      1728000    7514.2481       213400         9554 
42690000   0.98763801   -3.1987847      1728000    7515.9795       213450         9555 
42700000     1.021996   -3.2570042      1728000    7517.7808       213500         9560 
42710000    1.0188181   -3.2646307      1728000    7519.5283       213550         9561 
42720000    1.0783271   -3.1890597      1728000    7521.2909       213600         9564 
42730000   0.98305352   -3.2049101      1728000    7523.0865       213650         9564 
42740000   0.95500442   -3.2180426      1728000      7524.87       213700         9565 
42750000    1.0139607   -3.1837207      1728000    7526.6444       213750         9569 
42760000    1.0617014   -3.2347475      1728000    7528.3998       213800         9572 
42770000   0.94785572   -3.1799216      1728000    7530.1472       213850         9572 
42780000   0.97588135    -3.144643      1728000    7531.9304       213900         9572 
42790000    1.0322515   -3.2772338      1728000    7533.6942       213950         9573 
42800000     1.035119   -3.2374083      1728000    7535.6299       214000         9575 
42810000    1.0304911   -3.2042284      1728000     7537.403       214050         9578 
42820000    1.0238671   -3.2969151      1728000     7539.171       214100         9581 
42830000    1.0478753   -3.1180739      1728000    7540.9198       214150         9583 
42840000   0.99681533   -3.0987606      1728000    7542.6869       214200         9583 
42850000   0.98519707   -3.0179329      1728000    7544.4768       214250         9585 
42860000    1.0441143   -3.0899898      1728000    7546.1989       214300         9589 
42870000    1.0387889   -3.2375869      1728000      7547.94       214350         9591 
42880000    1.0291061   -3.2468006      1728000     7549.729       214400         9593 
42890000   0.94845095   -3.2385596      1728000      7551.53       214450         9595 
42900000   0.99603216   -3.1981461      1728000      7553.27       214500         9595 
42910000    1.0139332   -3.1307462      1728000    7555.0001       214550         9596 
42920000     1.011028   -3.1549239      1728000     7556.707       214600         9599 
42930000    1.0032126   -3.2458943      1728000     7558.429       214650         9600 
42940000   0.98548298   -3.2427565      1728000      7560.17       214700         9602 
42950000    1.0016395   -3.1476944      1728000     7561.893       214750         9603 
42960000   0.94549432    -3.148932      1728000     7563.603       214800         9605 
42970000    1.0224835   -3.0652444      1728000     7565.302       214850         9609 
42980000    1.0605359   -3.0678774      1728000    7567.0051       214900         9611 
42990000    1.0595991   -3.0365727      1728000     7568.711       214950         9616 
43000000   0.96754398   -3.1529766      1728000    7570.5084       215000         9619 
43010000    1.0012957   -3.1182113      1728000    7572.2639       215050         9623 
43020000    1.0266484   -3.1213507      1728000    7574.0285       215100         9627 
43030000    1.0206446   -3.0489483      1728000    7575.8327       215150         9629 
43040000   0.99911427   -3.1720999      1728000    7577.5532       215200         9632 
43050000   0.96053778   -3.0403753      1728000    7579.2691       215250         9634 
43060000    1.0489638   -3.1178036      1728000    7581.0209       215300         9636 
43070000    0.9781418   -3.0431297      1728000    7582.7263       215350         9638 
43080000   0.99689844   -3.1162369      1728000     7584.416       215400         9641 
43090000   0.97916471   -3.1447273      1728000    7586.1488       215450         9642 
43100000    1.0417768   -3.1065101      1728000    7587.9021       215500         9645 
43110000   0.99368094   -3.0188978      1728000    7589.6653       215550         9647 
43120000   0.95321236   -3.1352036      1728000    7591.3889       215600         9649 
43130000    1.0560728   -3.1370263      1728000     7593.125       215650         9654 
43140000    1.0183445   -2.9698928      1728000     7594.848       215700         9656 
43150000    1.0090462   -3.1005182      1728000    7596.5837       215750         9657 
43160000    1.0413223   -3.0399288      1728000     7598.304       215800         9659 
43170000    1.0523817   -3.1357525      1728000    7600.0064       215850         9660 
43180000    1.0522023   -3.2245472      1728000    7601.7146       215900         9663 
43190000     1.022545   -3.1890254      1728000    7603.4193       215950         9669 
43200000    1.0518948   -3.0474552      1728000    7605.1404       216000         9670 
43210000   0.91262102   -3.1528144      1728000    7606.8481       216050         9671 
43220000    1.0321368   -3.0647503      1728000    7608.5918       216100         9673 
43230000    1.0205091    -3.104022      1728000      7610.37       216150         9678 
43240000   0.98479002   -3.1684824      1728000    7612.1079       216200         9682 
43250000   0.95974334   -3.1882216      1728000    7613.8328       216250         9682 
43260000    1.0411084   -3.2014805      1728000    7615.5663       216300         9684 
43270000   0.94651913   -3.1457226      1728000    7617.3088       216350         9686 
43280000    1.0309424   -3.1753536      1728000    7619.0438       216400         9686 
43290000   0.93219011   -3.3089169      1728000    7620.7649       216450         9687 
43300000    0.9912339   -3.2853748      1728000    7622.5178       216500         9688 
43310000   0.99051049   -3.1348534      1728000    7624.2551       216550         9693 
43320000   0.99460918   -3.2411125      1728000    7625.9631       216600         9696 
43330000   0.99945965   -3.1467197      1728000    7627.6949       216650         9697 
43340000    0.9528408   -3.1206028      1728000    7629.4371       216700         9701 
43350000   0.97038107   -3.1794938      1728000     7631.172       216750         9704 
43360000    1.0040784   -3.2095687      1728000    7632.9319       216800         9706 
43370000   0.98597869   -3.1589082      1728000    7634.6509       216850         9707 
43380000    1.0168667   -3.3855465      1728000     7636.399       216900         9708 
43390000   0.94813114   -3.2678361      1728000    7638.1418       216950         9708 
43400000    1.0069765   -3.2993857      1728000    7639.8961       217000         9711 
43410000   0.98737725   -3.3802921      1728000    7641.6789       217050         9712 
43420000    1.0215307   -3.3271651      1728000    7643.4401       217100         9713 
43430000   0.99272192   -3.2394619      1728000     7645.193       217150         9714 
43440000   0.96471244   -3.2999153      1728000    7646.9431       217200         9714 
43450000    1.0167979   -3.2633686      1728000     7648.707       217250         9716 
43460000      1.00683   -3.2523981      1728000    7650.4739       217300         9717 
43470000    1.0324266   -3.2960325      1728000    7652.2846       217350         9719 
43480000    1.0561346   -3.3779246      1728000    7654.0261       217400         9720 
43490000   0.99912062   -3.1976275      1728000    7655.7908       217450         9721 
43500000   0.99047345   -3.1328668      1728000    7657.5301       217500         9721 
43510000   0.99578877   -3.4640561      1728000     7659.324       217550         9722 
43520000    1.0016093   -3.2939115      1728000    7661.1174       217600         9724 
43530000     1.052991   -3.2158996      1728000    7662.8802       217650         9724 
43540000   0.97793509   -3.4039354      1728000    7664.6241       217700         9725 
43550000    1.0730296   -3.3054728      1728000    7666.3771       217750         9726 
43560000    1.0225266   -3.3469149      1728000    7668.1866       217800         9727 
43570000    1.0261949   -3.3315497      1728000     7670.013       217850         9727 
43580000   0.97510092   -3.3125431      1728000    7671.8129       217900         9727 
43590000     1.042653    -3.351702      1728000    7673.6058       217950         9727 
43600000    1.0078313   -3.3185808      1728000    7675.4459       218000         9729 
43610000     1.012189   -3.2833526      1728000    7677.3656       218050         9729 
43620000   0.99660624   -3.3602446      1728000    7679.1997       218100         9731 
43630000   0.98978463   -3.3104754      1728000    7681.1005       218150         9732 
43640000   0.96741074   -3.2056854      1728000    7683.0645       218200         9733 
43650000   0.91115863   -3.2343393      1728000    7684.8721       218250         9734 
43660000   0.96390408    -3.241778      1728000    7686.7879       218300         9736 
43670000   0.99691645   -3.2522093      1728000     7688.577       218350         9737 
43680000   0.97438457   -3.2160006      1728000    7690.3599       218400         9739 
43690000    1.0135893    -3.277069      1728000     7692.196       218450         9740 
43700000    1.0716859   -3.1726972      1728000    7694.0521       218500         9741 
43710000     1.053047   -3.1808729      1728000    7695.9019       218550         9741 
43720000   0.98581057   -3.2867593      1728000    7697.6391       218600         9742 
43730000   0.96681774    -3.268936      1728000    7699.3892       218650         9743 
43740000   0.99841727   -3.1997857      1728000    7701.1271       218700         9745 
43750000   0.95506387   -3.2559878      1728000    7702.8561       218750         9746 
43760000    1.0037929   -3.2739844      1728000    7704.6041       218800         9746 
43770000     1.085732   -3.3561757      1728000    7706.3552       218850         9748 
43780000    1.0379585   -3.2797468      1728000     7708.097       218900         9750 
43790000     1.030602   -3.3600384      1728000    7709.8421       218950         9752 
43800000    1.0928752   -3.2747459      1728000    7711.6031       219000         9754 
43810000   0.94653758   -3.1524964      1728000    7713.3616       219050         9757 
43820000    1.0186477   -3.2702908      1728000    7715.1093       219100         9758 
43830000    1.0355959   -3.2760016      1728000    7716.8661       219150         9760 
43840000    1.0259912   -3.2141738      1728000    7718.6062       219200         9760 
43850000   0.98763605   -3.1633732      1728000     7720.356       219250         9761 
43860000    1.0441229   -3.3867181      1728000    7722.0992       219300         9761 
43870000    1.0340366   -3.4103897      1728000    7723.8431       219350         9762 
43880000   0.95916793   -3.2364421      1728000    7725.6011       219400         9764 
43890000    0.9885037   -3.0968246      1728000    7727.3721       219450         9765 
43900000    1.0060175   -3.2009271      1728000    7729.1331       219500         9766 
43910000    1.0591724   -3.1418947      1728000    7730.8811       219550         9769 
43920000   0.93833006   -3.3269975      1728000    7732.6392       219600         9772 
43930000   0.99529137   -3.2220867      1728000    7734.3971       219650         9775 
43940000    1.0585246   -3.2179051      1728000    7736.1571       219700         9777 
43950000    1.0013767   -3.2741684      1728000    7737.9192       219750         9779 
43960000   0.99299505   -3.1715832      1728000    7739.6531       219800         9780 
43970000    1.0289438   -3.1370452      1728000    7741.3872       219850         9783 
43980000   0.98991229   -3.2750572      1728000      7743.13       219900         9783 
43990000    1.0254524   -3.1911136      1728000    7744.8822       219950         9783 
44000000   0.97366131   -3.1614579      1728000     7746.642       220000         9784 
44010000   0.95198711   -3.3660042      1728000    7748.3932       220050         9784 
44020000   0.93301882   -3.1929459      1728000    7750.1572       220100         9785 
44030000   0.99457785   -3.2186461      1728000    7751.9322       220150         9785 
44040000    1.0050774   -3.2813094      1728000    7753.6802       220200         9789 
44050000   0.97557876   -3.2897292      1728000    7755.4372       220250         9789 
44060000    1.0002507    -3.177274      1728000    7757.2052       220300         9790 
44070000    1.0469473   -3.3050954      1728000    7758.9591       220350         9794 
44080000    1.0628384   -3.2267377      1728000    7760.7232       220400         9795 
44090000   0.97498458   -3.1908636      1728000    7762.4696       220450         9797 
44100000    1.0008218   -3.2882854      1728000    7764.2242       220500         9797 
44110000   0.98125216   -3.2251172      1728000    7765.9861       220550         9798 
44120000    1.0213539   -3.2136421      1728000    7767.7352       220600         9798 
44130000    1.0111104   -3.2018222      1728000    7769.5022       220650         9801 
44140000    1.0805826   -3.2363824      1728000    7771.2732       220700         9802 
44150000    1.0316431   -3.1287225      1728000    7773.0301       220750         9803 
44160000    1.0541992   -3.1620616      1728000    7774.7791       220800         9805 
44170000    0.9803612   -3.1783102      1728000    7776.5661       220850         9807 
44180000    1.0372682    -3.284225      1728000    7778.3556       220900         9808 
44190000    1.0310634   -3.3159653      1728000    7780.1171       220950         9812 
44200000    1.0042303   -3.3021306      1728000    7781.8802       221000         9813 
44210000    1.0266154    -3.137246      1728000    7783.6283       221050         9814 
44220000   0.96211002    -3.301188      1728000    7785.3646       221100         9815 
44230000    1.0049012   -3.1696228      1728000    7787.1102       221150         9817 
44240000   0.95417635   -3.0305991      1728000    7788.8572       221200         9819 
44250000   0.96352795   -3.3115933      1728000    7790.5932       221250         9820 
44260000    1.0494901   -3.2069611      1728000    7792.3551       221300         9822 
44270000    1.0344425   -3.0651713      1728000    7794.1242       221350         9825 
44280000    1.0326495   -3.1824213      1728000    7795.9068       221400         9827 
44290000    1.0429566   -3.2058879      1728000     7797.681       221450         9829 
44300000   0.98331031    -3.183854      1728000    7799.4777       221500         9834 
44310000    1.1148624   -3.2708719      1728000    7801.4874       221550         9834 
44320000    1.0635565   -3.2526127      1728000    7803.5746       221600         9834 
44330000     1.065709   -3.2227907      1728000    7805.5266       221650         9835 
44340000    1.0587467   -3.2732836      1728000    7807.3295       221700         9836 
44350000    1.0921513   -3.2786826      1728000    7809.1849       221750         9837 
44360000    1.0474896   -3.1938604      1728000    7811.0776       221800         9840 
44370000    1.0247811   -3.1685778      1728000    7812.9927       221850         9842 
44380000   0.98559572    -3.298875      1728000    7815.2522       221900         9845 
44390000    1.0142364   -3.2411521      1728000    7817.4184       221950         9847 
44400000   0.99893001   -3.1779351      1728000    7819.4796       222000         9848 
44410000    1.0129141   -3.0685275      1728000    7821.3609       222050         9848 
44420000   0.97754756   -3.2380705      1728000    7823.1277       222100         9851 
44430000    1.0531547   -3.2716964      1728000    7824.9044       222150         9852 
44440000   0.99098509   -3.2516062      1728000    7826.6782       222200         9854 
44450000    1.0455182   -3.2283745      1728000    7828.4416       222250         9857 
44460000   0.99867857   -3.2975413      1728000    7830.2347       222300         9859 
44470000   0.94471245   -3.2279761      1728000    7832.0265       222350         9860 
44480000   0.99552217   -3.2362724      1728000    7833.8133       222400         9860 
44490000    1.0418489   -3.3177803      1728000    7835.5784       222450         9863 
44500000   0.98101208   -3.2557221      1728000    7837.3813       222500         9864 
44510000   0.96285453   -3.2477966      1728000    7839.1485       222550         9866 
44520000    1.0487422   -3.4051343      1728000    7841.0031       222600         9867 
44530000    1.0013797   -3.2479943      1728000    7842.8752       222650         9868 
44540000    1.0478361    -3.276365      1728000    7844.8545       222700         9868 
44550000   0.99246118   -3.2254507      1728000    7846.8482       222750         9868 
44560000   0.98824827   -3.2811155      1728000    7848.7484       222800         9869 
44570000   0.91054374   -3.2461366      1728000     7850.523       222850         9872 
44580000   0.96224598   -3.2458509      1728000    7852.2721       222900         9873 
44590000    1.0094968   -3.3405867      1728000    7854.0314       222950         9874 
44600000    1.0224037   -3.2057811      1728000    7855.8225       223000         9877 
44610000   0.96498282   -3.2691554      1728000    7857.6339       223050         9878 
44620000    1.0211121   -3.2207411      1728000    7859.4019       223100         9878 
44630000   0.96950657   -3.4092744      1728000    7861.1705       223150         9878 
44640000   0.99156968   -3.2926478      1728000    7862.9355       223200         9879 
44650000   0.97778904   -3.1789472      1728000    7864.7113       223250         9880 
44660000    1.0187463   -3.1170526      1728000    7866.4637       223300         9882 
44670000       1.0826   -3.2740128      1728000    7868.2701       223350         9885 
44680000    1.0330341   -3.2211618      1728000    7870.1176       223400         9886 
44690000    1.0164368    -3.182175      1728000     7872.004       223450         9886 
44700000   0.99217293   -3.1437683      1728000     7873.858       223500         9887 
44710000    1.0778308   -3.3410809      1728000    7875.7432       223550         9887 
44720000     1.003225    -3.343126      1728000    7877.6578       223600         9887 
44730000   0.98881199   -3.2304935      1728000    7879.5255       223650         9888 
44740000   0.96359695   -3.1358001      1728000    7881.3967       223700         9892 
44750000     1.030002    -3.172323      1728000    7883.2185       223750         9895 
44760000    1.0115587   -3.2593503      1728000    7884.9608       223800         9896 
44770000   0.98016797   -3.2062496      1728000    7886.7095       223850         9896 
44780000   0.97755624   -3.2214927      1728000    7888.4725       223900         9899 
44790000    1.0322629   -3.2704857      1728000    7890.2755       223950         9900 
44800000    1.0278262   -3.1300477      1728000    7892.1396       224000         9902 
44810000    1.0271167   -3.1149433      1728000    7894.0125       224050         9902 
44820000   0.94332196   -3.1998193      1728000    7895.9025       224100         9903 
44830000    1.0350622   -3.1412809      1728000    7897.7617       224150         9904 
44840000   0.94324648   -3.1643991      1728000    7899.6175       224200         9907 
44850000    1.0314191   -3.2317094      1728000    7901.5337       224250         9908 
44860000    1.0260117   -2.9899127      1728000    7903.3879       224300         9910 
44870000    1.0699535   -3.2576782      1728000    7905.2335       224350         9912 
44880000    1.0350289   -3.3105198      1728000    7907.1655       224400         9912 
44890000   0.95899005   -3.2750404      1728000    7909.1042       224450         9914 
44900000   0.95011589   -3.1806329      1728000    7911.0324       224500         9918 
44910000   0.99216957   -3.2547067      1728000    7912.9033       224550         9920 
44920000    1.0827078   -3.2925976      1728000    7914.7896       224600         9924 
44930000    1.0578575   -3.2396067      1728000    7916.6655       224650         9926 
44940000    0.9984897   -3.2006892      1728000     7918.512       224700         9928 
44950000    1.0370964   -3.2228545      1728000    7920.4284       224750         9934 
44960000    1.0715969   -3.2665672      1728000    7922.3184       224800         9935 
44970000    1.0323043   -3.1355152      1728000    7924.1705       224850         9935 
44980000    1.0135307   -3.1560626      1728000    7926.0668       224900         9937 
44990000   0.92788499   -3.2042836      1728000     7927.942       224950         9939 
45000000    0.9722945   -3.1821634      1728000    7929.8605       225000         9940 
45010000    1.0345157   -3.2012369      1728000    7931.7078       225050         9943 
45020000     1.007146   -3.2609022      1728000    7933.5781       225100         9945 
45030000   0.96259129   -3.1648889      1728000    7935.4495       225150         9946 
45040000    1.0314723   -3.2291027      1728000    7937.3841       225200         9946 
45050000   0.98928459   -3.1564045      1728000    7939.4175       225250         9952 
45060000    1.0110882   -3.1294516      1728000    7941.3555       225300         9953 
45070000    0.9741878   -3.0752456      1728000    7943.2349       225350         9955 
45080000   0.92536916   -3.1201295      1728000    7945.0914       225400         9958 
45090000   0.95869956   -2.9858433      1728000    7946.9645       225450         9958 
45100000   0.96589609   -3.1343723      1728000    7948.8692       225500         9965 
45110000    1.0617269    -3.140207      1728000    7950.7568       225550         9967 
45120000    1.0154448   -3.0277829      1728000    7952.6415       225600         9971 
45130000    1.0031095   -3.0783029      1728000    7954.4447       225650         9974 
45140000    1.0141216   -3.0469268      1728000    7956.3574       225700         9977 
45150000    0.9558241   -3.2550839      1728000    7958.2235       225750         9982 
45160000   0.99452993   -3.1964423      1728000    7960.0745       225800         9983 
45170000    1.1012594   -3.1189399      1728000    7961.9765       225850         9985 
45180000    1.0212464   -3.0930767      1728000    7963.8267       225900         9988 
45190000    1.0191715   -3.0863303      1728000    7965.6847       225950         9991 
45200000   0.98082164   -3.1861347      1728000     7967.569       226000         9994 
45210000    1.0329067   -3.1283352      1728000    7969.4225       226050         9997 
45220000   0.94616615   -3.1757142      1728000    7971.3025       226100        10000 
45230000    1.0299912    -3.093137      1728000    7973.1655       226150        10002 
45240000    1.0452066    -3.088388      1728000    7975.0056       226200        10002 
45250000   0.96092899   -3.0435552      1728000    7976.8935       226250        10004 
45260000    1.0146585   -3.1460148      1728000    7978.7501       226300        10007 
45270000    1.0320811   -3.0493742      1728000    7980.6444       226350        10011 
45280000    1.0332209   -3.0950706      1728000    7982.4956       226400        10013 
45290000    0.9925451   -3.1249641      1728000    7984.3993       226450        10016 
45300000   0.98575651    -3.096015      1728000    7986.2816       226500        10016 
45310000   0.97638422   -3.1066353      1728000    7988.1778       226550        10021 
45320000   0.92786595   -3.0608243      1728000     7990.052       226600        10024 
45330000    1.0250916     -3.02643      1728000    7991.9396       226650        10029 
45340000    1.1123335   -3.1199219      1728000    7993.8165       226700        10034 
45350000    1.0056704   -3.1053337      1728000    7995.7065       226750        10039 
45360000    1.0655178   -3.1573042      1728000    7997.6195       226800        10041 
45370000    1.0165705   -3.1257283      1728000    7999.5487       226850        10046 
45380000    1.0900052   -3.1693219      1728000    8001.4324       226900        10052 
45390000   0.97193821   -3.0881983      1728000    8003.3345       226950        10054 
45400000    1.0205419   -3.0642002      1728000    8005.2189       227000        10058 
45410000    1.0601185   -3.1744423      1728000    8007.1333       227050        10060 
45420000     1.048328   -3.2877055      1728000    8009.0176       227100        10065 
45430000   0.91532579   -3.0827482      1728000    8010.8987       227150        10069 
45440000    1.0296865   -3.1646954      1728000    8012.7756       227200        10074 
45450000   0.97164458   -3.1114679      1728000    8014.6706       227250        10076 
45460000   0.99561371    -3.192314      1728000    8016.5246       227300        10080 
45470000    1.0067148    -3.152618      1728000    8018.3977       227350        10084 
45480000    1.0159161   -3.1251196      1728000    8020.3203       227400        10085 
45490000    1.0492626   -3.1641301      1728000    8022.2297       227450        10087 
45500000    1.0741588   -3.2429343      1728000    8024.1176       227500        10090 
45510000   0.99582198   -3.2588616      1728000    8026.0183       227550        10092 
45520000    1.0493203   -3.0522384      1728000    8027.9046       227600        10094 
45530000    1.0269152   -3.2253746      1728000    8029.7918       227650        10097 
45540000   0.96589196   -3.2530877      1728000    8031.7213       227700        10097 
45550000    1.0452952    -3.052661      1728000    8033.6134       227750        10101 
45560000    0.9962561   -3.1943053      1728000    8035.5345       227800        10102 
45570000    1.0310798   -3.1261754      1728000    8037.3979       227850        10102 
45580000   0.96852974   -3.0919226      1728000    8039.2763       227900        10108 
45590000   0.93417843   -3.0445284      1728000    8041.1616       227950        10109 
45600000   0.97438222   -3.1331675      1728000    8043.0729       228000        10110 
45610000    1.0098786   -3.1125852      1728000    8044.9459       228050        10111 
45620000    1.0423468   -3.2246594      1728000    8046.8453       228100        10117 
45630000    0.9800693    -3.084717      1728000    8048.7126       228150        10119 
45640000   0.95677505   -3.1468046      1728000    8050.6022       228200        10123 
45650000   0.95885298   -3.2101887      1728000    8052.5235       228250        10124 
45660000   0.93354415   -3.1112904      1728000    8054.3557       228300        10128 
45670000    1.0362844      -3.2112      1728000     8056.254       228350        10133 
45680000   0.98560976    -3.156642      1728000    8058.1778       228400        10133 
45690000    1.0146031   -3.1209276      1728000    8060.1134       228450        10136 
45700000   0.97649542   -3.2337557      1728000    8062.0433       228500        10140 
45710000   0.93956571   -3.1325078      1728000    8063.9806       228550        10142 
45720000   0.99498616    -3.180986      1728000    8065.8798       228600        10145 
45730000   0.93190393   -3.1277295      1728000     8067.781       228650        10145 
45740000   0.98412852   -3.2453824      1728000    8069.6718       228700        10146 
45750000    1.0212444   -3.1942067      1728000    8071.5418       228750        10146 
45760000    1.0169081   -3.2066346      1728000    8073.4287       228800        10149 
45770000   0.98445959   -3.2317261      1728000    8075.3268       228850        10150 
45780000   0.98355725   -3.0828114      1728000    8077.2257       228900        10150 
45790000    1.0145168   -3.1984115      1728000    8079.1185       228950        10152 
45800000   0.99922893   -3.2851096      1728000    8081.0275       229000        10153 
45810000    1.0404829   -3.0922271      1728000    8082.9685       229050        10155 
45820000   0.98498038   -3.0698435      1728000    8084.8506       229100        10157 
45830000   0.96706707    -3.243993      1728000    8086.7587       229150        10160 
45840000    1.0359128   -3.2930029      1728000    8088.6494       229200        10162 
45850000    1.0252297   -3.1429619      1728000    8090.5136       229250        10165 
45860000    0.9657391    -3.143851      1728000    8092.4414       229300        10166 
45870000    1.0123645   -3.0448617      1728000    8094.3189       229350        10167 
45880000   0.99974008   -3.2355278      1728000    8096.1924       229400        10171 
45890000   0.99202117   -3.1960291      1728000    8098.0826       229450        10174 
45900000   0.95918625    -3.291609      1728000    8099.9432       229500        10174 
45910000    1.0842565   -3.1803491      1728000    8101.8452       229550        10175 
45920000   0.95719905   -3.1682071      1728000    8103.7156       229600        10176 
45930000    1.0376563   -3.2312891      1728000    8105.6058       229650        10176 
45940000   0.98398862   -3.2522804      1728000    8107.4634       229700        10177 
45950000    1.0153978     -3.13776      1728000    8109.2847       229750        10180 
45960000   0.98741142   -3.2437778      1728000    8111.2351       229800        10182 
45970000    1.0792055   -3.2962697      1728000    8113.1668       229850        10185 
45980000    1.0145252   -3.2944718      1728000    8115.0733       229900        10187 
45990000    0.9970696   -3.1065324      1728000    8116.9718       229950        10189 
46000000    1.0158353   -3.1968313      1728000    8118.8559       230000        10194 
46010000   0.96445756   -3.2033956      1728000    8120.7837       230050        10197 
46020000    0.9939439   -3.2471468      1728000     8122.687       230100        10198 
46030000    1.0009508   -3.2435993      1728000    8124.5497       230150        10199 
46040000    1.0306951    -3.276453      1728000    8126.4326       230200        10200 
46050000    1.0473652    -3.312569      1728000    8128.3211       230250        10201 
46060000    1.0489183   -3.2485378      1728000    8130.2259       230300        10204 
46070000   0.97844791   -3.2170443      1728000    8132.1268       230350        10204 
46080000    1.0643431    -3.269316      1728000    8133.9857       230400        10207 
46090000   0.98693864   -3.2689775      1728000    8135.8853       230450        10207 
46100000     1.024322   -3.3489831      1728000    8137.7676       230500        10211 
46110000   0.96122145    -3.307305      1728000    8139.6649       230550        10213 
46120000    1.0502669    -3.249924      1728000    8141.5794       230600        10214 
46130000    1.0073522   -3.3273347      1728000    8143.5053       230650        10215 
46140000   0.99657033   -3.4124326      1728000    8145.4329       230700        10216 
46150000    1.0496672   -3.2189275      1728000     8147.371       230750        10219 
46160000    1.0569892   -3.2308724      1728000    8149.2625       230800        10220 
46170000    1.0421784   -3.2431314      1728000    8151.1643       230850        10220 
46180000   0.97232946   -3.2889892      1728000    8153.1098       230900        10223 
46190000   0.99441035   -3.1761174      1728000    8155.0827       230950        10223 
46200000    1.0079916    -3.177461      1728000    8157.0068       231000        10225 
46210000   0.95750339   -3.3084508      1728000    8158.9014       231050        10226 
46220000    1.0067711   -3.2540772      1728000    8160.7892       231100        10226 
46230000   0.96563728   -3.1529657      1728000    8162.6864       231150        10227 
46240000    0.9741167   -3.2434862      1728000     8164.586       231200        10228 
46250000    1.0248304   -3.2470157      1728000    8166.5047       231250        10229 
46260000     1.041072   -3.2042673      1728000    8168.3997       231300        10231 
46270000    1.0079695   -3.3558414      1728000    8170.2866       231350        10233 
46280000    1.0319535   -3.3230388      1728000    8172.2081       231400        10237 
46290000    1.0332876   -3.0393191      1728000    8174.1157       231450        10240 
46300000    1.0578693   -3.0843159      1728000    8176.0318       231500        10243 
46310000   0.98783226   -3.3492076      1728000    8177.8496       231550        10244 
46320000     0.910883   -3.1085428      1728000    8179.7078       231600        10246 
46330000    1.0076777   -3.1560198      1728000    8181.5768       231650        10249 
46340000   0.96242682   -3.0933602      1728000    8183.4367       231700        10252 
46350000   0.97140523   -3.2046911      1728000    8185.3081       231750        10252 
46360000   0.98492173   -3.1511328      1728000    8187.2176       231800        10253 
46370000    0.9900705   -2.9986114      1728000    8189.1053       231850        10258 
46380000    1.0378778    -3.091437      1728000    8191.0397       231900        10261 
46390000   0.95718296    -3.267545      1728000    8192.9888       231950        10263 
46400000    1.0025398   -3.2100272      1728000    8194.8407       232000        10266 
46410000   0.97357702   -3.0844678      1728000    8196.7257       232050        10268 
46420000   0.99723037   -3.1416288      1728000     8198.602       232100        10270 
46430000    0.9875181   -3.0911293      1728000    8200.5195       232150        10271 
46440000    1.0144335   -3.0856337      1728000    8202.3927       232200        10274 
46450000    1.0073308   -3.0889718      1728000    8204.2848       232250        10277 
46460000   0.96292769   -3.1820343      1728000    8206.1915       232300        10278 
46470000    1.0285521   -3.1350053      1728000    8208.0688       232350        10279 
46480000    1.0127516   -3.2225548      1728000    8209.9728       232400        10279 
46490000   0.92358262   -3.2025179      1728000    8211.8619       232450        10281 
46500000    1.0054931   -3.1644475      1728000    8213.7608       232500        10282 
46510000    1.0217198   -3.1832025      1728000     8215.695       232550        10283 
46520000   0.99951687    -3.079467      1728000    8217.5669       232600        10286 
46530000    1.0346591   -3.1097935      1728000    8219.4718       232650        10288 
46540000   0.99157391   -3.1991126      1728000    8221.3915       232700        10288 
46550000   0.99993349   -3.2243371      1728000     8223.292       232750        10292 
46560000    1.0072965   -3.3174745      1728000    8225.2151       232800        10293 
46570000   0.95314679   -3.1273764      1728000    8227.0903       232850        10299 
46580000   0.99325864   -3.1788472      1728000    8229.0384       232900        10301 
46590000    1.0023902   -3.2009831      1728000    8230.9547       232950        10304 
46600000      1.03401   -3.2856725      1728000    8232.8419       233000        10309 
46610000   0.98161045   -3.1645699      1728000     8234.765       233050        10311 
46620000   0.98693932    -3.216243      1728000     8236.698       233100        10315 
46630000    1.0326465   -3.1739285      1728000    8238.5881       233150        10318 
46640000    1.0022337   -3.1947263      1728000      8240.49       233200        10319 
46650000   0.94463072   -3.1833411      1728000    8242.3772       233250        10321 
46660000    1.0371917   -3.2529917      1728000    8244.3036       233300        10321 
46670000    1.0996345   -3.2478618      1728000    8246.2917       233350        10323 
46680000   0.98037822   -3.1561655      1728000    8248.1738       233400        10326 
46690000     1.039903    -3.196942      1728000    8250.0751       233450        10330 
46700000   0.99835219   -3.2095798      1728000    8251.9291       233500        10334 
46710000   0.99047036   -3.3336155      1728000    8253.8654       233550        10335 
46720000    1.0753677   -3.2336844      1728000    8255.6749       233600        10337 
46730000   0.99740486   -3.1428741      1728000    8257.4489       233650        10339 
46740000   0.93244909   -3.2511103      1728000    8259.2178       233700        10339 
46750000   0.99524165    -3.202409      1728000    8261.0358       233750        10342 
46760000   0.95637466   -3.3150688      1728000    8262.8509       233800        10345 
46770000   0.97655157   -3.2055734      1728000    8264.6408       233850        10348 
46780000     1.029407   -3.1906495      1728000    8266.4169       233900        10351 
46790000    1.0216905   -3.2823381      1728000    8268.2158       233950        10352 
46800000    1.0579579   -3.2814528      1728000    8270.0131       234000        10352 
46810000   0.99671277   -3.2749436      1728000    8271.7824       234050        10357 
46820000    1.0951812   -3.2012022      1728000    8273.5759       234100        10358 
46830000    1.0734187   -3.1783424      1728000    8275.3785       234150        10360 
46840000    1.0054033   -3.3739198      1728000    8277.2979       234200        10360 
46850000   0.99934031   -3.1559837      1728000    8279.1818       234250        10361 
46860000   0.98290404   -3.2230678      1728000    8281.0629       234300        10365 
46870000    1.0229773   -3.1761175      1728000    8282.9729       234350        10368 
46880000    1.0695273   -3.0423418      1728000     8284.799       234400        10370 
46890000    1.0202791    -3.050982      1728000     8286.555       234450        10376 
46900000    1.0084877   -3.1794325      1728000    8288.3159       234500        10376 
46910000   0.97943132   -3.1205955      1728000    8290.1099       234550        10378 
46920000    1.0572624   -3.0799551      1728000    8291.9449       234600        10379 
46930000   0.93874689   -3.0495224      1728000    8293.7425       234650        10380 
46940000   0.99257026   -3.2582636      1728000     8295.516       234700        10381 
46950000   0.93780842   -3.2114135      1728000      8297.28       234750        10385 
46960000   0.95851144   -3.1414318      1728000    8299.0698       234800        10387 
46970000    1.0006674   -3.1311483      1728000    8300.9523       234850        10387 
46980000   0.99012453   -3.2168069      1728000    8302.8282       234900        10390 
46990000    0.9355292   -3.2152691      1728000    8304.7491       234950        10391 
47000000    1.0565704   -3.3138471      1728000    8306.7559       235000        10391 
47010000     1.014375   -3.1356894      1728000    8308.7604       235050        10391 
47020000     1.028713   -3.1239914      1728000    8310.7199       235100        10394 
47030000     1.002562   -3.3315643      1728000    8312.7632       235150        10398 
47040000   0.96319883   -3.2393565      1728000    8314.6571       235200        10399 
47050000   0.97791961   -3.1926957      1728000    8316.5579       235250        10402 
47060000    1.0488197   -3.3656274      1728000     8318.508       235300        10403 
47070000     1.056618   -3.2197308      1728000    8320.4058       235350        10403 
47080000    1.0224023    -3.149973      1728000    8322.3484       235400        10408 
47090000   0.96266754   -3.2334769      1728000     8324.268       235450        10410 
47100000    1.0185687    -3.334297      1728000    8326.1559       235500        10413 
47110000   0.95805597   -3.2590157      1728000    8328.0697       235550        10414 
47120000    1.0231118   -3.1286123      1728000     8329.983       235600        10414 
47130000   0.94111437   -3.2234063      1728000    8331.8779       235650        10419 
47140000    1.0075197   -3.2656926      1728000     8333.781       235700        10419 
47150000   0.96931051   -3.2731056      1728000    8335.6681       235750        10421 
47160000    1.0277073   -3.2500898      1728000     8337.622       235800        10422 
47170000    1.0221526   -3.1861192      1728000    8339.5109       235850        10423 
47180000    1.0451179   -3.2738252      1728000    8341.4021       235900        10424 
47190000    1.0235477   -3.1488758      1728000     8343.485       235950        10426 
47200000   0.97370258   -3.1547296      1728000    8345.3568       236000        10428 
47210000    1.0011449   -3.2239102      1728000    8347.2362       236050        10430 
47220000   0.99793306   -3.2504933      1728000    8349.0545       236100        10433 
47230000     0.995403   -3.2749112      1728000     8350.874       236150        10434 
47240000     1.007871    -3.142943      1728000    8352.6889       236200        10436 
47250000    0.9997369   -3.2885726      1728000    8354.5219       236250        10437 
47260000     1.053469   -3.2016512      1728000    8356.4631       236300        10438 
47270000    1.0132798   -3.2856979      1728000    8358.4008       236350        10441 
47280000    1.0226472   -3.3716655      1728000    8360.3846       236400        10442 
47290000   0.98107785   -3.1188117      1728000    8362.3947       236450        10443 
47300000    1.0677694   -3.3299569      1728000    8364.3778       236500        10447 
47310000    1.0034365   -3.2296896      1728000    8366.5009       236550        10448 
47320000   0.94240357   -3.3534381      1728000    8368.4038       236600        10449 
47330000    1.0727808   -3.2412177      1728000    8370.2769       236650        10450 
47340000   0.94884747   -3.3107259      1728000    8372.2391       236700        10452 
47350000   0.98358687   -3.2742914      1728000    8374.1761       236750        10454 
47360000    1.1000419   -3.2375252      1728000    8376.3191       236800        10456 
47370000   0.97037948    -3.232445      1728000    8378.6138       236850        10456 
47380000    1.0024775   -3.2408426      1728000    8380.8341       236900        10458 
47390000   0.97021488   -3.2078645      1728000    8382.8229       236950        10459 
47400000    0.9707968    -3.224361      1728000    8384.9148       237000        10459 
47410000    1.0333883   -3.2462798      1728000     8386.706       237050        10461 
47420000    1.0034446   -3.2064205      1728000    8388.4723       237100        10463 
47430000   0.99228839   -3.2627841      1728000    8390.2302       237150        10463 
47440000    1.0019417   -3.2562553      1728000    8391.9985       237200        10466 
47450000     1.057236   -3.1850551      1728000    8393.7609       237250        10468 
47460000     1.001518   -3.1853215      1728000    8395.5142       237300        10470 
47470000   0.94269855   -3.1062746      1728000     8397.293       237350        10470 
47480000    1.0021954   -3.3661952      1728000     8399.082       237400        10470 
47490000   0.96309854   -3.3148569      1728000    8401.3201       237450        10471 
47500000    1.0702059   -3.2161197      1728000    8403.1683       237500        10472 
47510000    1.0316569   -3.1959794      1728000    8405.0688       237550        10473 
47520000   0.98814534   -3.2479531      1728000    8406.8741       237600        10474 
47530000    1.0787274   -3.2567128      1728000      8408.75       237650        10478 
47540000    0.9958599   -3.2073715      1728000    8410.6321       237700        10479 
47550000    1.0074702   -3.2305883      1728000    8412.5221       237750        10480 
47560000    1.0182476   -3.2398426      1728000     8414.455       237800        10480 
47570000    1.0332258   -3.2196666      1728000    8416.3952       237850        10481 
47580000   0.93446933   -3.2596598      1728000     8418.365       237900        10483 
47590000    1.0474381   -3.3295121      1728000    8420.3101       237950        10486 
47600000   0.97574704   -3.2575074      1728000    8422.3032       238000        10490 
47610000   0.98230336   -3.2719508      1728000    8424.2479       238050        10491 
47620000   0.97575797   -3.1946048      1728000    8426.1738       238100        10493 
47630000    0.9926554   -3.1896019      1728000     8428.134       238150        10494 
47640000   0.98105878   -3.3410073      1728000    8430.0681       238200        10496 
47650000    1.0143488   -3.3215778      1728000     8432.007       238250        10498 
47660000    1.0143093   -3.2016307      1728000    8433.9544       238300        10501 
47670000   0.93056303   -3.1243175      1728000    8435.8863       238350        10503 
47680000   0.99114164   -3.3285499      1728000     8437.793       238400        10504 
47690000    1.0543775   -3.2443441      1728000    8439.7868       238450        10504 
47700000    1.0568783   -3.3099717      1728000      8441.76       238500        10506 
47710000   0.99148564   -3.3124474      1728000    8443.6629       238550        10507 
47720000   0.97776699   -3.2862358      1728000    8445.5873       238600        10508 
47730000   0.97009371   -3.1767168      1728000    8447.5138       238650        10510 
47740000   0.94461175   -3.3358384      1728000     8449.468       238700        10511 
47750000   0.99809299   -3.3127533      1728000    8451.4487       238750        10512 
47760000    1.0100636   -3.1171751      1728000    8453.3941       238800        10513 
47770000   0.98880874   -3.1559338      1728000     8455.351       238850        10515 
47780000    1.0012096   -3.1556295      1728000      8457.33       238900        10515 
47790000    1.0213011   -3.3689938      1728000    8459.2012       238950        10518 
47800000   0.98308087   -3.3100805      1728000    8461.1248       239000        10519 
47810000   0.98503038   -3.3188608      1728000    8463.1151       239050        10519 
47820000   0.97765607   -3.2402498      1728000    8464.9545       239100        10519 
47830000    1.0410777   -3.2916853      1728000     8466.866       239150        10519 
47840000    1.0406157   -3.2741622      1728000    8468.7473       239200        10519 
47850000   0.99401679   -3.2999596      1728000    8470.6105       239250        10521 
47860000   0.94344758   -3.1760413      1728000    8472.4494       239300        10521 
47870000   0.98567361   -3.2516974      1728000     8474.287       239350        10523 
47880000     1.013329   -3.2364795      1728000    8476.1376       239400        10525 
47890000    1.0099956   -3.2136677      1728000    8477.9591       239450        10526 
47900000   0.95932956   -3.1936731      1728000    8479.7851       239500        10527 
47910000    1.0278238   -3.2782865      1728000    8481.6364       239550        10527 
47920000    1.0354029   -3.1705373      1728000    8483.4883       239600        10528 
47930000   0.95895304   -3.2426215      1728000    8485.3083       239650        10529 
47940000   0.96740636   -3.2148325      1728000    8487.1322       239700        10529 
47950000     1.007048   -3.2037928      1728000    8488.9483       239750        10531 
47960000    1.0128244   -3.1908033      1728000    8490.8352       239800        10534 
47970000    1.0652445   -3.1827521      1728000    8492.6501       239850        10536 
47980000    1.0225787   -3.1743276      1728000    8494.4723       239900        10537 
47990000    1.0617408   -3.2441209      1728000    8496.2982       239950        10539 
48000000    1.0288624   -3.1418143      1728000    8498.1231       240000        10542 
48010000   0.99038194   -3.3486234      1728000    8499.9329       240050        10543 
48020000    1.0178516   -3.0000947      1728000    8501.8156       240100        10546 
48030000   0.99745293   -3.2321062      1728000    8503.6259       240150        10547 
48040000   0.97964339   -3.2008938      1728000    8505.4291       240200        10548 
48050000   0.98591467   -3.1955449      1728000    8507.2271       240250        10549 
48060000   0.96960913   -3.2419522      1728000    8509.0772       240300        10549 
48070000    1.0415607   -3.2387705      1728000    8510.9002       240350        10551 
48080000   0.99574682   -3.2141227      1728000    8512.7272       240400        10554 
48090000    1.0280587   -3.1934424      1728000    8514.5646       240450        10555 
48100000    1.0147819   -3.1899403      1728000    8516.4011       240500        10557 
48110000   0.93037904   -3.2763021      1728000     8518.206       240550        10558 
48120000   0.97634902   -3.1967245      1728000    8520.0132       240600        10559 
48130000    1.0016185   -3.1759139      1728000    8521.9754       240650        10560 
48140000   0.99592701   -3.2412033      1728000    8523.8441       240700        10566 
48150000   0.97227095   -3.2981046      1728000    8525.6852       240750        10568 
48160000   0.95787422   -3.2639937      1728000    8527.5221       240800        10569 
48170000   0.93597661    -3.142445      1728000    8529.3581       240850        10571 
48180000    1.0216265    -3.232745      1728000    8531.1903       240900        10571 
48190000    1.0228855   -3.1803442      1728000     8533.047       240950        10573 
48200000   0.99124454   -3.2243219      1728000    8535.0123       241000        10573 
48210000   0.97760055   -3.2414089      1728000    8536.9441       241050        10576 
48220000    1.0155455   -3.1278841      1728000    8538.7584       241100        10581 
48230000    1.0040741   -3.1745572      1728000    8540.6073       241150        10583 
48240000    1.0286276   -3.3532592      1728000    8542.4725       241200        10584 
48250000    1.0318128   -3.1431538      1728000    8544.3334       241250        10585 
48260000    1.0008217   -3.2152177      1728000    8546.1861       241300        10587 
48270000    1.0364165   -3.2823759      1728000    8548.0301       241350        10587 
48280000    1.0411384   -3.2578785      1728000    8549.9082       241400        10589 
48290000    1.0245241   -3.2879243      1728000    8551.7342       241450        10591 
48300000    1.0038599   -3.3216864      1728000    8553.5712       241500        10593 
48310000    1.0404094   -3.0996552      1728000    8555.3904       241550        10594 
48320000   0.99615867   -3.2059888      1728000    8557.2052       241600        10596 
48330000   0.95652735   -3.1573902      1728000    8559.0716       241650        10598 
48340000   0.92893539   -3.3004049      1728000    8560.9502       241700        10598 
48350000   0.97526605   -3.2204484      1728000    8562.7811       241750        10600 
48360000   0.94505856    -3.217774      1728000    8564.5943       241800        10603 
48370000   0.92983661   -3.2076699      1728000    8566.4162       241850        10604 
48380000   0.94934371   -3.1852231      1728000    8568.2272       241900        10605 
48390000   0.94145258    -3.324949      1728000    8570.0701       241950        10608 
48400000   0.98231335   -3.1460392      1728000    8571.9104       242000        10608 
48410000   0.96952746   -3.2556398      1728000    8573.7277       242050        10611 
48420000   0.98469566   -3.2294225      1728000    8575.5532       242100        10612 
48430000   0.95018173   -3.1736179      1728000    8577.3701       242150        10612 
48440000    1.0386547   -3.1521307      1728000    8579.1732       242200        10614 
48450000    1.0038255   -3.0440198      1728000    8580.9824       242250        10615 
48460000    1.0388947   -3.2232759      1728000    8582.7782       242300        10617 
48470000    1.0017196   -3.2415579      1728000    8584.6012       242350        10618 
48480000    1.0115492   -3.3026271      1728000    8586.4431       242400        10620 
48490000   0.98345605   -3.3039551      1728000    8588.2602       242450        10622 
48500000   0.99129751   -3.2996871      1728000    8590.1207       242500        10622 
48510000   0.94467757   -3.1986577      1728000    8591.9531       242550        10623 
48520000   0.95973257   -3.1410799      1728000    8593.7824       242600        10625 
48530000   0.94658511   -3.1317856      1728000    8595.5992       242650        10626 
48540000   0.98068598   -3.2165095      1728000    8597.4392       242700        10627 
48550000   0.94211925   -3.3551655      1728000    8599.2413       242750        10628 
48560000    1.0032077   -3.3058089      1728000    8601.0692       242800        10628 
48570000     1.015159   -3.3094537      1728000    8602.8911       242850        10631 
48580000    1.0402979   -3.2935709      1728000    8604.7103       242900        10631 
48590000     1.037491    -3.235803      1728000    8606.5162       242950        10634 
48600000   0.98444688   -3.2648455      1728000    8608.3312       243000        10635 
48610000    1.0706561   -3.3673434      1728000    8610.1442       243050        10639 
48620000   0.94345871   -3.2317641      1728000    8611.9684       243100        10640 
48630000    1.0835712   -3.2830796      1728000    8613.7763       243150        10641 
48640000     1.010088   -3.3676717      1728000    8615.6573       243200        10641 
48650000    1.0213567   -3.3649305      1728000    8617.4837       243250        10642 
48660000   0.99959187   -3.1966179      1728000    8619.2833       243300        10644 
48670000    1.0115009   -3.1265944      1728000    8621.1133       243350        10645 
48680000   0.98510028   -3.2050538      1728000    8622.9218       243400        10645 
48690000    1.0009849   -3.2326876      1728000    8624.7531       243450        10647 
48700000   0.97782427   -3.2353217      1728000    8626.6343       243500        10652 
48710000    1.0180063   -3.1382692      1728000    8628.4501       243550        10652 
48720000    1.0196022   -3.0936673      1728000    8630.2401       243600        10655 
48730000    1.0238109   -3.1373807      1728000    8632.0701       243650        10658 
48740000    1.0266917   -3.2566475      1728000    8633.8722       243700        10658 
48750000   0.97367153   -3.2335654      1728000     8635.702       243750        10662 
48760000    1.1085924   -3.1217508      1728000    8637.5516       243800        10664 
48770000   0.97942701    -3.256177      1728000    8639.3753       243850        10665 
48780000   0.96527031   -3.1469844      1728000    8641.1726       243900        10665 
48790000   0.93790973    -3.388486      1728000    8642.9892       243950        10666 
48800000   0.94864878   -3.2924335      1728000    8644.8305       244000        10667 
48810000     1.019901   -3.1775567      1728000    8646.6302       244050        10669 
48820000   0.95075564   -3.1745977      1728000    8648.4369       244100        10669 
48830000     1.105783   -3.2427524      1728000    8650.2603       244150        10671 
48840000    1.1390308   -3.2634004      1728000    8652.0859       244200        10675 
48850000   0.98652734   -3.1611911      1728000    8653.8889       244250        10678 
48860000   0.94776301   -3.1963298      1728000    8655.7193       244300        10679 
48870000   0.98492596   -3.1607472      1728000    8657.5287       244350        10682 
48880000    1.0663828    -3.276152      1728000    8659.3184       244400        10684 
48890000   0.95993407   -3.2825042      1728000      8661.13       244450        10684 
48900000   0.98612452   -3.1973862      1728000    8662.9792       244500        10684 
48910000   0.93137814   -3.3074127      1728000    8664.7723       244550        10684 
48920000    1.0236692   -3.1292494      1728000    8666.5883       244600        10686 
48930000   0.97468931   -3.0249949      1728000    8668.3923       244650        10686 
48940000     1.046432   -3.1428377      1728000    8670.1676       244700        10689 
48950000    1.0090735     -3.21514      1728000    8672.0284       244750        10689 
48960000    1.0152179   -3.2003448      1728000    8673.8253       244800        10690 
48970000    1.0217378   -3.2913218      1728000    8675.6223       244850        10695 
48980000    1.0945508   -3.2028506      1728000    8677.4233       244900        10696 
48990000    1.0543471   -3.0588898      1728000    8679.2153       244950        10697 
49000000    1.0036089   -3.1002788      1728000    8681.0543       245000        10697 
49010000    1.0011988   -3.1628084      1728000    8682.8452       245050        10698 
49020000    1.0640698   -3.2681786      1728000    8684.6453       245100        10700 
49030000   0.99082268   -3.2314735      1728000    8686.4573       245150        10702 
49040000   0.98734109   -3.1878359      1728000    8688.2892       245200        10705 
49050000   0.95805834    -3.215517      1728000    8690.0821       245250        10707 
49060000    0.9907612   -3.2565857      1728000    8691.8786       245300        10710 
49070000   0.96195865   -3.1092756      1728000    8693.6613       245350        10711 
49080000    1.0139214     -3.23592      1728000    8695.4642       245400        10712 
49090000   0.94257054   -3.1559603      1728000    8697.2633       245450        10713 
49100000    1.0167756   -3.2231459      1728000    8699.0663       245500        10716 
49110000    1.0055849   -3.0991942      1728000    8700.8734       245550        10720 
49120000    1.0200644   -3.1655345      1728000    8702.6733       245600        10721 
49130000   0.98961466    -3.275915      1728000    8704.5345       245650        10722 
49140000   0.95455083   -3.2956633      1728000    8706.3573       245700        10724 
49150000   0.99907786   -3.2735115      1728000    8708.1654       245750        10724 
49160000    1.0135582   -3.2056999      1728000    8710.0004       245800        10725 
49170000   0.94789567   -3.2162602      1728000    8711.7993       245850        10726 
49180000    1.0213279   -3.1855917      1728000     8713.646       245900        10728 
49190000   0.93691282   -3.1241316      1728000    8715.5314       245950        10731 
49200000     1.042011    -3.260791      1728000    8717.5063       246000        10732 
49210000    1.0086359    -3.273295      1728000    8719.4233       246050        10733 
49220000    1.0692692   -3.1923267      1728000    8721.2382       246100        10734 
49230000    1.0193252   -3.0907266      1728000     8723.038       246150        10735 
49240000   0.98848275   -3.1993601      1728000     8724.832       246200        10738 
49250000   0.97013819   -3.1941826      1728000    8726.6312       246250        10739 
49260000   0.94232698    -3.115847      1728000    8728.4036       246300        10741 
49270000    1.0037889   -3.2249608      1728000    8730.2194       246350        10743 
49280000    1.0765208   -3.2578336      1728000    8732.0376       246400        10743 
49290000    1.0129569   -3.3198788      1728000    8733.8762       246450        10744 
49300000    1.0114121    -3.246662      1728000    8735.7028       246500        10746 
49310000    1.0263255   -3.2075862      1728000     8737.506       246550        10747 
49320000    1.0004664    -3.353137      1728000    8739.3094       246600        10748 
49330000    1.0166539   -3.1157149      1728000    8741.1276       246650        10750 
49340000    1.0343823   -3.2229416      1728000    8742.9086       246700        10751 
49350000   0.94760123   -3.1809864      1728000    8744.7058       246750        10754 
49360000   0.99231153   -3.2735294      1728000    8746.5266       246800        10756 
49370000    1.0546319   -3.3358278      1728000    8748.3304       246850        10758 
49380000    1.0377546     -3.21458      1728000    8750.1273       246900        10759 
49390000    1.0295078   -3.2448894      1728000    8751.9517       246950        10760 
49400000    1.0298246    -3.286162      1728000     8753.785       247000        10760 
49410000   0.96650385   -3.2114573      1728000    8755.5781       247050        10761 
49420000    1.0485006   -3.1685183      1728000    8757.3804       247100        10761 
49430000   0.95244477   -3.2690154      1728000    8759.1864       247150        10762 
49440000   0.97706145   -3.1701849      1728000    8760.9863       247200        10764 
49450000    1.0459367   -3.2140763      1728000    8762.8003       247250        10766 
49460000   0.95816356    -3.248878      1728000    8764.6301       247300        10766 
49470000     1.017202   -3.2348544      1728000    8766.4467       247350        10767 
49480000   0.99229022   -3.1843444      1728000    8768.2583       247400        10767 
49490000   0.95777962   -3.2875457      1728000    8770.0715       247450        10767 
49500000    1.0279265   -3.2508304      1728000    8771.8961       247500        10769 
49510000    1.0160424   -3.3356308      1728000    8773.7246       247550        10770 
49520000    1.0369205   -3.3716086      1728000    8775.5805       247600        10772 
49530000    1.0103896   -3.2668926      1728000    8777.4094       247650        10774 
49540000   0.97855775   -3.2823625      1728000    8779.2294       247700        10776 
49550000   0.92907633   -3.1647395      1728000    8781.1472       247750        10779 
49560000    1.0000045   -3.3222478      1728000    8783.2123       247800        10781 
49570000   0.98454011   -3.0771382      1728000    8784.9785       247850        10782 
49580000     1.018872   -3.2518851      1728000     8786.821       247900        10784 
49590000    1.0320326   -3.2801869      1728000    8788.7395       247950        10785 
49600000   0.97752314   -3.1027256      1728000    8790.6814       248000        10785 
49610000   0.97873175   -3.3015519      1728000    8792.5905       248050        10789 
49620000   0.98353548   -3.2446225      1728000    8794.4975       248100        10791 
49630000    1.0713144   -3.1881684      1728000    8796.3208       248150        10792 
49640000   0.94888397   -3.3243539      1728000    8798.2883       248200        10794 
49650000   0.97272345   -3.2628888      1728000    8800.1985       248250        10796 
49660000    1.0348435   -3.2487097      1728000    8802.1599       248300        10796 
49670000   0.94517543   -3.3333137      1728000    8804.1056       248350        10796 
49680000    1.0173526   -3.2792188      1728000    8806.1142       248400        10798 
49690000   0.96075093   -3.4014436      1728000    8808.0562       248450        10801 
49700000    1.0018794   -3.3425411      1728000    8810.0642       248500        10802 
49710000    1.0539915   -3.1846875      1728000    8812.0532       248550        10805 
49720000   0.96989159   -3.2569237      1728000    8813.9651       248600        10806 
49730000   0.91110998   -3.2018142      1728000    8815.8916       248650        10807 
49740000    1.0584235   -3.2402905      1728000    8817.8678       248700        10809 
49750000    1.0002503   -3.2641066      1728000    8819.7449       248750        10810 
49760000   0.99773906   -3.2766775      1728000    8821.6544       248800        10813 
49770000   0.93804076   -3.2583236      1728000    8823.6177       248850        10813 
49780000    0.9949504   -3.3157145      1728000    8825.6291       248900        10815 
49790000    1.0248562   -3.3706928      1728000    8827.5949       248950        10816 
49800000   0.95621237   -3.3104498      1728000    8829.5716       249000        10816 
49810000    1.0598394   -3.1927525      1728000    8831.5303       249050        10816 
49820000    1.0046713   -3.2810623      1728000    8833.4974       249100        10816 
49830000     1.024926   -3.2411743      1728000    8835.4992       249150        10816 
49840000   0.99543534   -3.3408242      1728000    8837.4871       249200        10816 
49850000    0.9985041   -3.4239609      1728000    8839.4313       249250        10816 
49860000    1.0608792   -3.2179784      1728000    8841.4372       249300        10818 
49870000   0.96477304   -3.1674771      1728000    8843.4225       249350        10819 
49880000    1.0451116   -3.3605383      1728000    8845.4125       249400        10820 
49890000    1.0225958   -3.3227531      1728000    8847.4376       249450        10821 
49900000    1.0470196   -3.2895384      1728000    8849.4004       249500        10823 
49910000   0.99980326   -3.3268163      1728000    8851.3364       249550        10824 
49920000    1.0366709   -3.2748489      1728000    8853.2951       249600        10825 
49930000    1.0398887   -3.2976272      1728000    8855.2802       249650        10826 
49940000    1.0291301   -3.3129622      1728000    8857.2517       249700        10827 
49950000   0.99672498   -3.3112336      1728000    8859.2458       249750        10829 
49960000    1.0325331   -3.2295275      1728000    8861.2144       249800        10831 
49970000    1.0374138   -3.2451258      1728000    8863.1801       249850        10833 
49980000    1.0227206   -3.1985741      1728000    8865.1172       249900        10835 
49990000    1.0259108   -3.2663871      1728000    8867.0818       249950        10836 
50000000    1.0458805   -3.3580537      1728000    8869.0672       250000        10839 
Loop time of 8869.07 on 1 procs for 50000000 steps with 500 atoms

Performance: 4870860.633 tau/day, 5637.570 timesteps/s
99.4% CPU use with 1 MPI tasks x 1 OpenMP threads

MPI task timing breakdown:
Section |  min time  |  avg time  |  max time  |%varavg| %total
---------------------------------------------------------------
Pair    | 4412.9     | 4412.9     | 4412.9     |   0.0 | 49.76
Bond    | 1064.3     | 1064.3     | 1064.3     |   0.0 | 12.00
Neigh   | 1564.1     | 1564.1     | 1564.1     |   0.0 | 17.64
Comm    | 33.296     | 33.296     | 33.296     |   0.0 |  0.38
Output  | 21.481     | 21.481     | 21.481     |   0.0 |  0.24
Modify  | 1710.5     | 1710.5     | 1710.5     |   0.0 | 19.29
Other   |            | 62.42      |            |       |  0.70

Nlocal:    500 ave 500 max 500 min
Histogram: 1 0 0 0 0 0 0 0 0 0
Nghost:    0 ave 0 max 0 min
Histogram: 1 0 0 0 0 0 0 0 0 0
Neighs:    14435 ave 14435 max 14435 min
Histogram: 1 0 0 0 0 0 0 0 0 0

Total # of neighbors = 14435
Ave neighs/atom = 28.87
Ave special neighs/atom = 5.976
Neighbor list builds = 2565363
Dangerous builds = 0

################
## ULOOP    ####
################
clear
OMP_NUM_THREADS environment is not set. Defaulting to 1 thread. (../comm.cpp:87)
  using 1 OpenMP thread(s) per MPI task
variable rname delete
variable simname delete
variable folder delete
variable seed delete
variable E delete
variable RW delete
variable SimOutType delete
variable SimInType delete
variable jn delete
variable jf delete

next jbn
Increment via next: value 2 on partition 0
jump SELF #last line!!!

### If e.g. I run this on 10 partitions of 1 processor,
### and initialise the variable with 'uloop N'
### it will run 10 simulations with 'jobnumber' taking
### values 1-10. Then when a particular simulation finishes, the
### script will be run again with the next value of jobnumber,
### until N simulations have been run.
## SO ULOOP IS "SERIAL" BUT FOR SURE 10x1 PROCs ARE ALWAYS BUSY
Total wall time: 2:27:58
