LAMMPS (1 Feb 2019)
OMP_NUM_THREADS environment is not set. Defaulting to 1 thread. (../comm.cpp:87)
  using 1 OpenMP thread(s) per MPI task
####################################
####	ULOOP			####
####################################
variable jbn uloop 1  # run n simulations
variable startfrom equal 0
variable jn equal ${jbn}+${startfrom}
variable jn equal 1+${startfrom}
variable jn equal 1+0
print ${jn}
print 1
1
variable seed equal (${jn}+4)*51-2*${jbn}
variable seed equal (1+4)*51-2*${jbn}
variable seed equal (1+4)*51-2*1
variable seedr equal (${jn}+2)*22
variable seedr equal (1+2)*22

#
variable N equal 2000
timestep 0.01
variable Dt equal 100000
variable Temp equal 1.0
variable Norm equal 0.88585294441338
if "${jn} <= 2" then "variable E equal 1.5"
variable E equal 1.5
if "${jn} > 2 && ${jn} <= 4" then "variable E equal 1.5"
if "${jn} > 4 && ${jn} <= 6" then "variable E equal 2.0"
if "${jn} > 6 && ${jn} <= 8" then "variable E equal 2.5"
if "${jn} > 8 && ${jn} <= 10" then "variable E equal 3.0"
if "${jn} > 10 && ${jn} <= 12" then "variable E equal 3.5"
if "${jn} > 12 && ${jn} <= 14" then "variable E equal 4.0"
if "${jn} > 14 && ${jn} <= 16" then "variable E equal 4.5"
if "${jn} > 16 && ${jn} <= 18" then "variable E equal 5.0"

#
####################################
####	DEFINTIONS 	########
####################################
#
variable N equal 500
variable folder index RW_Dt${Dt}_E${E}
variable folder index RW_Dt100000_E${E}
variable folder index RW_Dt100000_E1.5
shell mkdir ${folder}
shell mkdir RW_Dt100000_E1.5
WARNING: Shell command 'mkdir' failed with error 'File exists' (../input.cpp:1287)
variable SimOutType index RW${jn}Dt${Dt}E${E}
variable SimOutType index RW1Dt${Dt}E${E}
variable SimOutType index RW1Dt100000E${E}
variable SimOutType index RW1Dt100000E1.5
variable rname index INIT/Poly.N${N}.dat
variable rname index INIT/Poly.N500.dat
variable simname index Poly.N${N}.${SimOutType}
variable simname index Poly.N500.${SimOutType}
variable simname index Poly.N500.RW1Dt100000E1.5
#
units lj
atom_style angle
boundary        p p p
neighbor 1.3 bin
neigh_modify every 5 delay 5 check yes
#
restart 1000000 ${folder}/Restart.neutr.${simname}.
restart 1000000 RW_Dt100000_E1.5/Restart.neutr.${simname}.
restart 1000000 RW_Dt100000_E1.5/Restart.neutr.Poly.N500.RW1Dt100000E1.5.
print ${rname}
print INIT/Poly.N500.dat
INIT/Poly.N500.dat
read_data ${rname}
read_data INIT/Poly.N500.dat
  orthogonal box = (-50 -50 -50) to (50 50 50)
  1 by 1 by 1 MPI processor grid
  reading atoms ...
  500 atoms
  scanning bonds ...
  1 = max bonds/atom
  scanning angles ...
  1 = max angles/atom
  reading bonds ...
  499 bonds
  reading angles ...
  498 angles
  2 = max # of 1-2 neighbors
  2 = max # of 1-3 neighbors
  4 = max # of 1-4 neighbors
  6 = max # of special neighbors

####################################
####	GROUPS	             #######
####################################
group blue type 1
500 atoms in group blue
group red type 2
0 atoms in group red
group grey type 3
0 atoms in group grey

change_box all x final -60 60 y final -60 60 z final -60 60 boundary f f f units box
  orthogonal box = (-60 -50 -50) to (60 50 50)
  orthogonal box = (-60 -60 -50) to (60 60 50)
  orthogonal box = (-60 -60 -60) to (60 60 60)

####################################
####	ANGLE	             #######
####################################
angle_style   cosine
angle_coeff  1 3.0  #20 sigma for realistic DNA (1 bead = 2.5 nm)

####################################
####	PAIRS	             #######
####################################
pair_style  soft 2.5
pair_modify     shift yes
pair_coeff      * * 20 1.12246152962189

variable prefactor equal ramp(0,50)
fix pushapart all adapt 1 pair soft a * * v_prefactor

####################################
####	FENE	             #######
####################################
bond_style   fene
special_bonds fene#<=== I M P O R T A N T (new command)
  2 = max # of 1-2 neighbors
  6 = max # of special neighbors
bond_coeff   1  30.0   1.6  1.0  1.0

####################################
####	FIXES	             #######
####################################
fix 1 all   nve
fix 2 all  langevin   1.0 1.0   1.0   ${seed}
fix 2 all  langevin   1.0 1.0   1.0   253

####################################
####	WALL	             #######
####################################
fix WALL all wall/lj126 xhi EDGE 1.0 1.0 1.122462048 xlo EDGE 1.0 1.0 1.122462048 yhi EDGE 1.0 1.0 1.122462048 ylo EDGE 1.0 1.0 1.122462048 zhi EDGE 1.0 1.0 1.122462048 zlo EDGE 1.0 1.0 1.122462048 units box

####################################
####	RESET TIME             #######
####################################
reset_timestep 0

####################################
####	SWAP - ATOMS         #######
####################################
##HERE I USE fix atom/swap to attempt an atom swap between types
## In theory, I don't need to do a loop as the fix does it every
## N timesteps
##FIRST Dt IS NOT SWAPPING ANYWAY!
group Polymer type 1 2 3
500 atoms in group Polymer
fix Aswap Polymer atom/swap ${Dt} ${N} ${seed} ${Temp} semi-grand yes types 1 2 3 mu 0.0 0.0 0.0
fix Aswap Polymer atom/swap 100000 ${N} ${seed} ${Temp} semi-grand yes types 1 2 3 mu 0.0 0.0 0.0
fix Aswap Polymer atom/swap 100000 500 ${seed} ${Temp} semi-grand yes types 1 2 3 mu 0.0 0.0 0.0
fix Aswap Polymer atom/swap 100000 500 253 ${Temp} semi-grand yes types 1 2 3 mu 0.0 0.0 0.0
fix Aswap Polymer atom/swap 100000 500 253 1 semi-grand yes types 1 2 3 mu 0.0 0.0 0.0
variable Swaps equal f_Aswap[2]/1.0
variable Attempts equal f_Aswap[1]/1.0

####################################
####    THERMO AND INTEGRATION
####################################
timestep 0.01
thermo 10000
thermo_style   custom   step  temp  epair vol cpu v_Attempts v_Swaps

####################################
####	EQUILIBRATION        #######
####################################
#THIS IS TO TEST
#PUT LARGER NUMBER WHEN DOING ACTUAL SIMULATIONS
run 100000
Neighbor list info ...
  update every 5 steps, delay 5 steps, check yes
  max neighbors/atom: 2000, page size: 100000
  master list distance cutoff = 2.42246
  ghost atom cutoff = 2.42246
  binsize = 1.21123, bins = 100 100 100
  1 neighbor lists, perpetual/occasional/extra = 1 0 0
  (1) pair soft, perpetual
      attributes: half, newton on
      pair build: half/bin/newton
      stencil: half/bin/3d/newton
      bin: standard
Per MPI rank memory allocation (min/avg/max) = 9.234 | 9.234 | 9.234 Mbytes
Step Temp E_pair Volume CPU v_Attempts v_Swaps 
       0            0            0      1728000            0            0            0 
   10000    1.0294079 0.0064934185      1728000    1.1424279          500          500 
   20000    0.9987672   0.01265543      1728000     2.116662          500          500 
   30000    1.0377049 0.0053002516      1728000     3.053041          500          500 
   40000   0.96298537   0.00420477      1728000     3.978956          500          500 
   50000   0.95514074 4.5880284e-05      1728000     4.935008          500          500 
   60000   0.97827728 4.9670865e-05      1728000    5.8282411          500          500 
   70000   0.96772811 0.00068691548      1728000     6.739372          500          500 
   80000    1.0272917 0.0015087736      1728000     7.664413          500          500 
   90000    1.0539828 0.0015163033      1728000    8.5690939          500          500 
  100000   0.98519253 0.0023363482      1728000    9.4496419          500          500 
Loop time of 9.45164 on 1 procs for 100000 steps with 500 atoms

Performance: 9141271.749 tau/day, 10580.176 timesteps/s
99.4% CPU use with 1 MPI tasks x 1 OpenMP threads

MPI task timing breakdown:
Section |  min time  |  avg time  |  max time  |%varavg| %total
---------------------------------------------------------------
Pair    | 0.57135    | 0.57135    | 0.57135    |   0.0 |  6.05
Bond    | 2.6067     | 2.6067     | 2.6067     |   0.0 | 27.58
Neigh   | 3.0907     | 3.0907     | 3.0907     |   0.0 | 32.70
Comm    | 0.13       | 0.13       | 0.13       |   0.0 |  1.38
Output  | 0.016956   | 0.016956   | 0.016956   |   0.0 |  0.18
Modify  | 2.8842     | 2.8842     | 2.8842     |   0.0 | 30.52
Other   |            | 0.1516     |            |       |  1.60

Nlocal:    500 ave 500 max 500 min
Histogram: 1 0 0 0 0 0 0 0 0 0
Nghost:    0 ave 0 max 0 min
Histogram: 1 0 0 0 0 0 0 0 0 0
Neighs:    847 ave 847 max 847 min
Histogram: 1 0 0 0 0 0 0 0 0 0

Total # of neighbors = 847
Ave neighs/atom = 1.694
Ave special neighs/atom = 1.996
Neighbor list builds = 4475
Dangerous builds = 0


unfix pushapart
unfix Aswap
reset_timestep 0

#######################################################
####	PAIRS -- REPULSIVE + REDS FERROMAGN 	#######
#######################################################
#ENERGYSCALE
variable Et equal ${E}/${Norm}
variable Et equal 1.5/${Norm}
variable Et equal 1.5/0.88585294441338

pair_style  lj/cut 1.8
pair_modify     shift yes
pair_coeff      * *  1.0 1.0 1.12246152962189

pair_coeff      1 1  ${Et} 1.0 1.8
pair_coeff      1 1  1.69328330335157 1.0 1.8
pair_coeff      1 2  1.0 1.0 1.12246152962189
pair_coeff      1 3  1.0 1.0 1.12246152962189

pair_coeff      2 2  ${Et} 1.0 1.8
pair_coeff      2 2  1.69328330335157 1.0 1.8
pair_coeff      2 3  1.0 1.0 1.12246152962189

pair_coeff      3 3  1.0 1.0 1.12246152962189
#######################################################


########################
## PER PRIMI VICINI   ##
########################
bond_style harmonic
special_bonds lj 1 1 1
  2 = max # of 1-2 neighbors
  2 = max # of 1-3 neighbors
  4 = max # of 1-4 neighbors
  6 = max # of special neighbors
bond_coeff 1 200 1.12246
#bond_style fene
#special_bonds fene
#bond_coeff 1 30 1.6 1.0 1.0

########################
## RECOLOR #############
########################
group Polymer type 1 2 3
500 atoms in group Polymer
variable smooth equal 10
variable dtsmooth equal ${Dt}/${smooth}
variable dtsmooth equal 100000/${smooth}
variable dtsmooth equal 100000/10
variable Nsmooth equal ${N}/${smooth}
variable Nsmooth equal 500/${smooth}
variable Nsmooth equal 500/10
fix Aswap Polymer atom/swap ${dtsmooth} ${Nsmooth} ${seedr} ${Temp} semi-grand yes types 1 2 3 mu 0.0 0.0 0.0
fix Aswap Polymer atom/swap 10000 ${Nsmooth} ${seedr} ${Temp} semi-grand yes types 1 2 3 mu 0.0 0.0 0.0
fix Aswap Polymer atom/swap 10000 50 ${seedr} ${Temp} semi-grand yes types 1 2 3 mu 0.0 0.0 0.0
fix Aswap Polymer atom/swap 10000 50 66 ${Temp} semi-grand yes types 1 2 3 mu 0.0 0.0 0.0
fix Aswap Polymer atom/swap 10000 50 66 1 semi-grand yes types 1 2 3 mu 0.0 0.0 0.0
variable Swaps equal f_Aswap[2]/1.0
variable Attempts equal f_Aswap[1]/1.0

####################################
####    DUMPS                 #######
####################################
##VMD
#dump 1 all custom 1000 ${folder}/${simname}.lammpstrj id mol type x y z
#dump_modify  1   format "%d %d %d %.5f %.5f %.5f"

##DAT
dump 2 all custom 100000 ${folder}/${simname}.* id type x y z ix iy iz
dump 2 all custom 100000 RW_Dt100000_E1.5/${simname}.* id type x y z ix iy iz
dump 2 all custom 100000 RW_Dt100000_E1.5/Poly.N500.RW1Dt100000E1.5.* id type x y z ix iy iz
#dump_modify   2   format "%d %d %.5f %.5f %.5f %d %d %d"

##CFG
#dump 3 all cfg 1000 ${folder}/CFG/${simname}.tot.*.cfg mass type xs ys zs id mol type
#dump_modify 3 element N C O Ca Xe

##XYZ
dump 4 all xyz 100000 XYZ_${simname}.xyz
dump 4 all xyz 100000 XYZ_Poly.N500.RW1Dt100000E1.5.xyz
dump_modify 4 element C O N Xe

###########################
thermo 10000
thermo_style   custom   step  temp  epair vol cpu v_Attempts v_Swaps
run 50000000
Neighbor list info ...
  update every 5 steps, delay 5 steps, check yes
  max neighbors/atom: 2000, page size: 100000
  master list distance cutoff = 3.1
  ghost atom cutoff = 3.1
  binsize = 1.55, bins = 78 78 78
  1 neighbor lists, perpetual/occasional/extra = 1 0 0
  (1) pair lj/cut, perpetual
      attributes: half, newton on
      pair build: half/bin/newton
      stencil: half/bin/3d/newton
      bin: standard
Per MPI rank memory allocation (min/avg/max) = 9.566 | 9.566 | 9.566 Mbytes
Step Temp E_pair Volume CPU v_Attempts v_Swaps 
       0   0.98519253    2.3011773      1728000            0            0            0 
   10000    1.0650091  -0.55715289      1728000   0.83438706           50           39 
   20000    1.0198129  -0.82091334      1728000    1.7105329          100           67 
   30000    1.0862888  -0.91409395      1728000    2.6345809          150           90 
   40000   0.97452035   -1.0028143      1728000    3.6156099          200          116 
   50000    1.0597413   -1.0835699      1728000    4.5708449          250          140 
   60000    1.0229545   -1.3691983      1728000      5.55094          300          169 
   70000    1.0157541   -1.4374483      1728000     6.581181          350          192 
   80000    1.0044506   -1.7474733      1728000     7.673043          400          217 
   90000    1.0538066   -1.7302116      1728000     8.844331          450          235 
  100000    1.0584851   -1.8844189      1728000    10.021516          500          254 
  110000    1.0000087   -1.9728369      1728000    11.178009          550          271 
  120000    1.0225271   -2.1977391      1728000    12.373703          600          291 
  130000   0.95346436   -2.4579107      1728000    13.649479          650          308 
  140000   0.99423685   -2.5346783      1728000    14.961111          700          320 
  150000    1.0467692   -2.6699428      1728000    16.357179          750          333 
  160000    1.0517589    -2.836598      1728000    17.740793          800          347 
  170000   0.94867988   -2.8495317      1728000    19.161037          850          362 
  180000   0.96125051   -3.2300416      1728000    20.630099          900          379 
  190000    1.0097253   -3.2871345      1728000    22.158146          950          389 
  200000    1.0355423   -3.3607523      1728000    23.679318         1000          398 
  210000    1.0561534   -3.5639373      1728000    25.275907         1050          407 
  220000    1.0490193    -3.604264      1728000    26.916427         1100          415 
  230000    1.0248466   -3.6156482      1728000    28.494503         1150          420 
  240000    1.0171182   -3.7218429      1728000    30.097561         1200          426 
  250000   0.97443237   -3.8752215      1728000     31.73323         1250          439 
  260000   0.93087291    -3.816962      1728000    33.384391         1300          446 
  270000    1.0250717   -4.0552956      1728000    35.039443         1350          451 
  280000    1.0143385   -3.9812393      1728000    36.716934         1400          456 
  290000   0.95912759   -3.8610496      1728000    38.364934         1450          462 
  300000   0.96337089   -3.9322844      1728000    40.002125         1500          469 
  310000     1.039329   -3.9402643      1728000     41.67853         1550          473 
  320000   0.97620973   -3.9961418      1728000     43.36281         1600          478 
  330000    1.0099853   -3.9318243      1728000    45.026766         1650          483 
  340000   0.96752311   -4.0746349      1728000    46.702994         1700          487 
  350000   0.99185668   -4.3204019      1728000    48.414318         1750          492 
  360000   0.99033744   -4.2553951      1728000    50.107757         1800          497 
  370000    1.0131633   -4.1853548      1728000    51.824165         1850          504 
  380000   0.98835564   -4.1611411      1728000    53.534692         1900          505 
  390000    1.0219435   -4.2512092      1728000    55.312015         1950          507 
  400000    1.0115585   -4.2361422      1728000    57.107894         2000          512 
  410000   0.97376828   -4.4182167      1728000    58.958573         2050          515 
  420000   0.97520675   -4.1778635      1728000    60.717252         2100          522 
  430000    1.0070665   -4.2450074      1728000    62.427967         2150          524 
  440000   0.99867382   -4.3213641      1728000    64.176439         2200          528 
  450000   0.97888014   -4.3734526      1728000    65.884855         2250          533 
  460000     1.000751   -4.3162478      1728000    67.576541         2300          537 
  470000    1.0424159   -4.4303336      1728000    69.274476         2350          540 
  480000    1.0207115   -4.3749472      1728000    71.057032         2400          541 
  490000   0.98447977    -4.428435      1728000    72.793267         2450          544 
  500000   0.95429914   -4.5513476      1728000    74.544946         2500          546 
  510000   0.97444076   -4.5592318      1728000    76.301489         2550          546 
  520000    1.0499497   -4.5248074      1728000    78.134406         2600          550 
  530000    1.0182156   -4.4694987      1728000    79.902545         2650          557 
  540000   0.94483637   -4.5483072      1728000    81.753805         2700          559 
  550000    1.0293388   -4.4911623      1728000    83.611967         2750          562 
  560000    1.0164449   -4.4493202      1728000    85.362927         2800          563 
  570000   0.96188814   -4.4684883      1728000     87.16579         2850          565 
  580000    1.0010311   -4.7240159      1728000    88.905458         2900          566 
  590000   0.98368976   -4.4344873      1728000    90.690718         2950          566 
  600000   0.95612036   -4.4912639      1728000    92.452082         3000          569 
  610000    1.0313013   -4.4820111      1728000    94.203288         3050          571 
  620000    1.0855307   -4.6564267      1728000    95.980469         3100          577 
  630000   0.99737892    -4.578665      1728000     97.69282         3150          579 
  640000    1.0246221   -4.6100515      1728000    99.396177         3200          581 
  650000   0.92620976   -4.5291292      1728000    101.11792         3250          582 
  660000    1.0106648   -4.5596893      1728000    102.83663         3300          584 
  670000    1.0159571   -4.6002537      1728000    104.55289         3350          584 
  680000    1.0331625   -4.5585202      1728000    106.26174         3400          588 
  690000    1.0166756   -4.7027547      1728000     107.9713         3450          592 
  700000   0.97640606   -4.6537422      1728000     109.6924         3500          595 
  710000    1.0242389   -4.5207007      1728000    111.41124         3550          598 
  720000    1.0076635   -4.6307904      1728000    113.12796         3600          600 
  730000    1.0430814   -4.6724832      1728000    114.83927         3650          601 
  740000    1.0096714   -4.6594837      1728000    116.56717         3700          604 
  750000   0.98773564   -4.6782872      1728000    118.29656         3750          605 
  760000    1.0190415   -4.6417296      1728000    120.01842         3800          606 
  770000    1.0537674   -4.7792963      1728000    121.73979         3850          608 
  780000    1.0469058   -4.6877172      1728000    123.46244         3900          610 
  790000     1.020906   -4.7338295      1728000    125.17556         3950          613 
  800000    1.0175727   -4.6759508      1728000    126.90947         4000          616 
  810000    1.0358858   -4.7586329      1728000    128.62956         4050          617 
  820000    1.0037706   -4.6035997      1728000    130.35136         4100          617 
  830000   0.98061647   -4.6072379      1728000     132.0676         4150          618 
  840000    1.0045728   -4.6720776      1728000    133.79829         4200          619 
  850000    1.0334275   -4.6438245      1728000     135.5124         4250          622 
  860000   0.95966149   -4.7226699      1728000    137.23612         4300          624 
  870000   0.99646999   -4.7173243      1728000    138.97724         4350          626 
  880000    1.0175678   -4.5896324      1728000    140.71118         4400          631 
  890000   0.97635766   -4.5339721      1728000     142.4283         4450          631 
  900000    1.0786486   -4.7804108      1728000    144.16424         4500          635 
  910000   0.95559911   -4.6820973      1728000    145.89634         4550          637 
  920000    1.0041115   -4.6386879      1728000    147.61922         4600          638 
  930000    1.0229047   -4.7125564      1728000    149.35224         4650          639 
  940000   0.97965698   -4.7083116      1728000     151.1053         4700          642 
  950000   0.95809042   -4.6805405      1728000    152.83404         4750          644 
  960000   0.92221408   -4.7177482      1728000    154.56445         4800          646 
  970000   0.97535822    -4.770717      1728000     156.2963         4850          646 
  980000   0.99185853   -4.7496024      1728000    158.04635         4900          646 
  990000   0.99463104   -4.7428219      1728000    159.79419         4950          646 
 1000000    0.9873599   -4.7644856      1728000    161.55438         5000          650 
 1010000    1.0446575   -4.7428011      1728000    163.28337         5050          650 
 1020000    1.0689911   -4.6709375      1728000     165.0122         5100          652 
 1030000    1.0386269     -4.76864      1728000    166.79346         5150          654 
 1040000     1.016485   -4.5637133      1728000    168.56354         5200          657 
 1050000   0.98812635   -4.6174496      1728000    170.31777         5250          661 
 1060000   0.95748049   -4.7174379      1728000    172.06562         5300          664 
 1070000    1.0257958   -4.7593665      1728000    173.81236         5350          666 
 1080000   0.98993087   -4.6720905      1728000    175.56224         5400          668 
 1090000   0.97354192   -4.7319515      1728000    177.29631         5450          670 
 1100000   0.97610638   -4.6493569      1728000    179.04953         5500          672 
 1110000    1.0141118   -4.8085117      1728000    180.79041         5550          672 
 1120000   0.97966076   -4.7989664      1728000    182.52342         5600          673 
 1130000   0.99972912   -4.6525926      1728000     184.2617         5650          674 
 1140000   0.95374888   -4.8062183      1728000    185.99416         5700          674 
 1150000    1.0415064   -4.7040189      1728000    187.73105         5750          675 
 1160000    1.0016419   -4.8007317      1728000    189.47038         5800          676 
 1170000    1.0621136   -4.7761742      1728000    191.21025         5850          676 
 1180000   0.99535667   -4.7747876      1728000    192.95748         5900          678 
 1190000   0.99999973    -4.756301      1728000    194.69324         5950          680 
 1200000    0.9966499   -4.8466135      1728000    196.46416         6000          683 
 1210000    1.0208387   -4.8458546      1728000    198.25865         6050          684 
 1220000   0.96364609    -4.854468      1728000    200.02141         6100          686 
 1230000   0.97538828   -5.0011726      1728000     201.7792         6150          687 
 1240000    1.0429617   -4.6776062      1728000    203.54695         6200          687 
 1250000   0.98236361   -4.9048257      1728000    205.31919         6250          689 
 1260000    1.0216098   -4.7598969      1728000     207.0692         6300          689 
 1270000    1.0621637   -4.8557959      1728000    208.82179         6350          690 
 1280000    1.0037799   -4.8245239      1728000    210.61226         6400          691 
 1290000   0.97383578   -4.9305414      1728000    212.37213         6450          692 
 1300000    1.0081023    -4.955539      1728000    214.14731         6500          693 
 1310000    1.0276759   -4.9127952      1728000     215.9061         6550          693 
 1320000   0.95599979   -4.9108772      1728000    217.66795         6600          694 
 1330000    1.0048424   -4.8033629      1728000    219.40917         6650          695 
 1340000   0.95815718   -4.8157322      1728000    221.14748         6700          697 
 1350000   0.97941385   -4.8511689      1728000    222.89931         6750          698 
 1360000   0.99400486   -4.9261179      1728000      224.652         6800          702 
 1370000   0.95042713   -4.9276087      1728000    226.45087         6850          703 
 1380000   0.98988184   -4.8542104      1728000    228.21115         6900          704 
 1390000   0.99941212   -4.9406141      1728000    229.97879         6950          705 
 1400000    1.0227159   -4.7520644      1728000    231.75433         7000          708 
 1410000   0.99037195   -4.8838807      1728000    233.52418         7050          710 
 1420000    1.0004065    -4.877424      1728000    235.29241         7100          711 
 1430000   0.97168349   -4.9151987      1728000    237.06616         7150          711 
 1440000    1.0471116   -4.7966333      1728000    238.81023         7200          713 
 1450000    1.0124265   -4.8298763      1728000    240.56218         7250          716 
 1460000   0.96858742   -4.8579198      1728000    242.31544         7300          717 
 1470000    1.0507297   -4.8785536      1728000    244.06436         7350          717 
 1480000   0.95056655   -5.0563596      1728000    245.82821         7400          720 
 1490000    1.0214081   -4.9333673      1728000    247.60846         7450          722 
 1500000   0.96903272   -4.9029357      1728000    249.38555         7500          722 
 1510000   0.99772601   -4.9686453      1728000    251.13629         7550          723 
 1520000    1.0181377   -4.9917945      1728000    252.88394         7600          726 
 1530000    1.0034253   -5.0118699      1728000    254.64188         7650          726 
 1540000   0.98393609     -5.05462      1728000    256.40727         7700          726 
 1550000    1.0153558   -5.0410958      1728000    258.17531         7750          726 
 1560000   0.95908163   -4.8791263      1728000    259.92817         7800          729 
 1570000   0.96543016   -4.9450388      1728000    261.67659         7850          729 
 1580000   0.96502803   -4.9678231      1728000    263.43818         7900          732 
 1590000   0.93320387   -5.0173539      1728000    265.20915         7950          734 
 1600000    1.0037056   -4.8984548      1728000    266.96834         8000          736 
 1610000   0.97135843   -4.8821856      1728000    268.72049         8050          739 
 1620000   0.97618403   -4.9625816      1728000    270.47158         8100          739 
 1630000   0.98802335   -4.8589695      1728000    272.22048         8150          740 
 1640000    0.9441417   -4.9127265      1728000    273.97067         8200          742 
 1650000   0.95060011   -4.8102867      1728000    275.72015         8250          743 
 1660000     1.032123   -4.8534325      1728000    277.47239         8300          745 
 1670000   0.99420537   -4.9649166      1728000    279.22291         8350          748 
 1680000    1.0174823   -4.9985778      1728000    280.96859         8400          748 
 1690000    0.9800438    -4.824855      1728000    282.71906         8450          749 
 1700000   0.99852997   -4.8582892      1728000    284.48255         8500          750 
 1710000   0.94812604   -4.8575869      1728000    286.23802         8550          752 
 1720000    1.0359364   -4.8972333      1728000    288.02829         8600          753 
 1730000    1.0684509   -4.9622697      1728000    289.81734         8650          755 
 1740000   0.98993584   -5.1231208      1728000    291.61284         8700          755 
 1750000     1.019949   -4.9492446      1728000    293.40636         8750          755 
 1760000    0.9660118   -4.9268315      1728000    295.18217         8800          756 
 1770000   0.96399176   -4.9523007      1728000    296.95708         8850          756 
 1780000   0.99066425   -4.9536339      1728000    298.71505         8900          757 
 1790000   0.97681746   -5.0768964      1728000    300.48019         8950          758 
 1800000    1.0253791   -4.8656684      1728000    302.26188         9000          758 
 1810000   0.98012508   -4.9218595      1728000    304.01985         9050          759 
 1820000   0.97409009   -4.9613295      1728000    305.77586         9100          761 
 1830000   0.98720215   -4.9990655      1728000    307.52897         9150          761 
 1840000    1.0266966   -4.9873869      1728000    309.28212         9200          762 
 1850000    1.0068686    -4.786001      1728000    311.05489         9250          764 
 1860000   0.98980083    -4.984876      1728000    312.82099         9300          768 
 1870000    1.0385909   -4.9783559      1728000    314.60604         9350          768 
 1880000    1.0310715   -5.0247919      1728000    316.37416         9400          771 
 1890000   0.97885227   -4.9318861      1728000    318.14196         9450          775 
 1900000   0.96630247   -4.7837681      1728000    319.92832         9500          776 
 1910000    1.0337463   -4.8947967      1728000    321.69314         9550          780 
 1920000    1.0153467   -4.8949872      1728000    323.46084         9600          780 
 1930000   0.95387531   -4.9073383      1728000    325.22602         9650          782 
 1940000   0.96064603   -4.8768145      1728000    327.01205         9700          782 
 1950000    1.0196226   -4.9833219      1728000    328.79235         9750          784 
 1960000    1.0205852   -5.0452439      1728000    330.56803         9800          784 
 1970000    1.0091303   -4.9556619      1728000    332.33656         9850          784 
 1980000    1.0170998   -4.9558631      1728000    334.10507         9900          784 
 1990000    1.0093941   -4.9072556      1728000    335.86882         9950          784 
 2000000    1.0094362   -4.9986525      1728000    337.64413        10000          784 
 2010000   0.97558095   -4.9623233      1728000    339.42606        10050          785 
 2020000    1.0072031   -4.8783455      1728000    341.18401        10100          785 
 2030000    1.0101489   -4.9085057      1728000    342.94382        10150          785 
 2040000    1.0543976   -4.9722523      1728000     344.7307        10200          786 
 2050000   0.97538266   -4.9140009      1728000     346.5089        10250          786 
 2060000   0.97793299   -5.0440539      1728000     348.3145        10300          786 
 2070000   0.95969575   -5.0306444      1728000    350.10403        10350          787 
 2080000    1.0061839   -4.8952481      1728000    351.87494        10400          788 
 2090000    0.9541105   -4.8739603      1728000    353.65921        10450          789 
 2100000   0.93218606   -5.0138912      1728000    355.45606        10500          791 
 2110000    1.0119697   -4.9570353      1728000    357.20714        10550          794 
 2120000    1.0093479   -4.9662633      1728000     358.9638        10600          794 
 2130000    1.0364017   -4.9821838      1728000    360.73509        10650          795 
 2140000   0.95271454    -5.074124      1728000    362.50808        10700          795 
 2150000    1.0259922   -4.9935228      1728000    364.27634        10750          796 
 2160000     1.057526   -4.9316861      1728000    366.03518        10800          796 
 2170000    1.0061343   -5.0601359      1728000    367.80406        10850          797 
 2180000     1.035164   -4.9678318      1728000    369.57903        10900          797 
 2190000    0.9769989   -4.9877328      1728000    371.33057        10950          798 
 2200000      1.01641   -4.9055582      1728000      373.087        11000          799 
 2210000    1.0532248   -4.8659996      1728000    374.83522        11050          799 
 2220000   0.95515778   -4.8954512      1728000    376.59091        11100          799 
 2230000   0.99532591   -4.8854413      1728000    378.33317        11150          800 
 2240000   0.96118552    -4.995225      1728000     380.0723        11200          802 
 2250000   0.98901814    -4.975694      1728000    381.82195        11250          803 
 2260000    1.0075178   -4.9950564      1728000    383.60451        11300          804 
 2270000    1.0109071   -4.8708362      1728000     385.3692        11350          804 
 2280000   0.98097863    -5.017907      1728000    387.14485        11400          805 
 2290000   0.97795989    -5.000155      1728000    388.93945        11450          806 
 2300000    1.0070805   -4.9558098      1728000    390.72736        11500          806 
 2310000    1.0047675   -4.8673998      1728000    392.47539        11550          806 
 2320000    1.0242921   -4.9767621      1728000    394.24128        11600          806 
 2330000   0.97203026   -4.9458256      1728000    396.00214        11650          807 
 2340000   0.98703132     -4.87002      1728000    397.75211        11700          808 
 2350000   0.95947079    -4.870323      1728000    399.50534        11750          808 
 2360000    1.0269724   -4.8628297      1728000    401.26718        11800          809 
 2370000   0.97565758   -4.9875891      1728000    403.03038        11850          810 
 2380000    1.0006786   -4.8614702      1728000     404.7984        11900          810 
 2390000    1.0126471   -4.9564524      1728000    406.55179        11950          810 
 2400000   0.96704376    -4.889507      1728000    408.31589        12000          810 
 2410000    1.0361374   -4.9226554      1728000    410.06973        12050          811 
 2420000    1.0116998   -5.0260757      1728000    411.81912        12100          815 
 2430000    1.0114994   -4.9552892      1728000    413.57504        12150          817 
 2440000   0.98342162   -5.0608878      1728000    415.33893        12200          818 
 2450000    1.0235287    -4.816517      1728000    417.10745        12250          819 
 2460000   0.98213589   -5.0116439      1728000    418.87897        12300          819 
 2470000   0.94808616   -4.9752006      1728000    420.65492        12350          819 
 2480000     1.015569   -5.0736983      1728000    422.42331        12400          820 
 2490000    1.0497621   -4.9052015      1728000    424.19518        12450          821 
 2500000   0.94423541   -5.0029517      1728000     425.9649        12500          822 
 2510000    1.1002273   -4.8923251      1728000    427.72096        12550          822 
 2520000    1.0332591   -4.9683444      1728000    429.48028        12600          823 
 2530000    1.0783275   -4.8218446      1728000    431.23892        12650          825 
 2540000   0.97233639   -4.9757814      1728000    433.00616        12700          825 
 2550000   0.99708369   -5.0094454      1728000    434.77018        12750          826 
 2560000     1.039379   -5.0409994      1728000    436.53235        12800          828 
 2570000   0.97852583   -4.9627239      1728000    438.30773        12850          829 
 2580000    1.0589984   -4.8534106      1728000     440.0596        12900          830 
 2590000    1.0612412   -4.7861752      1728000    441.81177        12950          833 
 2600000    1.0303361   -5.0923198      1728000    443.58235        13000          833 
 2610000   0.97815213   -4.9704473      1728000    445.38572        13050          834 
 2620000   0.99664572   -4.8083097      1728000    447.18425        13100          836 
 2630000    1.0298432   -4.9324075      1728000    448.97629        13150          837 
 2640000   0.99904747   -4.9913007      1728000    450.78776        13200          837 
 2650000   0.96971248   -4.9202694      1728000    452.63487        13250          837 
 2660000    1.0632751    -4.979453      1728000    454.40219        13300          838 
 2670000   0.98042608    -4.908334      1728000     456.1887        13350          839 
 2680000    1.0420154   -4.9407318      1728000    457.95924        13400          841 
 2690000   0.97355225   -5.0176446      1728000    459.73719        13450          841 
 2700000    1.0305948    -4.982453      1728000    461.50177        13500          842 
 2710000    1.1004376   -5.0072952      1728000    463.25478        13550          843 
 2720000    1.0051888   -4.9779926      1728000    465.00822        13600          844 
 2730000    1.0700778   -4.9868281      1728000    466.76499        13650          845 
 2740000   0.98064441   -4.9218939      1728000    468.51621        13700          846 
 2750000    1.0218092   -5.0087818      1728000    470.27992        13750          846 
 2760000   0.96652437   -4.9053675      1728000    472.05519        13800          846 
 2770000    1.0068592   -4.9070945      1728000    473.83292        13850          847 
 2780000   0.96649914    -4.852248      1728000    475.64204        13900          848 
 2790000    1.0195084   -4.9564673      1728000    477.41374        13950          849 
 2800000      1.00979   -4.8660008      1728000    479.20381        14000          851 
 2810000    1.0135404   -4.9401968      1728000    480.98776        14050          851 
 2820000   0.96953152   -5.0315966      1728000    482.75796        14100          851 
 2830000     1.084986    -4.989006      1728000      484.565        14150          851 
 2840000   0.98694231   -5.1422446      1728000    486.35949        14200          851 
 2850000    1.0164775   -5.0381767      1728000    488.16997        14250          852 
 2860000   0.98900205   -4.8348638      1728000    489.97168        14300          852 
 2870000   0.95168355   -4.9072476      1728000    491.75002        14350          852 
 2880000   0.91748518   -5.1362878      1728000     493.5197        14400          854 
 2890000    1.0230791   -5.0531874      1728000    495.29545        14450          854 
 2900000    1.0286838   -5.1168722      1728000    497.06199        14500          855 
 2910000    1.0150821   -4.9976508      1728000    498.86177        14550          857 
 2920000    0.9558229   -4.9708955      1728000    500.65991        14600          859 
 2930000    1.0082184   -5.0130376      1728000    502.44065        14650          859 
 2940000    1.0019274   -4.9746276      1728000    504.22918        14700          860 
 2950000   0.97280372   -5.0811525      1728000    506.02808        14750          861 
 2960000    1.0545689   -5.0811714      1728000    507.80474        14800          861 
 2970000    1.0164276   -4.9206714      1728000    509.61306        14850          863 
 2980000   0.95819973   -5.0648722      1728000    511.43183        14900          863 
 2990000    1.0351409   -4.9090675      1728000     513.2229        14950          863 
 3000000    1.0301594   -4.9687834      1728000    515.02265        15000          863 
 3010000    1.0447749     -5.08333      1728000     516.7953        15050          866 
 3020000    1.0041151   -5.0628243      1728000     518.5688        15100          867 
 3030000   0.99902911   -5.0677992      1728000     520.3528        15150          868 
 3040000   0.92950449   -5.0753128      1728000    522.14148        15200          869 
 3050000    1.0218236   -5.1141349      1728000     523.9297        15250          869 
 3060000    1.0189031   -4.9999475      1728000    525.69754        15300          869 
 3070000   0.96673942   -4.9825428      1728000    527.46184        15350          869 
 3080000   0.96056484    -4.957774      1728000    529.21558        15400          870 
 3090000    1.0030973   -5.0078068      1728000    530.98467        15450          871 
 3100000    1.0275997   -5.0108084      1728000    532.77268        15500          872 
 3110000   0.96020375   -5.0224646      1728000      534.546        15550          876 
 3120000   0.96448061   -4.9838204      1728000    536.34866        15600          876 
 3130000   0.93784621   -4.9776211      1728000    538.12676        15650          877 
 3140000   0.94178211   -5.0422395      1728000    539.89267        15700          879 
 3150000    1.0491053   -5.0668274      1728000    541.66266        15750          879 
 3160000   0.96993078   -4.9145077      1728000    543.46122        15800          880 
 3170000    1.0312524   -4.9990839      1728000    545.23898        15850          881 
 3180000   0.99359713   -5.0155238      1728000    547.02172        15900          881 
 3190000    0.9997509   -4.9612598      1728000    548.79477        15950          882 
 3200000   0.98272531   -5.0820216      1728000     550.5688        16000          884 
 3210000    1.0630426   -4.9955791      1728000    552.34424        16050          884 
 3220000    1.0050991   -5.0349203      1728000     554.1248        16100          884 
 3230000    1.0766805   -5.1161151      1728000    555.90955        16150          884 
 3240000   0.94977055     -4.97132      1728000    557.69841        16200          885 
 3250000   0.96194705   -4.9511435      1728000    559.50547        16250          885 
 3260000   0.96137621    -5.038503      1728000     561.3158        16300          885 
 3270000   0.97528883   -5.0277517      1728000     563.1057        16350          885 
 3280000    1.0085006   -4.9485643      1728000    564.90918        16400          885 
 3290000   0.98399117   -4.9618436      1728000    566.68765        16450          886 
 3300000    1.0036232   -5.1160205      1728000    568.47775        16500          887 
 3310000   0.99108908   -5.0584757      1728000    570.24207        16550          887 
 3320000    1.0315261   -5.0586088      1728000    572.03709        16600          888 
 3330000   0.97042761   -5.1325063      1728000    573.81429        16650          888 
 3340000    1.0166371   -5.0519322      1728000    575.59396        16700          888 
 3350000   0.99425535   -5.1333268      1728000    577.35892        16750          888 
 3360000    1.0306113   -4.9914283      1728000    579.13962        16800          890 
 3370000    1.0078812   -5.0675346      1728000    580.92668        16850          890 
 3380000    1.0020348    -5.006289      1728000    582.70987        16900          890 
 3390000    1.0461794   -5.1563378      1728000    584.49888        16950          891 
 3400000   0.99507794   -5.1066869      1728000    586.27976        17000          896 
 3410000   0.96441085    -4.963954      1728000     588.0582        17050          897 
 3420000   0.98286365   -5.0780646      1728000    589.82917        17100          898 
 3430000    1.0575399   -5.0006027      1728000    591.61741        17150          898 
 3440000   0.94577747   -4.8952097      1728000    593.41761        17200          898 
 3450000    1.0506269   -4.9589668      1728000    595.18589        17250          899 
 3460000    1.0328982   -5.0882831      1728000    596.97867        17300          899 
 3470000    1.0482543   -5.0845591      1728000    598.75666        17350          900 
 3480000   0.95798918   -4.9928614      1728000    600.55065        17400          901 
 3490000    1.0627384   -5.1239086      1728000    602.32782        17450          902 
 3500000    1.0054442   -5.0042596      1728000    604.12065        17500          902 
 3510000    1.0671416   -4.9735219      1728000    605.90555        17550          904 
 3520000    1.0285262   -5.0353942      1728000    607.69658        17600          904 
 3530000    1.0032249   -5.0397469      1728000    609.47879        17650          905 
 3540000    1.0396498   -4.8990965      1728000     611.2646        17700          905 
 3550000    1.0118997   -5.0166035      1728000    613.06065        17750          906 
 3560000    1.0449881   -4.9903711      1728000    614.85755        17800          907 
 3570000    0.9634398   -5.0354233      1728000    616.67048        17850          907 
 3580000   0.95603429    -4.959598      1728000    618.45848        17900          910 
 3590000    1.0185404   -4.9009653      1728000    620.23639        17950          913 
 3600000    1.0265374   -5.0791025      1728000    622.05649        18000          914 
 3610000   0.98053078   -5.0089957      1728000    623.85775        18050          915 
 3620000   0.94273694   -4.9799793      1728000    625.65565        18100          917 
 3630000    0.9331868   -5.0568027      1728000    627.44402        18150          919 
 3640000    1.0120516    -5.140281      1728000    629.24202        18200          920 
 3650000   0.96408654   -4.8611334      1728000    631.04296        18250          921 
 3660000    1.0500168   -5.0082857      1728000    632.83364        18300          921 
 3670000    1.0125305   -5.0224455      1728000    634.61318        18350          921 
 3680000    0.9394692   -4.9869312      1728000    636.38361        18400          922 
 3690000   0.97006523   -5.0683771      1728000    638.15749        18450          922 
 3700000   0.98111912   -4.9585786      1728000    639.93557        18500          922 
 3710000   0.94851038   -4.9556637      1728000    641.69865        18550          923 
 3720000   0.98779242   -5.0152811      1728000    643.47579        18600          925 
 3730000    1.0393943   -5.1332937      1728000    645.24368        18650          927 
 3740000   0.94472367    -5.082413      1728000    647.02478        18700          929 
 3750000   0.99116992    -4.990766      1728000    648.80345        18750          930 
 3760000    0.9648447   -4.8923154      1728000    650.59051        18800          933 
 3770000   0.99003931   -4.9214165      1728000    652.39064        18850          934 
 3780000    1.0111592   -5.0632681      1728000    654.20057        18900          935 
 3790000   0.98823146   -5.1344936      1728000     656.0334        18950          935 
 3800000    1.0147543   -5.0453525      1728000    657.84128        19000          937 
 3810000    1.0157771   -5.1100803      1728000    659.65253        19050          937 
 3820000   0.95625345   -5.0934216      1728000    661.45454        19100          937 
 3830000    1.0253943   -5.1507439      1728000    663.27959        19150          938 
 3840000    1.0472305     -5.05101      1728000    665.07059        19200          939 
 3850000   0.93399352   -5.1022754      1728000    666.90572        19250          941 
 3860000    1.0061464   -5.0932378      1728000    668.69763        19300          941 
 3870000   0.95767743   -5.0244749      1728000    670.48555        19350          941 
 3880000   0.99149755   -5.1679576      1728000    672.26825        19400          942 
 3890000   0.95950425   -5.0471195      1728000    674.08138        19450          944 
 3900000   0.98765627   -5.0758202      1728000    675.88959        19500          945 
 3910000   0.99363401   -5.1505996      1728000    677.69162        19550          947 
 3920000    1.0236632   -5.1186293      1728000    679.50645        19600          949 
 3930000     0.994943   -5.1236487      1728000    681.32956        19650          949 
 3940000   0.95339531   -5.1247531      1728000    683.15515        19700          949 
 3950000   0.99600495   -5.1527309      1728000     684.9824        19750          949 
 3960000   0.95645581   -5.0838928      1728000    686.81654        19800          949 
 3970000   0.95954448   -5.2151403      1728000    688.64045        19850          950 
 3980000   0.99556964   -5.0354159      1728000    690.88647        19900          950 
 3990000    1.0406114   -5.0833273      1728000    693.00542        19950          952 
 4000000    0.9861514    -5.074258      1728000    694.95482        20000          953 
 4010000   0.93839902   -5.1706699      1728000    696.81987        20050          953 
 4020000   0.99818294    -5.104582      1728000    698.67297        20100          953 
 4030000    1.0161954    -5.250855      1728000    700.52263        20150          954 
 4040000    1.0560878   -5.0553613      1728000     702.3605        20200          954 
 4050000    1.0411395   -5.0999394      1728000    704.16543        20250          955 
 4060000    0.9541994   -5.1764823      1728000    705.97135        20300          955 
 4070000    1.0319497   -5.1171482      1728000    707.77547        20350          955 
 4080000     1.061261   -5.0380124      1728000     709.5635        20400          956 
 4090000   0.97781755   -5.0234453      1728000    711.37653        20450          957 
 4100000    0.9997263    -5.127112      1728000    713.20847        20500          959 
 4110000    1.0313152   -5.0864719      1728000     715.0366        20550          959 
 4120000    1.0343744   -5.1470379      1728000    716.88141        20600          959 
 4130000    1.0029954   -5.1487227      1728000    718.71851        20650          960 
 4140000   0.93339411   -5.1393598      1728000     720.5573        20700          961 
 4150000   0.96636172   -5.0362918      1728000    722.38644        20750          961 
 4160000     1.068032   -5.1065381      1728000    724.19635        20800          962 
 4170000     1.016839   -5.0140513      1728000    726.00618        20850          962 
 4180000   0.93988643   -5.1711939      1728000    727.83129        20900          962 
 4190000   0.97768859   -5.1332846      1728000    729.63955        20950          962 
 4200000    1.1211651   -5.1424409      1728000    731.46027        21000          962 
 4210000    1.0061783   -4.9799834      1728000    733.27825        21050          964 
 4220000   0.98680591   -5.0232996      1728000     735.0915        21100          964 
 4230000   0.95533136   -5.0863224      1728000    736.88237        21150          964 
 4240000     1.024183   -5.2218776      1728000    738.69549        21200          964 
 4250000   0.98641769    -4.926479      1728000    740.52244        21250          965 
 4260000   0.97021443   -5.0867908      1728000    742.33606        21300          965 
 4270000    1.0121652    -5.187057      1728000    744.20121        21350          965 
 4280000    1.0218516   -5.1000306      1728000    746.01449        21400          966 
 4290000    1.0141181   -5.1463081      1728000    747.81113        21450          966 
 4300000    1.0107693   -5.1729257      1728000    749.62747        21500          966 
 4310000   0.98265969   -5.0546579      1728000     751.4416        21550          966 
 4320000   0.96899272    -5.083949      1728000    753.27554        21600          966 
 4330000   0.97006083   -5.0966848      1728000    755.09947        21650          966 
 4340000   0.96530481   -5.2367409      1728000    756.94639        21700          966 
 4350000   0.97101394    -5.139954      1728000    758.77237        21750          966 
 4360000    0.9510027   -5.1891939      1728000    760.57817        21800          966 
 4370000   0.96931604    -5.140281      1728000    762.37062        21850          966 
 4380000    1.0143183   -5.1312785      1728000    764.19339        21900          967 
 4390000    0.9691208   -5.1214312      1728000    766.07233        21950          967 
 4400000   0.97179661    -5.135596      1728000    767.93032        22000          968 
 4410000   0.96443844   -5.1538624      1728000    769.76311        22050          968 
 4420000    1.0063077   -5.1275499      1728000    771.59142        22100          968 
 4430000    0.9838853   -5.2790772      1728000    773.43039        22150          968 
 4440000   0.90156571   -5.1049443      1728000    775.26433        22200          968 
 4450000    1.0166225   -5.2001816      1728000    777.07543        22250          969 
 4460000    1.0052703   -5.0947351      1728000    778.88904        22300          969 
 4470000   0.91079168   -5.1241165      1728000    780.68546        22350          970 
 4480000    0.9993973   -5.0190174      1728000    782.50282        22400          972 
 4490000    1.0516818   -5.1016239      1728000    784.30844        22450          972 
 4500000    1.0055423   -5.1566709      1728000    786.13233        22500          972 
 4510000   0.96804944   -5.0350093      1728000    787.93533        22550          972 
 4520000   0.98678014   -5.0913249      1728000    789.74923        22600          972 
 4530000    1.0086624   -5.1888639      1728000    791.56736        22650          972 
 4540000    1.0236445   -5.1942216      1728000    793.38632        22700          972 
 4550000    1.0213111   -5.1202739      1728000    795.21447        22750          974 
 4560000    1.0005751   -5.1078038      1728000    797.05552        22800          975 
 4570000    1.0146563   -5.0914694      1728000    798.88838        22850          975 
 4580000    1.0067296   -5.2239142      1728000    800.68933        22900          975 
 4590000   0.98862592   -5.1961724      1728000    802.49245        22950          976 
 4600000    1.0163699   -5.2520749      1728000     804.3263        23000          977 
 4610000    1.0123092   -5.1878882      1728000    807.29015        23050          978 
 4620000    1.0163596   -5.2157741      1728000    809.49842        23100          978 
 4630000   0.98239948   -5.0593527      1728000     811.4214        23150          978 
 4640000    1.0497632   -5.2184434      1728000    813.24932        23200          981 
 4650000    1.0620755   -5.0995701      1728000    815.13009        23250          982 
 4660000   0.97690369    -5.247257      1728000    817.25974        23300          982 
 4670000    1.0136329    -5.120344      1728000    819.46848        23350          982 
 4680000    1.0361426   -5.1981057      1728000    821.49626        23400          982 
 4690000   0.96240656   -5.1457207      1728000    823.67003        23450          982 
 4700000   0.96159358   -5.1496215      1728000    825.91673        23500          983 
 4710000   0.98988183   -5.0625581      1728000    828.13546        23550          983 
 4720000   0.96448884   -5.1437593      1728000    830.18436        23600          983 
 4730000     1.059538   -5.1941791      1728000    832.18231        23650          984 
 4740000    1.0165142   -5.2021685      1728000    834.06638        23700          984 
 4750000    1.0143329   -5.1454505      1728000     835.9423        23750          987 
 4760000    1.0097468   -5.0763917      1728000    837.86533        23800          988 
 4770000   0.96922889   -5.2047291      1728000    839.76035        23850          988 
 4780000    0.9836028   -5.1341013      1728000    841.64993        23900          989 
 4790000    1.0407655   -5.2069563      1728000    843.49314        23950          989 
 4800000   0.96566955   -4.9342679      1728000    845.38408        24000          989 
 4810000   0.96104185   -5.1070988      1728000    847.20977        24050          989 
 4820000    1.0211733   -5.0903805      1728000    849.11048        24100          990 
 4830000    1.0207541   -5.2092184      1728000    850.94601        24150          992 
 4840000   0.97086959   -5.1477948      1728000    852.78456        24200          993 
 4850000    1.0310355   -5.1609714      1728000     854.6343        24250          995 
 4860000    1.0097887   -5.1785182      1728000    856.55898        24300          996 
 4870000    1.0373367   -5.1874752      1728000    858.50712        24350          996 
 4880000    1.0134481   -5.0124154      1728000    860.38031        24400          997 
 4890000   0.99927523   -5.2099535      1728000    862.26973        24450          997 
 4900000   0.98290142   -5.1051411      1728000    864.12209        24500          998 
 4910000   0.95443565   -5.1369482      1728000    866.02587        24550          998 
 4920000    1.1020572   -5.1024157      1728000    868.08156        24600          999 
 4930000   0.99357429   -5.0840562      1728000    870.01144        24650         1000 
 4940000   0.99551144   -4.9717266      1728000    871.87826        24700         1001 
 4950000    1.0159213   -5.0593353      1728000    873.73147        24750         1002 
 4960000    1.0224063   -5.0374941      1728000     875.5902        24800         1002 
 4970000    1.0104969   -5.1825867      1728000    877.48415        24850         1003 
 4980000    1.0075976   -5.0387398      1728000    879.39149        24900         1005 
 4990000    1.0208688   -5.1079714      1728000    881.44339        24950         1008 
 5000000    1.0254598   -5.1685429      1728000    883.38919        25000         1008 
 5010000    1.0133842   -5.2470711      1728000    885.40713        25050         1009 
 5020000    1.0551561   -5.0343345      1728000    887.29099        25100         1009 
 5030000     1.067894   -5.0321501      1728000    889.20209        25150         1009 
 5040000    1.0036259   -5.1504115      1728000    891.15437        25200         1010 
 5050000   0.98029686    -5.176795      1728000    893.07745        25250         1010 
 5060000    1.0393784   -5.1872163      1728000    895.00537        25300         1010 
 5070000    1.0654773   -5.1066181      1728000    896.88944        25350         1010 
 5080000   0.97848859   -5.1717354      1728000    898.73216        25400         1010 
 5090000    1.0165424   -5.1652277      1728000    900.58145        25450         1011 
 5100000    1.0243886   -5.0397798      1728000    902.39885        25500         1013 
 5110000   0.98301284   -5.1924478      1728000    904.20884        25550         1014 
 5120000   0.98818095   -5.1938274      1728000    906.07713        25600         1014 
 5130000    1.0044012   -4.9954598      1728000    907.96178        25650         1014 
 5140000   0.99610031   -5.1743901      1728000    909.78742        25700         1014 
 5150000    1.0399519   -5.1244552      1728000    911.66366        25750         1014 
 5160000    1.0565753   -5.1283177      1728000    913.49592        25800         1014 
 5170000   0.97220266   -5.0240642      1728000    915.34926        25850         1014 
 5180000     1.002199    -5.148426      1728000    917.18836        25900         1014 
 5190000    1.0210556   -5.2063577      1728000    919.02699        25950         1015 
 5200000   0.97983838   -5.0381266      1728000    920.85639        26000         1015 
 5210000   0.98169022   -5.0983789      1728000    922.69085        26050         1015 
 5220000   0.97396983    -5.212184      1728000    924.55747        26100         1015 
 5230000    1.0222503   -5.2145777      1728000    926.39615        26150         1015 
 5240000   0.96297078   -5.1196491      1728000    928.26023        26200         1015 
 5250000    1.0164941   -5.2017604      1728000    930.13795        26250         1015 
 5260000    0.9973978   -5.0995785      1728000    931.98325        26300         1015 
 5270000    1.0077928   -5.1493956      1728000     933.8139        26350         1015 
 5280000   0.96053206   -5.1663801      1728000    935.68616        26400         1016 
 5290000    1.0358298   -5.0389501      1728000    937.55013        26450         1016 
 5300000    1.0342498   -5.1119505      1728000    939.51811        26500         1016 
 5310000    1.0260131   -5.2133313      1728000    941.38818        26550         1017 
 5320000    1.0118072   -5.0754163      1728000    943.28902        26600         1018 
 5330000   0.99325564   -5.1293529      1728000    945.15494        26650         1018 
 5340000   0.92054966   -5.0767263      1728000    947.01916        26700         1019 
 5350000    1.0013068   -5.0179304      1728000    948.90499        26750         1020 
 5360000    1.0009272   -5.1197602      1728000    950.80365        26800         1021 
 5370000   0.99477486   -5.3254781      1728000    952.67413        26850         1021 
 5380000   0.97886431   -4.9995652      1728000    954.53867        26900         1021 
 5390000   0.98872471   -5.2271592      1728000     956.4036        26950         1021 
 5400000    1.0092247   -5.0088373      1728000    958.26758        27000         1021 
 5410000   0.91535652   -5.1444613      1728000    960.14814        27050         1023 
 5420000    0.9712998   -5.1999873      1728000    962.01639        27100         1024 
 5430000   0.99408401   -5.1558001      1728000    963.89305        27150         1025 
 5440000    1.0374869   -5.0600891      1728000      965.751        27200         1025 
 5450000    1.0443009    -5.096311      1728000    967.62998        27250         1025 
 5460000    1.0240511   -5.0001031      1728000    969.49241        27300         1027 
 5470000   0.99940556   -5.1128591      1728000    971.39251        27350         1027 
 5480000   0.98184784   -5.0984872      1728000    973.26478        27400         1027 
 5490000    1.0079732   -5.1303537      1728000    975.14517        27450         1027 
 5500000    1.0138452   -5.1973108      1728000    976.97807        27500         1027 
 5510000    1.0486502   -5.0325899      1728000    978.92612        27550         1028 
 5520000   0.97057249   -5.1986428      1728000     980.8149        27600         1028 
 5530000   0.96690927   -5.2336003      1728000     982.6889        27650         1029 
 5540000    1.0150631   -5.1908739      1728000    984.56609        27700         1029 
 5550000     1.008409   -5.1603531      1728000    986.44117        27750         1030 
 5560000    1.0170456    -5.112551      1728000    988.36098        27800         1030 
 5570000    0.9910912   -5.0943019      1728000    990.28704        27850         1032 
 5580000    1.0182851    -5.201962      1728000      992.234        27900         1032 
 5590000    1.0878954   -5.1830429      1728000     994.1664        27950         1033 
 5600000   0.98733972   -5.1579225      1728000    996.10694        28000         1033 
 5610000   0.98468581   -5.0359519      1728000    998.03439        28050         1033 
 5620000    1.0291564   -5.0009221      1728000    999.88101        28100         1034 
 5630000    1.0448947   -5.1227172      1728000    1001.7725        28150         1035 
 5640000   0.95657129   -4.9870117      1728000    1003.6232        28200         1035 
 5650000   0.97895947   -5.0561525      1728000    1005.5962        28250         1035 
 5660000   0.99919014   -5.1342286      1728000    1007.5036        28300         1035 
 5670000    1.0321325   -5.0903635      1728000    1009.3894        28350         1035 
 5680000    1.0107497   -5.2207918      1728000    1011.2848        28400         1035 
 5690000    1.0398444   -5.0875141      1728000    1013.1422        28450         1035 
 5700000    1.0056756   -5.0167822      1728000    1014.9884        28500         1035 
 5710000   0.97903219   -5.1273264      1728000    1016.8387        28550         1036 
 5720000   0.92155987   -5.1047956      1728000    1018.7291        28600         1038 
 5730000    1.0228879   -5.0926271      1728000    1020.5769        28650         1040 
 5740000    1.0073839   -5.2158383      1728000    1022.4301        28700         1041 
 5750000    1.0015468   -5.1454279      1728000    1024.2677        28750         1041 
 5760000     1.022015   -5.0706301      1728000    1026.0949        28800         1042 
 5770000    0.9008476   -5.1962805      1728000     1027.943        28850         1042 
 5780000    1.0225243   -5.1842031      1728000    1029.7977        28900         1042 
 5790000    1.0547673   -5.1495005      1728000     1031.621        28950         1045 
 5800000    1.0042186   -5.2173103      1728000    1033.4879        29000         1046 
 5810000    1.0559277   -5.2136065      1728000     1035.309        29050         1047 
 5820000   0.97014096   -5.1206911      1728000     1037.137        29100         1047 
 5830000    1.0769191   -5.2079349      1728000    1038.9602        29150         1047 
 5840000   0.99317082   -5.1961421      1728000    1040.7938        29200         1050 
 5850000    1.0280678   -5.0271341      1728000    1042.6229        29250         1050 
 5860000   0.99737878   -5.1392363      1728000    1044.4411        29300         1052 
 5870000   0.97089889   -5.0956286      1728000    1046.2729        29350         1053 
 5880000    1.0507612   -5.2350569      1728000     1048.117        29400         1053 
 5890000    1.0102542   -5.0915349      1728000    1049.9461        29450         1054 
 5900000    1.0626169   -5.2038461      1728000    1051.7789        29500         1054 
 5910000    1.0653242   -5.1329859      1728000     1053.592        29550         1054 
 5920000    1.0571377   -5.1832861      1728000     1055.432        29600         1054 
 5930000    1.0257955   -5.1202585      1728000    1057.2699        29650         1054 
 5940000   0.96184673   -5.0893242      1728000    1059.1049        29700         1054 
 5950000   0.98724934   -5.1398942      1728000    1060.9538        29750         1054 
 5960000   0.98841075   -5.1751935      1728000     1062.796        29800         1054 
 5970000    1.0688622   -5.1219078      1728000    1064.6428        29850         1055 
 5980000   0.99401682   -5.1037427      1728000    1066.5469        29900         1055 
 5990000   0.92576775   -5.2075146      1728000     1068.404        29950         1055 
 6000000    1.0854432   -5.1369794      1728000     1070.236        30000         1055 
 6010000   0.99478505   -5.2386733      1728000    1072.0868        30050         1055 
 6020000   0.93594084   -5.0902342      1728000    1073.9149        30100         1055 
 6030000   0.98026694   -5.2541391      1728000    1075.7458        30150         1056 
 6040000    1.1363254   -5.1208286      1728000    1077.5799        30200         1056 
 6050000   0.99983241   -5.1233907      1728000     1079.433        30250         1057 
 6060000    1.0296147   -5.1890657      1728000    1081.2809        30300         1057 
 6070000    1.0558946   -5.1302453      1728000    1083.1407        30350         1057 
 6080000   0.99488643   -5.0793911      1728000     1084.994        30400         1057 
 6090000    1.0705676   -5.1580028      1728000    1086.8449        30450         1057 
 6100000   0.98262845   -5.1284764      1728000    1088.7011        30500         1059 
 6110000    0.9894275   -5.0618378      1728000    1090.5289        30550         1060 
 6120000    1.0305929   -5.1403964      1728000    1092.3982        30600         1061 
 6130000    1.0166721   -5.1388287      1728000    1094.2487        30650         1062 
 6140000    0.9477857   -5.0147866      1728000    1096.0739        30700         1062 
 6150000   0.97292323   -5.1471957      1728000    1097.8997        30750         1064 
 6160000   0.96769828   -5.0951778      1728000    1099.7529        30800         1064 
 6170000   0.97339394   -5.2232578      1728000    1101.5962        30850         1064 
 6180000   0.96393126   -5.2148902      1728000    1103.4488        30900         1065 
 6190000    1.0297919   -5.3034128      1728000    1105.2999        30950         1066 
 6200000   0.97412159   -5.2279643      1728000    1107.1558        31000         1066 
 6210000    1.0594296    -5.163088      1728000    1109.0092        31050         1068 
 6220000    0.8787298   -5.0738034      1728000    1110.8728        31100         1068 
 6230000    1.0314165   -5.1298985      1728000     1112.723        31150         1068 
 6240000   0.98616074   -5.0195428      1728000    1114.5399        31200         1070 
 6250000    1.0168155   -5.1501384      1728000     1116.369        31250         1070 
 6260000   0.94429905   -5.3098942      1728000    1118.2097        31300         1071 
 6270000   0.93908095   -5.1726347      1728000    1120.0769        31350         1072 
 6280000    1.0174364   -5.1113789      1728000      1121.95        31400         1074 
 6290000     1.039822   -5.2322983      1728000    1123.7857        31450         1076 
 6300000    1.0060798   -5.1212724      1728000    1125.6378        31500         1078 
 6310000    0.9654509   -5.1494941      1728000    1127.4957        31550         1078 
 6320000     1.001631   -5.3020855      1728000    1129.3578        31600         1079 
 6330000    1.0014986   -5.1821007      1728000    1131.2048        31650         1079 
 6340000   0.94763704   -5.2120905      1728000    1133.0419        31700         1079 
 6350000   0.98757941   -5.2305592      1728000     1134.896        31750         1081 
 6360000    1.0183409   -5.0902083      1728000    1136.7538        31800         1082 
 6370000    1.0369692    -5.318348      1728000    1138.6376        31850         1083 
 6380000   0.96216281    -5.246188      1728000    1140.5059        31900         1083 
 6390000    1.0098494   -5.1039154      1728000    1142.3597        31950         1084 
 6400000   0.95180896   -5.3253979      1728000    1144.2154        32000         1085 
 6410000    0.9652307   -5.1676045      1728000    1146.0767        32050         1086 
 6420000   0.97424376   -5.2306693      1728000    1147.9358        32100         1086 
 6430000   0.99732271   -5.1474773      1728000    1149.7567        32150         1086 
 6440000    1.0448327   -5.0923999      1728000    1151.5788        32200         1086 
 6450000    1.0250696   -5.1585559      1728000    1153.4107        32250         1086 
 6460000    1.0365988   -5.2014335      1728000    1155.2388        32300         1086 
 6470000    1.0729753   -5.1498589      1728000    1157.0688        32350         1087 
 6480000    1.0166775   -5.0880686      1728000    1158.9018        32400         1089 
 6490000    1.0872102   -5.1615217      1728000    1160.7378        32450         1089 
 6500000    1.0254523   -5.1001137      1728000      1162.57        32500         1091 
 6510000    1.0056363   -5.1276553      1728000    1164.3966        32550         1093 
 6520000   0.95388747   -5.2158097      1728000     1166.246        32600         1094 
 6530000    1.0032739   -5.1788676      1728000    1168.0778        32650         1095 
 6540000   0.99869058   -5.2908758      1728000    1169.9358        32700         1095 
 6550000   0.98463078   -5.1531885      1728000    1171.8046        32750         1095 
 6560000   0.97539044   -5.0233071      1728000    1173.6448        32800         1095 
 6570000   0.93155112   -5.2454064      1728000    1175.4718        32850         1096 
 6580000    1.0464994   -5.1208717      1728000    1177.3128        32900         1097 
 6590000   0.97381817   -5.1363079      1728000    1179.1407        32950         1099 
 6600000   0.94774619     -5.23616      1728000    1180.9659        33000         1100 
 6610000    1.0123579   -5.1072683      1728000    1182.8076        33050         1100 
 6620000     1.037254   -5.1694381      1728000    1184.6347        33100         1100 
 6630000    1.0031373   -5.1429065      1728000    1186.4668        33150         1100 
 6640000   0.92720172   -5.1378693      1728000    1188.2989        33200         1100 
 6650000    0.9853732   -5.2541624      1728000    1190.1502        33250         1100 
 6660000    1.0856037   -5.1739932      1728000    1192.0016        33300         1101 
 6670000    1.0215792    -5.347692      1728000    1193.8446        33350         1102 
 6680000    1.0111007   -5.1458757      1728000    1195.6997        33400         1102 
 6690000    1.0169706    -5.221015      1728000    1197.5427        33450         1104 
 6700000   0.96302898   -5.1925901      1728000    1199.3856        33500         1105 
 6710000    1.0132563   -5.2839408      1728000    1201.2103        33550         1105 
 6720000    1.0600128   -5.2239456      1728000    1203.0448        33600         1105 
 6730000    1.0086592   -5.2736177      1728000    1204.9402        33650         1105 
 6740000    1.0215627    -5.363095      1728000     1206.779        33700         1105 
 6750000    1.0141737   -5.2761663      1728000    1208.6237        33750         1105 
 6760000    1.0339962    -5.133004      1728000    1210.4696        33800         1106 
 6770000    1.0127041   -5.3010763      1728000     1212.324        33850         1106 
 6780000    1.0102545   -5.2181401      1728000    1214.1649        33900         1107 
 6790000   0.96771303   -5.1407953      1728000    1215.9917        33950         1107 
 6800000   0.98906437    -5.223056      1728000    1217.8394        34000         1107 
 6810000   0.96942164    -5.036452      1728000    1219.6837        34050         1107 
 6820000   0.96828735   -5.1334358      1728000    1221.5297        34100         1107 
 6830000    1.0019434   -5.2189859      1728000    1223.3698        34150         1108 
 6840000   0.96376536   -5.1312076      1728000    1225.2155        34200         1108 
 6850000    1.0249804   -5.2040855      1728000    1227.0736        34250         1109 
 6860000   0.97796779   -5.2590959      1728000    1228.9127        34300         1109 
 6870000   0.95802107   -5.1884679      1728000    1230.7487        34350         1109 
 6880000    1.0721956   -5.1458715      1728000    1232.5928        34400         1109 
 6890000    1.0766473   -5.2360786      1728000    1234.4247        34450         1110 
 6900000   0.98377972   -5.2602081      1728000    1236.2625        34500         1111 
 6910000   0.91258495   -5.2879562      1728000    1238.1106        34550         1111 
 6920000   0.99254148   -5.1450577      1728000    1239.9555        34600         1111 
 6930000    1.0121999   -5.1914482      1728000    1241.8025        34650         1111 
 6940000    1.0155851   -5.2001789      1728000     1243.631        34700         1111 
 6950000    1.0187097   -5.1935837      1728000     1245.461        34750         1111 
 6960000   0.94078567   -5.2979523      1728000    1247.3036        34800         1113 
 6970000    1.0374477   -5.1074314      1728000    1249.1476        34850         1114 
 6980000    1.0063317   -5.1665838      1728000    1250.9806        34900         1114 
 6990000    1.0325495   -5.1581077      1728000    1252.8136        34950         1114 
 7000000    1.0007992   -5.1001131      1728000    1254.6552        35000         1116 
 7010000    1.0386828   -5.2406757      1728000    1256.4807        35050         1116 
 7020000    1.0096241   -5.2467507      1728000    1258.3016        35100         1118 
 7030000   0.92590778   -5.3241108      1728000    1260.1297        35150         1119 
 7040000     1.031645   -5.1338614      1728000    1261.9618        35200         1119 
 7050000    1.0688418   -5.1964775      1728000    1263.7857        35250         1120 
 7060000    1.0980291    -5.224807      1728000    1265.6117        35300         1120 
 7070000    1.0268625    -5.313052      1728000    1267.4357        35350         1121 
 7080000    1.0017493   -5.4007511      1728000    1269.2817        35400         1121 
 7090000    1.0145265   -5.2951438      1728000    1271.1134        35450         1123 
 7100000   0.91747958   -5.2440078      1728000    1272.9545        35500         1123 
 7110000    1.0175875    -5.277182      1728000    1274.7935        35550         1123 
 7120000    1.0327014   -5.3238908      1728000    1276.6356        35600         1123 
 7130000   0.99609835   -5.2901104      1728000    1278.4836        35650         1123 
 7140000   0.96149673   -5.2754518      1728000    1280.3195        35700         1123 
 7150000   0.99583428   -5.3046517      1728000    1282.1485        35750         1124 
 7160000    1.0041471   -5.2005181      1728000    1284.0207        35800         1126 
 7170000    1.0515546   -5.1969104      1728000    1285.8734        35850         1126 
 7180000   0.97747261   -5.2467525      1728000    1287.7324        35900         1127 
 7190000   0.91989522    -5.365106      1728000    1289.5926        35950         1127 
 7200000   0.96165997   -5.2554974      1728000      1291.46        36000         1128 
 7210000    1.0711613   -5.1226692      1728000    1293.3135        36050         1128 
 7220000   0.97322071   -5.2252429      1728000    1295.1576        36100         1128 
 7230000   0.98299585   -5.1356587      1728000    1296.9916        36150         1128 
 7240000   0.98221038   -5.1696578      1728000    1298.8798        36200         1128 
 7250000   0.97602832    -5.233022      1728000    1300.7619        36250         1128 
 7260000     0.963626   -5.1707389      1728000    1302.6063        36300         1131 
 7270000   0.92577545   -5.2799591      1728000    1304.4484        36350         1132 
 7280000    1.0017162   -5.2482663      1728000    1306.2874        36400         1133 
 7290000    1.0212115   -5.1262197      1728000    1308.1195        36450         1134 
 7300000   0.98656854   -5.1516421      1728000    1309.9715        36500         1134 
 7310000     1.039108   -5.2414424      1728000    1311.8056        36550         1134 
 7320000   0.99506712   -5.1398733      1728000    1313.6396        36600         1134 
 7330000    1.0817291   -5.3019317      1728000    1315.4774        36650         1134 
 7340000   0.98594654   -5.2261005      1728000    1317.3105        36700         1134 
 7350000    1.0090491   -5.2986267      1728000    1319.1666        36750         1134 
 7360000   0.95287008   -5.2583976      1728000    1321.0161        36800         1134 
 7370000    1.0724987   -5.2219917      1728000    1322.8467        36850         1135 
 7380000    1.0209271   -5.1404495      1728000    1324.7047        36900         1135 
 7390000   0.99935192   -5.1951103      1728000    1326.5649        36950         1135 
 7400000   0.95010701   -5.2552525      1728000    1328.4374        37000         1135 
 7410000   0.96395983    -5.262803      1728000    1330.2926        37050         1135 
 7420000    1.0227914   -5.2528281      1728000    1332.1476        37100         1137 
 7430000   0.89793923   -5.2172776      1728000    1333.9928        37150         1137 
 7440000    0.9268728    -5.224328      1728000    1335.8383        37200         1137 
 7450000   0.96530178    -5.358298      1728000    1337.6834        37250         1137 
 7460000     1.038431    -5.342415      1728000    1339.5266        37300         1138 
 7470000    0.9742167    -5.276504      1728000    1341.3704        37350         1138 
 7480000   0.98308765   -5.1785063      1728000    1343.2216        37400         1138 
 7490000    0.9888747   -5.3156798      1728000    1345.0514        37450         1139 
 7500000   0.99563107    -5.128912      1728000    1346.9156        37500         1139 
 7510000   0.96561558   -5.2799558      1728000    1348.7533        37550         1140 
 7520000    1.0602142   -5.2972435      1728000    1350.5886        37600         1141 
 7530000   0.97227424   -5.2081098      1728000    1352.4236        37650         1142 
 7540000   0.96263744      -5.3062      1728000    1354.2637        37700         1143 
 7550000    1.0125429   -5.2225484      1728000    1356.0956        37750         1144 
 7560000   0.99711507   -5.1788299      1728000    1357.9323        37800         1145 
 7570000    1.0409346   -5.2153522      1728000    1359.7676        37850         1145 
 7580000   0.98655339    -5.122094      1728000    1361.6146        37900         1145 
 7590000   0.92198644   -5.0842681      1728000    1363.4405        37950         1148 
 7600000   0.95785401    -5.299544      1728000    1365.2874        38000         1150 
 7610000    1.0014476   -5.2237791      1728000    1367.1315        38050         1150 
 7620000    1.0274083   -5.4046236      1728000    1368.9647        38100         1150 
 7630000    1.0526581   -5.3399711      1728000    1370.8025        38150         1151 
 7640000    1.0156267   -5.2719117      1728000    1372.6414        38200         1151 
 7650000    1.0230926   -5.1224159      1728000    1374.4776        38250         1152 
 7660000    1.0274449   -5.2268808      1728000    1376.3216        38300         1152 
 7670000    1.0222262   -5.2947275      1728000    1378.1702        38350         1153 
 7680000    1.0028903   -5.1167943      1728000    1380.0086        38400         1153 
 7690000   0.93525008   -5.2049628      1728000    1381.8455        38450         1155 
 7700000   0.95532991   -5.2762328      1728000    1383.6837        38500         1155 
 7710000    1.0426012   -5.2265657      1728000    1385.5373        38550         1156 
 7720000   0.95417824   -5.3109899      1728000    1387.3875        38600         1157 
 7730000   0.95471539   -5.2962054      1728000    1389.2356        38650         1157 
 7740000    1.0364204   -5.4341595      1728000    1391.0784        38700         1157 
 7750000    1.0569103   -5.2486444      1728000    1392.9325        38750         1158 
 7760000   0.98287125   -5.1218514      1728000    1394.7735        38800         1158 
 7770000   0.97450797   -5.3103791      1728000    1396.6372        38850         1158 
 7780000   0.98686283   -5.3706329      1728000    1398.4913        38900         1158 
 7790000    1.0017141   -5.1766367      1728000    1400.3586        38950         1158 
 7800000    1.0373689   -5.3389986      1728000    1402.2163        39000         1159 
 7810000   0.97793755   -5.2222339      1728000    1404.0714        39050         1159 
 7820000   0.97352177   -5.2576392      1728000    1405.9235        39100         1159 
 7830000    1.0070748   -5.1757186      1728000    1407.8103        39150         1159 
 7840000    1.0339958   -5.2629489      1728000    1409.6775        39200         1159 
 7850000   0.97937676   -5.2178208      1728000    1411.5322        39250         1160 
 7860000    1.0338811   -5.2682693      1728000    1413.3796        39300         1161 
 7870000    1.0083045   -5.3018565      1728000    1415.2226        39350         1162 
 7880000   0.98849243   -5.2538242      1728000    1417.0842        39400         1162 
 7890000   0.96064984   -5.2895894      1728000    1418.9786        39450         1162 
 7900000    1.0679958   -5.2678147      1728000    1420.9573        39500         1163 
 7910000    1.0511391   -5.3691837      1728000    1422.8121        39550         1164 
 7920000   0.94893972   -5.3581327      1728000    1424.6774        39600         1164 
 7930000    1.0550457   -5.0930187      1728000    1426.5445        39650         1165 
 7940000    1.0199488   -5.3537478      1728000    1428.4225        39700         1165 
 7950000   0.98420115   -5.3013588      1728000    1430.3014        39750         1165 
 7960000   0.99778288   -5.2936316      1728000    1432.1703        39800         1165 
 7970000    1.0088757   -5.2292885      1728000    1434.0153        39850         1165 
 7980000   0.97648252   -5.2801869      1728000    1435.8834        39900         1167 
 7990000   0.99978203   -5.2597504      1728000    1437.7644        39950         1169 
 8000000    1.0089515   -5.2111906      1728000    1439.6253        40000         1169 
 8010000   0.97280111   -5.3473592      1728000    1441.4915        40050         1170 
 8020000     1.021149   -5.2535445      1728000    1443.3473        40100         1170 
 8030000   0.98736804   -5.3371176      1728000    1445.1894        40150         1170 
 8040000    1.0210276   -5.3450883      1728000    1447.0453        40200         1171 
 8050000    1.0307342   -5.3484886      1728000    1448.8995        40250         1172 
 8060000    1.0538205   -5.2923963      1728000    1450.7544        40300         1173 
 8070000    1.0593031    -5.318726      1728000    1452.6022        40350         1174 
 8080000    1.0214284    -5.299877      1728000    1454.4625        40400         1174 
 8090000   0.92274878   -5.1770341      1728000    1456.3385        40450         1175 
 8100000   0.95253368    -5.226387      1728000    1458.2224        40500         1176 
 8110000    0.9698565   -5.4147837      1728000    1460.0915        40550         1178 
 8120000    0.9582532   -5.2422962      1728000    1461.9764        40600         1178 
 8130000    1.0070837   -5.2984129      1728000    1463.8283        40650         1179 
 8140000    1.0490823   -5.1856531      1728000    1465.6714        40700         1179 
 8150000    1.0366824   -5.1898864      1728000    1467.5163        40750         1179 
 8160000    1.0035781   -5.2040569      1728000     1469.367        40800         1180 
 8170000   0.95995147    -5.268284      1728000    1471.2185        40850         1182 
 8180000   0.98413438   -5.2420892      1728000    1473.0723        40900         1183 
 8190000   0.99337848   -5.1800851      1728000    1474.9085        40950         1184 
 8200000   0.98557823   -5.2650619      1728000    1476.7765        41000         1185 
 8210000     1.038577   -5.3133378      1728000    1478.6323        41050         1186 
 8220000    1.0254003   -5.1875968      1728000    1480.4762        41100         1187 
 8230000   0.98520461   -5.2930945      1728000    1482.3303        41150         1189 
 8240000     0.996492   -5.2935983      1728000    1484.1804        41200         1191 
 8250000   0.98584044   -5.1840035      1728000    1486.0283        41250         1191 
 8260000    1.0273865   -5.1628407      1728000    1487.8803        41300         1191 
 8270000   0.92473056   -5.3590474      1728000    1489.7653        41350         1193 
 8280000    1.0265283   -5.2853388      1728000    1491.6581        41400         1195 
 8290000    1.0497996     -5.30349      1728000    1493.5383        41450         1195 
 8300000     0.997487   -5.2500299      1728000    1495.4142        41500         1195 
 8310000   0.98671891   -5.1915001      1728000    1497.2692        41550         1195 
 8320000    1.0707214    -5.228461      1728000    1499.1313        41600         1196 
 8330000   0.99144061   -5.2906418      1728000    1501.0102        41650         1196 
 8340000     1.000265   -5.3219838      1728000    1502.9041        41700         1196 
 8350000    1.0013983   -5.1986254      1728000    1504.7551        41750         1197 
 8360000    1.0350144   -5.2962442      1728000    1506.6054        41800         1197 
 8370000    1.0207276   -5.3176148      1728000    1508.4603        41850         1198 
 8380000    1.0058577   -5.2242939      1728000    1510.3254        41900         1201 
 8390000    1.0034198   -5.2826197      1728000    1512.1884        41950         1201 
 8400000   0.99606736   -5.2949744      1728000    1514.0744        42000         1203 
 8410000    1.0055591   -5.3115721      1728000    1515.9455        42050         1203 
 8420000    1.0257947   -5.2835625      1728000    1517.8165        42100         1203 
 8430000   0.97280731   -5.1870153      1728000    1519.6993        42150         1203 
 8440000    1.0374869   -5.3110701      1728000     1521.567        42200         1205 
 8450000   0.97593817   -5.2385318      1728000    1523.4547        42250         1206 
 8460000     1.039656   -5.3664641      1728000    1525.3194        42300         1206 
 8470000   0.93508684   -5.3218052      1728000    1527.2026        42350         1208 
 8480000    0.9702573   -5.1503368      1728000    1529.0812        42400         1208 
 8490000     1.020896   -5.2795843      1728000    1530.9694        42450         1209 
 8500000    1.0594632   -5.3387226      1728000    1532.8753        42500         1210 
 8510000     1.032031   -5.4324123      1728000    1534.7434        42550         1211 
 8520000   0.96062005   -5.3605639      1728000    1536.6114        42600         1211 
 8530000    1.0124859   -5.2426044      1728000    1538.4715        42650         1211 
 8540000    1.0191998   -5.4003932      1728000    1540.3262        42700         1211 
 8550000   0.98638969   -5.1905426      1728000    1542.2222        42750         1212 
 8560000    1.0110364   -5.2454757      1728000    1544.1243        42800         1212 
 8570000    1.0357927   -5.2664171      1728000    1546.0085        42850         1213 
 8580000    0.9988029   -5.2882756      1728000    1547.8998        42900         1215 
 8590000   0.97398252   -5.3317691      1728000    1549.8051        42950         1217 
 8600000   0.98221462   -5.2709001      1728000    1551.6997        43000         1217 
 8610000    1.0475803   -5.3770164      1728000     1553.589        43050         1217 
 8620000   0.98874453   -5.3393123      1728000    1555.4591        43100         1220 
 8630000   0.96231129   -5.4265965      1728000    1557.3242        43150         1220 
 8640000   0.97370293   -5.2965637      1728000    1559.1902        43200         1220 
 8650000   0.98724154    -5.232505      1728000    1561.0413        43250         1220 
 8660000    1.0138892    -5.397901      1728000    1562.8903        43300         1220 
 8670000   0.99010884   -5.4112087      1728000    1564.7534        43350         1220 
 8680000    1.0401596   -5.2877812      1728000     1566.632        43400         1221 
 8690000    1.0234323   -5.4202469      1728000    1568.5034        43450         1222 
 8700000    1.0886647   -5.3191127      1728000    1570.4043        43500         1223 
 8710000   0.98791305   -5.3108585      1728000    1572.2802        43550         1223 
 8720000    1.0747446   -5.3072719      1728000    1574.1442        43600         1224 
 8730000    1.0113386   -5.3482979      1728000    1576.0053        43650         1225 
 8740000   0.97336677   -5.2612551      1728000    1577.8721        43700         1225 
 8750000    1.0758971   -5.4177291      1728000    1579.7363        43750         1225 
 8760000   0.95460197   -5.4623676      1728000    1581.6032        43800         1226 
 8770000    1.0613242   -5.4206568      1728000    1583.4832        43850         1229 
 8780000    1.0014098   -5.3240272      1728000     1585.367        43900         1229 
 8790000   0.90053461   -5.3887896      1728000     1587.241        43950         1229 
 8800000    1.0022118   -5.4127586      1728000    1589.1371        44000         1229 
 8810000   0.94666113   -5.3853095      1728000    1591.0321        44050         1229 
 8820000   0.96488184   -5.3239827      1728000    1592.9191        44100         1230 
 8830000    1.0068527   -5.3707921      1728000    1594.7931        44150         1230 
 8840000   0.99900831   -5.2863689      1728000    1596.6643        44200         1230 
 8850000    1.0121717   -5.3687908      1728000    1598.5419        44250         1230 
 8860000    0.9795949   -5.3674368      1728000    1600.4291        44300         1230 
 8870000   0.97894484   -5.4727614      1728000    1602.3072        44350         1230 
 8880000    1.0184081   -5.4433859      1728000    1604.2001        44400         1230 
 8890000    1.0767776   -5.3684238      1728000    1606.0801        44450         1231 
 8900000    1.0150883   -5.3032751      1728000    1608.0122        44500         1231 
 8910000    1.0710605   -5.3304594      1728000    1609.8971        44550         1231 
 8920000   0.96174544   -5.3489018      1728000    1611.7692        44600         1232 
 8930000   0.95478638   -5.3901936      1728000    1613.6452        44650         1232 
 8940000    1.0033144   -5.2858829      1728000    1615.5312        44700         1232 
 8950000    0.9384117   -5.2546544      1728000       1617.4        44750         1232 
 8960000    1.0345933    -5.285912      1728000    1619.2859        44800         1232 
 8970000    1.0096647   -5.3874933      1728000     1621.185        44850         1232 
 8980000   0.98426051   -5.4905909      1728000    1623.0778        44900         1232 
 8990000    1.0049073   -5.4371335      1728000     1624.986        44950         1232 
 9000000   0.92954559   -5.3272321      1728000    1626.9063        45000         1234 
 9010000    1.0313724   -5.2934412      1728000    1628.8222        45050         1234 
 9020000   0.90229001   -5.4327548      1728000    1630.7054        45100         1234 
 9030000   0.95160365   -5.3707542      1728000    1632.6198        45150         1234 
 9040000   0.99653894   -5.3996157      1728000     1634.511        45200         1234 
 9050000    1.0142286   -5.4867127      1728000     1636.398        45250         1234 
 9060000    1.0424682   -5.2108128      1728000    1638.2615        45300         1234 
 9070000    1.0694404   -5.3854083      1728000    1640.1169        45350         1234 
 9080000   0.99610295   -5.5580189      1728000    1641.9861        45400         1234 
 9090000   0.93125763   -5.5209133      1728000    1643.8711        45450         1234 
 9100000    1.0069394   -5.3622272      1728000    1645.8446        45500         1234 
 9110000    1.0069654    -5.237061      1728000    1647.7662        45550         1234 
 9120000    1.0511186   -5.3922988      1728000    1649.6519        45600         1234 
 9130000    1.0500509   -5.4628154      1728000    1651.5248        45650         1234 
 9140000   0.96150984   -5.4176408      1728000     1653.405        45700         1234 
 9150000    1.0085069   -5.4812904      1728000    1655.2941        45750         1234 
 9160000   0.95186851   -5.3411863      1728000    1657.1672        45800         1234 
 9170000   0.98853253   -5.4732289      1728000    1659.0422        45850         1234 
 9180000   0.94783363   -5.3524411      1728000    1660.9141        45900         1234 
 9190000   0.99336901   -5.4190746      1728000    1662.7872        45950         1234 
 9200000    1.0665132   -5.4576897      1728000    1664.6758        46000         1234 
 9210000    1.0095464   -5.4053008      1728000    1666.5768        46050         1234 
 9220000   0.97963391   -5.5148897      1728000    1668.4659        46100         1234 
 9230000   0.99637459   -5.5241741      1728000    1670.3701        46150         1234 
 9240000    0.9985045   -5.5833226      1728000     1672.282        46200         1234 
 9250000    1.0193655   -5.3891278      1728000     1674.189        46250         1234 
 9260000    1.0582262   -5.4902081      1728000    1676.0771        46300         1234 
 9270000   0.97152916   -5.4249623      1728000    1677.9631        46350         1234 
 9280000   0.87280593   -5.4365155      1728000     1679.849        46400         1234 
 9290000   0.98154796   -5.3314587      1728000    1681.7271        46450         1234 
 9300000    1.0225648     -5.38021      1728000     1683.608        46500         1234 
 9310000    1.0191018   -5.3742882      1728000    1685.4899        46550         1234 
 9320000    1.0188093   -5.4242924      1728000    1687.3651        46600         1234 
 9330000    1.0106171    -5.358752      1728000    1689.2378        46650         1234 
 9340000   0.95045627   -5.4034826      1728000     1691.132        46700         1234 
 9350000   0.99355823    -5.501924      1728000    1693.0281        46750         1234 
 9360000    1.0414797   -5.5224084      1728000    1694.9421        46800         1234 
 9370000   0.99916087   -5.4527973      1728000     1696.835        46850         1234 
 9380000   0.94836104   -5.4466761      1728000    1698.7169        46900         1234 
 9390000   0.97262294   -5.3511208      1728000    1700.6039        46950         1234 
 9400000    1.0470191   -5.4579832      1728000    1702.5209        47000         1234 
 9410000    1.0080022    -5.529506      1728000    1704.4341        47050         1234 
 9420000   0.97401754   -5.4906362      1728000    1706.3109        47100         1234 
 9430000   0.94887751   -5.3620436      1728000    1708.2091        47150         1234 
 9440000    1.0227795   -5.4004772      1728000    1710.0905        47200         1234 
 9450000    1.0003737   -5.4342484      1728000    1711.9679        47250         1234 
 9460000    1.0440226   -5.4200352      1728000    1713.8553        47300         1234 
 9470000     1.008271   -5.4827169      1728000    1715.7719        47350         1234 
 9480000   0.99609834   -5.4836937      1728000    1717.6517        47400         1234 
 9490000    1.0317379   -5.3473544      1728000     1719.538        47450         1234 
 9500000   0.98433828   -5.4240476      1728000     1721.421        47500         1234 
 9510000    1.0031286   -5.5102147      1728000    1723.2827        47550         1234 
 9520000    1.0089596   -5.4151965      1728000    1725.1557        47600         1234 
 9530000   0.98094887   -5.3987295      1728000    1727.0311        47650         1234 
 9540000   0.98747619   -5.4605775      1728000    1728.9188        47700         1234 
 9550000   0.95816893   -5.4081859      1728000    1730.8478        47750         1234 
 9560000   0.92501162   -5.4983482      1728000    1732.7739        47800         1234 
 9570000    1.0085499     -5.29654      1728000    1734.7009        47850         1234 
 9580000   0.98905703   -5.4076685      1728000     1736.628        47900         1234 
 9590000    1.0073273   -5.4247048      1728000    1738.5489        47950         1234 
 9600000   0.96368263    -5.413839      1728000     1740.477        48000         1234 
 9610000   0.91212834   -5.3120337      1728000     1742.354        48050         1234 
 9620000    1.0761439   -5.4527359      1728000    1744.2792        48100         1234 
 9630000   0.99700843    -5.437855      1728000    1746.1559        48150         1234 
 9640000    1.0251276   -5.3384293      1728000     1748.023        48200         1234 
 9650000   0.93779249   -5.5067663      1728000    1749.9119        48250         1234 
 9660000    1.0048974   -5.3644359      1728000    1751.8048        48300         1234 
 9670000    1.0239241   -5.3751977      1728000     1753.735        48350         1234 
 9680000    1.0444077   -5.4721194      1728000    1755.6481        48400         1235 
 9690000    1.0063574   -5.4101032      1728000    1757.5377        48450         1235 
 9700000     1.017826   -5.3716369      1728000     1759.457        48500         1235 
 9710000    0.9770766   -5.3539255      1728000    1761.4141        48550         1235 
 9720000    1.0684498   -5.3773417      1728000    1763.3131        48600         1235 
 9730000   0.94932353   -5.3451157      1728000    1765.2334        48650         1235 
 9740000   0.99999997   -5.3834697      1728000    1767.1195        48700         1235 
 9750000   0.98475896   -5.4701519      1728000    1769.0339        48750         1235 
 9760000   0.99682232   -5.3534849      1728000    1770.9218        48800         1235 
 9770000     1.000399   -5.2405633      1728000     1772.803        48850         1236 
 9780000    1.0352976   -5.3191197      1728000    1774.6937        48900         1236 
 9790000     1.043904   -5.5546382      1728000    1776.5757        48950         1236 
 9800000   0.93427985   -5.4419037      1728000    1778.5122        49000         1237 
 9810000    1.0688052   -5.3689098      1728000    1780.4116        49050         1237 
 9820000   0.95338538    -5.337475      1728000    1782.2972        49100         1237 
 9830000    1.0468753   -5.4069448      1728000    1784.1919        49150         1237 
 9840000    1.0307725   -5.4417531      1728000    1786.0876        49200         1237 
 9850000    1.0311975   -5.6835392      1728000    1788.0028        49250         1237 
 9860000    1.0204526   -5.3717136      1728000    1789.8877        49300         1237 
 9870000   0.99828563   -5.4596882      1728000    1791.7738        49350         1237 
 9880000   0.99005355   -5.6182557      1728000    1793.6637        49400         1237 
 9890000     1.009566   -5.4056635      1728000    1795.5528        49450         1237 
 9900000   0.96674561   -5.4147429      1728000    1797.4509        49500         1237 
 9910000    1.0051567   -5.5133247      1728000    1799.3347        49550         1237 
 9920000    1.0231037   -5.4955057      1728000    1801.2309        49600         1237 
 9930000    1.0355308   -5.3475427      1728000    1803.1066        49650         1237 
 9940000    0.9481513   -5.5584772      1728000    1804.9911        49700         1237 
 9950000   0.98292184   -5.3136329      1728000    1806.8854        49750         1237 
 9960000   0.93678073   -5.3550962      1728000    1808.7588        49800         1237 
 9970000   0.99162147   -5.5233086      1728000    1810.6376        49850         1237 
 9980000   0.99335728   -5.5809684      1728000    1812.5229        49900         1237 
 9990000   0.95595954   -5.3882477      1728000    1814.4088        49950         1237 
10000000     1.006277   -5.4189242      1728000    1816.3209        50000         1237 
10010000   0.94999541   -5.5117217      1728000    1818.2089        50050         1237 
10020000   0.95146759   -5.4237428      1728000    1820.0798        50100         1237 
10030000   0.94609608   -5.4940457      1728000    1821.9568        50150         1237 
10040000   0.99276777   -5.4222528      1728000    1823.8299        50200         1237 
10050000    1.0493174   -5.4342146      1728000    1825.7067        50250         1237 
10060000     0.950206   -5.4591501      1728000    1827.6147        50300         1237 
10070000    1.0727013   -5.5141383      1728000    1829.4952        50350         1237 
10080000    1.0108124   -5.5543765      1728000    1831.3877        50400         1237 
10090000   0.98175477   -5.3410261      1728000    1833.2679        50450         1237 
10100000   0.93656832   -5.4364406      1728000    1835.1657        50500         1237 
10110000    0.9653595   -5.4151711      1728000    1837.0458        50550         1237 
10120000   0.94887396   -5.4428348      1728000    1838.9232        50600         1238 
10130000    1.0008322   -5.3777263      1728000    1840.7999        50650         1238 
10140000    1.0193356   -5.4568957      1728000    1842.6827        50700         1238 
10150000   0.92597988   -5.3959227      1728000    1844.5604        50750         1238 
10160000   0.98334988    -5.420904      1728000    1846.4456        50800         1238 
10170000    1.0292755   -5.4336736      1728000    1848.3248        50850         1238 
10180000    1.0183934   -5.2149978      1728000    1850.1968        50900         1238 
10190000    1.0167869   -5.2823805      1728000    1852.0962        50950         1238 
10200000    1.0500713   -5.4556016      1728000    1853.9847        51000         1239 
10210000    1.0020471   -5.3775592      1728000    1855.8747        51050         1239 
10220000   0.98540608   -5.4259438      1728000    1857.7686        51100         1239 
10230000   0.99651814   -5.2959808      1728000    1859.6769        51150         1240 
10240000     1.036575   -5.5282191      1728000    1861.6433        51200         1240 
10250000    1.0053204   -5.2777007      1728000    1863.5578        51250         1240 
10260000    1.0890989    -5.337116      1728000    1865.4797        51300         1240 
10270000   0.92107191   -5.3561228      1728000    1867.3866        51350         1240 
10280000   0.98236082   -5.4973908      1728000    1869.3156        51400         1240 
10290000   0.99052967   -5.3533249      1728000    1871.2327        51450         1240 
10300000   0.96916363    -5.286638      1728000    1873.1538        51500         1240 
10310000    1.0483141   -5.5106016      1728000    1875.0286        51550         1241 
10320000   0.96617317   -5.4448158      1728000    1876.9087        51600         1241 
10330000   0.95914903   -5.3913322      1728000    1878.8011        51650         1241 
10340000    1.1099957   -5.2972396      1728000    1880.6778        51700         1241 
10350000    1.0444704   -5.3805732      1728000    1882.5437        51750         1241 
10360000   0.93776619   -5.3184259      1728000    1884.4105        51800         1241 
10370000   0.96485013   -5.3104577      1728000     1886.346        51850         1241 
10380000    1.0345332   -5.3906239      1728000     1888.325        51900         1242 
10390000    0.9992102   -5.3495716      1728000    1890.3429        51950         1242 
10400000   0.93952934    -5.471409      1728000    1892.3127        52000         1242 
10410000   0.97754387   -5.3843712      1728000     1894.195        52050         1242 
10420000   0.96554013   -5.3952675      1728000    1896.0605        52100         1242 
10430000   0.96622683   -5.4958354      1728000    1897.9287        52150         1242 
10440000   0.99370801   -5.4920567      1728000    1899.8028        52200         1242 
10450000   0.97416318   -5.4483181      1728000    1901.6867        52250         1242 
10460000   0.96104159   -5.4217334      1728000    1903.5787        52300         1242 
10470000    1.0625558   -5.3268504      1728000    1905.4547        52350         1242 
10480000    1.0186064   -5.4594172      1728000    1907.3567        52400         1242 
10490000    1.0077771    -5.496331      1728000    1909.2527        52450         1242 
10500000   0.92927461   -5.3468467      1728000    1911.1526        52500         1242 
10510000   0.99222304   -5.3195099      1728000    1913.0218        52550         1243 
10520000   0.97292928   -5.2109841      1728000    1914.8906        52600         1243 
10530000    1.0124322   -5.4688382      1728000    1916.7587        52650         1243 
10540000   0.94924569   -5.4842937      1728000    1918.6335        52700         1243 
10550000    1.0467691   -5.4365617      1728000    1920.5075        52750         1243 
10560000     1.009637   -5.3563721      1728000    1922.3887        52800         1243 
10570000   0.96817862   -5.3970916      1728000    1924.2787        52850         1243 
10580000    1.0166477   -5.3792228      1728000    1926.1462        52900         1243 
10590000   0.98744687   -5.3994057      1728000    1928.0142        52950         1243 
10600000   0.95472813   -5.3754435      1728000    1929.9028        53000         1243 
10610000   0.95807402   -5.4546326      1728000    1931.7726        53050         1243 
10620000   0.97919278   -5.4098144      1728000    1933.6435        53100         1243 
10630000    1.0259269   -5.4603374      1728000    1935.5185        53150         1243 
10640000   0.92327594   -5.3441007      1728000      1937.39        53200         1243 
10650000    1.0365623   -5.4080248      1728000    1939.2587        53250         1243 
10660000   0.98473926   -5.3678869      1728000    1941.1293        53300         1243 
10670000    1.0709486   -5.3345195      1728000    1943.0057        53350         1243 
10680000   0.98915189   -5.4243571      1728000    1944.8746        53400         1243 
10690000    1.0013971   -5.3698215      1728000    1946.7357        53450         1243 
10700000   0.98379491   -5.3356374      1728000    1948.6075        53500         1243 
10710000    1.0293435    -5.292066      1728000    1950.4894        53550         1243 
10720000   0.98497791    -5.453651      1728000    1952.3718        53600         1243 
10730000    1.0106574   -5.2791356      1728000    1954.3398        53650         1243 
10740000    1.0061456   -5.4174687      1728000    1956.2284        53700         1243 
10750000    1.1001031   -5.3007295      1728000    1958.1394        53750         1244 
10760000    1.0394174   -5.3677449      1728000    1960.0167        53800         1244 
10770000   0.99082857   -5.4671486      1728000    1961.9342        53850         1244 
10780000    1.0025074   -5.4566107      1728000    1963.9356        53900         1245 
10790000    1.0641829   -5.3357279      1728000    1965.9368        53950         1245 
10800000   0.94832511   -5.4775074      1728000    1967.8214        54000         1245 
10810000   0.98473704   -5.4341676      1728000    1969.6766        54050         1245 
10820000    1.0256476   -5.5183803      1728000    1971.5638        54100         1245 
10830000    1.0403668   -5.4110066      1728000    1973.4577        54150         1245 
10840000    1.0360572   -5.3771471      1728000    1975.3335        54200         1245 
10850000    1.0029412   -5.4762946      1728000    1977.2294        54250         1245 
10860000    1.0039574   -5.4095494      1728000    1979.1036        54300         1245 
10870000     1.078688   -5.4911068      1728000    1980.9767        54350         1245 
10880000   0.99735648   -5.4171998      1728000    1982.8526        54400         1245 
10890000    0.9964363   -5.4653673      1728000    1984.7216        54450         1245 
10900000   0.95800152   -5.5087976      1728000    1986.6036        54500         1245 
10910000   0.98898211   -5.3557561      1728000    1988.4747        54550         1245 
10920000   0.95535589    -5.584027      1728000    1990.3425        54600         1245 
10930000    0.9884005   -5.3664326      1728000    1992.2153        54650         1245 
10940000   0.99349037   -5.3658346      1728000    1994.0893        54700         1245 
10950000   0.96419093   -5.3687877      1728000    1995.9616        54750         1245 
10960000    1.0007886   -5.3652041      1728000    1997.8353        54800         1245 
10970000   0.99881095   -5.5360923      1728000    1999.7355        54850         1245 
10980000    1.0028454   -5.4516157      1728000    2001.6345        54900         1245 
10990000   0.97874291   -5.5188284      1728000    2003.5137        54950         1245 
11000000    1.0195832   -5.4503206      1728000    2005.4036        55000         1245 
11010000   0.99191295   -5.5230387      1728000    2007.2745        55050         1245 
11020000    1.0176411   -5.3971514      1728000    2009.1444        55100         1246 
11030000    1.0054242   -5.4992638      1728000    2011.0303        55150         1246 
11040000    1.0106569   -5.2138364      1728000    2012.9287        55200         1246 
11050000   0.94515693    -5.506387      1728000    2014.8166        55250         1246 
11060000    1.0381369   -5.4551813      1728000    2016.6997        55300         1247 
11070000    1.0168759   -5.3090827      1728000    2018.6066        55350         1247 
11080000   0.99819971   -5.4683725      1728000    2020.4883        55400         1247 
11090000     1.043698   -5.4097915      1728000    2022.3685        55450         1247 
11100000   0.98324743   -5.3296445      1728000    2024.2734        55500         1247 
11110000    0.9742115   -5.3754125      1728000    2026.1501        55550         1247 
11120000    1.0409015    -5.456864      1728000    2028.0395        55600         1247 
11130000   0.98740514   -5.3022944      1728000    2029.9155        55650         1247 
11140000    1.0098779   -5.4158281      1728000    2031.8075        55700         1247 
11150000   0.98019695   -5.3228995      1728000    2033.6894        55750         1247 
11160000   0.91747092   -5.3246358      1728000    2035.5602        55800         1247 
11170000   0.97144359   -5.3330972      1728000    2037.4325        55850         1247 
11180000    0.9942807   -5.4192985      1728000    2039.3452        55900         1247 
11190000    1.0245657   -5.4424834      1728000    2041.2214        55950         1247 
11200000    1.0261189   -5.4376194      1728000    2043.1105        56000         1247 
11210000    1.0111507   -5.4260058      1728000    2045.0005        56050         1247 
11220000   0.94552074   -5.3702637      1728000    2046.8806        56100         1248 
11230000    1.0195112   -5.4128542      1728000    2048.7606        56150         1248 
11240000    0.9792563   -5.6375963      1728000    2050.6554        56200         1249 
11250000    1.0598817   -5.4928454      1728000    2052.5403        56250         1249 
11260000    1.0091039   -5.5075993      1728000    2054.4376        56300         1249 
11270000   0.96974616   -5.4242558      1728000    2056.3446        56350         1249 
11280000    1.0062897   -5.4180237      1728000    2058.2318        56400         1249 
11290000    1.0026021   -5.4013066      1728000    2060.1544        56450         1249 
11300000    1.0031198   -5.5177799      1728000    2062.0375        56500         1249 
11310000   0.98097245   -5.2961199      1728000    2063.9212        56550         1249 
11320000   0.97957643   -5.4410356      1728000    2065.7965        56600         1249 
11330000    0.9607044   -5.5155507      1728000     2067.766        56650         1249 
11340000   0.98961828    -5.491066      1728000    2069.7114        56700         1249 
11350000   0.98764529   -5.3405094      1728000    2071.5825        56750         1249 
11360000   0.99601306   -5.5023551      1728000    2073.4738        56800         1249 
11370000    1.0449216   -5.3219927      1728000    2075.3703        56850         1249 
11380000    0.9975593   -5.4114665      1728000    2077.2853        56900         1249 
11390000   0.97573234   -5.2811461      1728000     2079.219        56950         1249 
11400000   0.94969064   -5.5099854      1728000    2081.1203        57000         1249 
11410000    1.0270958   -5.4024666      1728000    2082.9994        57050         1249 
11420000    1.0390451   -5.3397883      1728000    2084.8942        57100         1249 
11430000   0.96939109   -5.3808004      1728000    2086.8102        57150         1249 
11440000    1.0170984   -5.4495813      1728000    2088.7075        57200         1249 
11450000    1.0099802   -5.5894517      1728000    2090.6142        57250         1249 
11460000   0.92161643   -5.4696587      1728000    2092.5753        57300         1249 
11470000    1.0496552   -5.3866877      1728000    2094.5153        57350         1249 
11480000      1.03939    -5.410549      1728000    2096.4014        57400         1249 
11490000    1.0061632   -5.4530168      1728000     2098.328        57450         1249 
11500000   0.94846442   -5.5327974      1728000    2100.2314        57500         1249 
11510000   0.99672968   -5.4755589      1728000    2102.1524        57550         1249 
11520000   0.99596123   -5.3822022      1728000    2104.0284        57600         1249 
11530000   0.95754054   -5.4825008      1728000    2105.9144        57650         1249 
11540000   0.95944712   -5.3450105      1728000    2107.8125        57700         1249 
11550000    1.0216101   -5.4699251      1728000    2109.7482        57750         1249 
11560000     1.032263   -5.4058155      1728000    2111.6626        57800         1250 
11570000    1.0360452   -5.4117705      1728000    2113.5935        57850         1250 
11580000    1.0384303   -5.5697399      1728000    2115.5305        57900         1250 
11590000   0.92641733   -5.4083088      1728000    2117.4175        57950         1250 
11600000     1.015996   -5.4697306      1728000    2119.2983        58000         1250 
11610000   0.98818552   -5.4353541      1728000    2121.1778        58050         1250 
11620000   0.98940453   -5.3797972      1728000    2123.0493        58100         1250 
11630000    1.0026193   -5.3184846      1728000    2124.9211        58150         1250 
11640000    1.0238833   -5.5152842      1728000    2126.8523        58200         1250 
11650000    1.0282566    -5.518342      1728000    2128.7175        58250         1250 
11660000   0.98174983   -5.3824885      1728000    2130.5844        58300         1250 
11670000    1.0618179    -5.403373      1728000    2132.4576        58350         1251 
11680000   0.99433694   -5.3458579      1728000    2134.3232        58400         1251 
11690000   0.99438245   -5.3829925      1728000    2136.1915        58450         1252 
11700000    1.0411406   -5.4519074      1728000    2138.0754        58500         1252 
11710000    1.0526924   -5.4148628      1728000    2139.9732        58550         1252 
11720000   0.95649008   -5.4162114      1728000    2141.8735        58600         1252 
11730000    1.0361455   -5.4047892      1728000    2143.7594        58650         1252 
11740000    1.0117331   -5.2507601      1728000    2145.6383        58700         1252 
11750000    1.0578231   -5.3813211      1728000    2147.5465        58750         1252 
11760000    1.0141377   -5.4061865      1728000    2149.4151        58800         1252 
11770000   0.99530407   -5.4361709      1728000    2151.3181        58850         1252 
11780000    1.0617433   -5.2891119      1728000    2153.2384        58900         1252 
11790000    1.0296825   -5.3426137      1728000    2155.1612        58950         1253 
11800000   0.99199691   -5.4142378      1728000    2157.0504        59000         1253 
11810000    1.0504473   -5.2945098      1728000    2158.9436        59050         1253 
11820000    1.0930679   -5.3624142      1728000    2160.8195        59100         1255 
11830000    1.0657967    -5.471109      1728000    2162.7121        59150         1255 
11840000    1.0060984    -5.395735      1728000    2164.5963        59200         1255 
11850000   0.98635676   -5.3593393      1728000    2166.4749        59250         1256 
11860000    1.1028588   -5.2820392      1728000    2168.3533        59300         1257 
11870000    1.0182214   -5.4210819      1728000    2170.2422        59350         1257 
11880000    1.0270573   -5.3777238      1728000     2172.112        59400         1257 
11890000       1.0178   -5.4077006      1728000    2174.0236        59450         1257 
11900000   0.96118008   -5.3225352      1728000    2175.9113        59500         1257 
11910000    1.0064086   -5.2555903      1728000    2177.7774        59550         1257 
11920000   0.97706364   -5.3385932      1728000    2179.6473        59600         1257 
11930000   0.94149828   -5.4469123      1728000    2181.5274        59650         1257 
11940000   0.99797997    -5.402804      1728000     2183.398        59700         1258 
11950000   0.99279174   -5.4155017      1728000    2185.2699        59750         1258 
11960000    1.0063478   -5.4222425      1728000    2187.2047        59800         1258 
11970000   0.95913836   -5.5046589      1728000    2189.1219        59850         1258 
11980000     1.015246   -5.4698438      1728000    2191.0382        59900         1258 
11990000   0.98528686   -5.3248502      1728000    2192.9324        59950         1258 
12000000    1.0259503   -5.4187983      1728000    2194.9002        60000         1258 
12010000   0.96525614   -5.4952834      1728000    2196.8091        60050         1258 
12020000    1.0144678   -5.3869918      1728000    2198.7063        60100         1258 
12030000    1.0323887    -5.391041      1728000    2200.5886        60150         1258 
12040000    0.9816924   -5.3983084      1728000    2202.4658        60200         1258 
12050000    1.0048526    -5.369981      1728000    2204.3594        60250         1258 
12060000    1.0334762   -5.3978663      1728000    2206.2481        60300         1259 
12070000     1.020002    -5.409864      1728000    2208.1449        60350         1259 
12080000     1.011746   -5.3651517      1728000    2210.0494        60400         1260 
12090000   0.92268663   -5.2824151      1728000    2211.9785        60450         1260 
12100000    1.0070958     -5.46474      1728000    2213.8924        60500         1261 
12110000   0.95369138   -5.3641128      1728000    2215.7982        60550         1261 
12120000     1.088675   -5.4852111      1728000    2217.6993        60600         1261 
12130000   0.97698915   -5.3359672      1728000    2219.5951        60650         1261 
12140000   0.95833682   -5.4308137      1728000    2221.4811        60700         1261 
12150000    1.0615616   -5.4093751      1728000    2223.3802        60750         1261 
12160000    1.0077566   -5.4285012      1728000    2225.2543        60800         1263 
12170000   0.97802154   -5.4816464      1728000    2227.1252        60850         1263 
12180000   0.94752177   -5.4203353      1728000    2229.0103        60900         1263 
12190000   0.98537573   -5.3257768      1728000    2230.9012        60950         1263 
12200000    0.9180957    -5.459694      1728000    2232.7933        61000         1263 
12210000   0.94389261   -5.4837149      1728000     2234.684        61050         1263 
12220000   0.98103236   -5.3850333      1728000    2236.5641        61100         1263 
12230000   0.98109435   -5.5421698      1728000    2238.4452        61150         1263 
12240000     1.072547   -5.4795228      1728000    2240.3279        61200         1264 
12250000   0.98408093   -5.4274057      1728000    2242.2003        61250         1264 
12260000   0.95816444   -5.4086607      1728000     2244.088        61300         1264 
12270000     1.057433   -5.4397735      1728000    2245.9661        61350         1264 
12280000   0.96064207   -5.4618604      1728000    2247.8491        61400         1264 
12290000   0.94505755   -5.5188408      1728000    2249.7333        61450         1264 
12300000    1.0681637   -5.4435508      1728000     2251.634        61500         1264 
12310000   0.95297246   -5.5268206      1728000    2253.5031        61550         1264 
12320000   0.95665045   -5.3696151      1728000    2255.3748        61600         1264 
12330000    1.0435708    -5.387313      1728000    2257.2511        61650         1264 
12340000    1.0368492   -5.3841602      1728000    2259.1303        61700         1264 
12350000    1.0072577   -5.3568834      1728000    2261.0092        61750         1265 
12360000   0.95925569   -5.3615839      1728000    2262.8801        61800         1265 
12370000    1.0757163     -5.38013      1728000     2264.738        61850         1265 
12380000   0.96337554   -5.3232708      1728000    2266.5961        61900         1265 
12390000    1.0707871   -5.3927319      1728000    2268.4737        61950         1265 
12400000     1.019989   -5.3178629      1728000    2270.3409        62000         1265 
12410000    1.0579356    -5.448827      1728000     2272.206        62050         1265 
12420000    0.9656031   -5.3339692      1728000    2274.0821        62100         1265 
12430000    1.0027677   -5.3965653      1728000    2275.9681        62150         1265 
12440000    1.0466104   -5.4130326      1728000    2277.8382        62200         1265 
12450000   0.94626222    -5.363584      1728000    2279.7172        62250         1265 
12460000   0.97676321   -5.2079334      1728000    2281.5945        62300         1265 
12470000   0.97579339   -5.3123528      1728000    2283.4691        62350         1265 
12480000    1.0201616    -5.410159      1728000    2285.3481        62400         1265 
12490000   0.94662121    -5.445971      1728000    2287.2281        62450         1265 
12500000    1.0005002   -5.5037392      1728000     2289.112        62500         1265 
12510000   0.96649788   -5.4072789      1728000    2290.9841        62550         1266 
12520000   0.99338377   -5.4672622      1728000    2292.8728        62600         1266 
12530000   0.99136842   -5.2937661      1728000    2294.7449        62650         1268 
12540000   0.99263504   -5.3793596      1728000    2296.6213        62700         1268 
12550000    1.0347653   -5.2829432      1728000    2298.4939        62750         1268 
12560000   0.98457047   -5.3836269      1728000     2300.371        62800         1269 
12570000    1.0082118   -5.3790571      1728000    2302.2352        62850         1269 
12580000   0.99032096   -5.5020196      1728000    2304.1093        62900         1269 
12590000   0.99744156   -5.3527117      1728000    2305.9863        62950         1269 
12600000   0.95281617    -5.441806      1728000     2307.871        63000         1269 
12610000    1.0032651   -5.3887191      1728000    2309.7561        63050         1270 
12620000    1.0341231   -5.4073832      1728000    2311.6591        63100         1270 
12630000    0.9926017   -5.3680894      1728000    2313.5671        63150         1270 
12640000    1.0421601   -5.3986102      1728000      2315.45        63200         1270 
12650000   0.98592996   -5.3447184      1728000    2317.3351        63250         1271 
12660000    1.0115582   -5.4060208      1728000    2319.2504        63300         1271 
12670000    1.0940833   -5.4167252      1728000     2321.149        63350         1272 
12680000    0.9792646   -5.4221496      1728000     2323.041        63400         1272 
12690000     1.030417    -5.378869      1728000    2324.9383        63450         1273 
12700000     1.012013   -5.5348916      1728000    2326.8647        63500         1273 
12710000   0.97076446   -5.2883316      1728000    2328.7361        63550         1273 
12720000   0.97795166   -5.4592969      1728000    2330.5996        63600         1273 
12730000   0.98589011   -5.3663306      1728000    2332.4559        63650         1273 
12740000    1.0327114   -5.4616095      1728000    2334.3279        63700         1274 
12750000    1.0479681   -5.4020668      1728000     2336.199        63750         1274 
12760000    1.0039838   -5.4212534      1728000     2338.073        63800         1276 
12770000   0.99267115   -5.4528949      1728000     2339.946        63850         1276 
12780000   0.97947791   -5.3060548      1728000    2341.8161        63900         1277 
12790000    1.0506801    -5.299602      1728000    2343.6782        63950         1277 
12800000    1.0270265   -5.3668981      1728000     2345.547        64000         1277 
12810000    1.0594563   -5.3311217      1728000    2347.4291        64050         1278 
12820000    1.0004224   -5.4553012      1728000    2349.3041        64100         1279 
12830000   0.96948434   -5.4106202      1728000    2351.1819        64150         1279 
12840000   0.95991834   -5.4089395      1728000    2353.0765        64200         1279 
12850000   0.98864401   -5.4408276      1728000     2354.965        64250         1280 
12860000   0.98044001   -5.4149681      1728000    2356.8396        64300         1280 
12870000    0.9593885   -5.3414293      1728000    2358.7217        64350         1281 
12880000   0.91833854   -5.4331555      1728000    2360.5947        64400         1281 
12890000     1.034147   -5.5551501      1728000    2362.4711        64450         1281 
12900000   0.96665159   -5.4733988      1728000    2364.3653        64500         1281 
12910000   0.98089056   -5.4519163      1728000    2366.2362        64550         1281 
12920000    1.0258354    -5.399367      1728000    2368.1181        64600         1281 
12930000    1.0445093   -5.6036166      1728000    2369.9922        64650         1281 
12940000   0.99719645   -5.4595769      1728000    2371.8609        64700         1281 
12950000    1.0359315   -5.3871529      1728000    2373.7489        64750         1281 
12960000    1.0344412   -5.4626493      1728000     2375.638        64800         1281 
12970000   0.95249764   -5.4455081      1728000    2377.5157        64850         1281 
12980000    1.0165337   -5.3786452      1728000    2379.3808        64900         1281 
12990000   0.96350497   -5.3841591      1728000    2381.2829        64950         1281 
13000000    1.0185354   -5.4011421      1728000     2383.171        65000         1281 
13010000    1.0409652   -5.4234027      1728000     2385.048        65050         1281 
13020000    1.0110616   -5.4624649      1728000     2386.917        65100         1281 
13030000    1.0186486   -5.4167592      1728000    2388.7801        65150         1281 
13040000   0.98744485   -5.5051473      1728000    2390.6509        65200         1281 
13050000   0.95806948   -5.4575076      1728000    2392.5268        65250         1281 
13060000    1.0265152   -5.4485021      1728000    2394.3999        65300         1281 
13070000    1.0319751   -5.3896657      1728000    2396.2699        65350         1281 
13080000    1.0401611   -5.4304304      1728000    2398.1499        65400         1281 
13090000     1.038498    -5.435956      1728000    2400.0219        65450         1282 
13100000   0.98126215   -5.3863864      1728000       2401.9        65500         1282 
13110000    1.0273171   -5.4613787      1728000    2403.7766        65550         1282 
13120000   0.99288968   -5.4550389      1728000     2405.692        65600         1282 
13130000   0.95954006   -5.5951035      1728000    2407.5799        65650         1282 
13140000   0.99224026   -5.3368495      1728000    2409.4777        65700         1282 
13150000   0.96318221   -5.2378002      1728000    2411.3569        65750         1282 
13160000   0.94503159   -5.4785182      1728000    2413.2257        65800         1282 
13170000    1.0687154   -5.3634705      1728000    2415.1178        65850         1282 
13180000    1.0366781   -5.4501042      1728000    2416.9925        65900         1283 
13190000   0.97496366   -5.4596002      1728000    2418.8809        65950         1283 
13200000    1.0569731    -5.363376      1728000    2420.7719        66000         1283 
13210000   0.98928023   -5.4520282      1728000    2422.6379        66050         1283 
13220000    1.0317541   -5.3425258      1728000    2424.5108        66100         1283 
13230000   0.98688751   -5.3140797      1728000    2426.3914        66150         1283 
13240000   0.98752743   -5.5428744      1728000    2428.2658        66200         1283 
13250000    1.0289217   -5.4053255      1728000    2430.1377        66250         1283 
13260000   0.97025644   -5.4334211      1728000    2432.0058        66300         1283 
13270000   0.94053478   -5.4991205      1728000    2433.8778        66350         1283 
13280000    1.0245626   -5.3215936      1728000     2435.762        66400         1283 
13290000    1.0259498    -5.334788      1728000     2437.627        66450         1283 
13300000    1.0282836   -5.3507893      1728000    2439.5069        66500         1283 
13310000   0.99862828   -5.4662279      1728000    2441.3749        66550         1283 
13320000    1.0209694   -5.4893608      1728000     2443.252        66600         1283 
13330000   0.95567037   -5.4875057      1728000    2445.1289        66650         1283 
13340000   0.99969812   -5.4970969      1728000    2446.9959        66700         1283 
13350000   0.97161344   -5.5074564      1728000    2448.8689        66750         1283 
13360000    1.0013324   -5.4022493      1728000    2450.7688        66800         1283 
13370000   0.99258442    -5.423261      1728000    2452.6488        66850         1283 
13380000    1.0140238    -5.388681      1728000    2454.5149        66900         1283 
13390000   0.98783966   -5.3289212      1728000    2456.3948        66950         1283 
13400000   0.99447359   -5.4430509      1728000    2458.2798        67000         1283 
13410000    1.1166141   -5.4112088      1728000     2460.161        67050         1283 
13420000   0.93089173   -5.3340207      1728000    2462.0318        67100         1283 
13430000    1.0271292   -5.3891045      1728000    2463.8999        67150         1283 
13440000    1.0209043   -5.5091139      1728000    2465.7798        67200         1283 
13450000    1.0156124   -5.4606913      1728000    2467.6936        67250         1283 
13460000   0.96991604   -5.3213509      1728000    2469.5649        67300         1283 
13470000   0.99125687    -5.423352      1728000    2471.4362        67350         1283 
13480000    1.0218168   -5.4907876      1728000    2473.3071        67400         1283 
13490000   0.96570232   -5.3575797      1728000    2475.1807        67450         1283 
13500000   0.96920283   -5.3642698      1728000    2477.0599        67500         1283 
13510000    1.0026994   -5.4869134      1728000    2478.9489        67550         1283 
13520000    1.0190077   -5.2876006      1728000    2480.8239        67600         1283 
13530000    1.0065031    -5.430223      1728000    2482.7007        67650         1283 
13540000    1.0409279   -5.4057549      1728000     2484.583        67700         1283 
13550000   0.99418912   -5.3474171      1728000     2486.451        67750         1283 
13560000     1.031187   -5.4667944      1728000    2488.3357        67800         1283 
13570000     1.016159   -5.3326703      1728000    2490.2132        67850         1283 
13580000   0.98503934   -5.4203086      1728000    2492.0918        67900         1283 
13590000    1.0320297   -5.3620213      1728000    2493.9627        67950         1283 
13600000    1.0198595   -5.5228733      1728000    2495.8578        68000         1283 
13610000   0.96614099   -5.4565681      1728000    2497.7439        68050         1283 
13620000    1.0152289   -5.3646166      1728000    2499.6339        68100         1283 
13630000   0.97551311   -5.3148315      1728000    2501.5209        68150         1283 
13640000   0.92365846   -5.2735169      1728000    2503.4058        68200         1283 
13650000   0.97963666   -5.3714885      1728000    2505.3148        68250         1283 
13660000    1.0637173   -5.3299271      1728000    2507.1737        68300         1283 
13670000    1.0255122   -5.3191594      1728000    2509.0477        68350         1283 
13680000    1.0249316   -5.4899229      1728000    2510.9148        68400         1283 
13690000    1.0189392   -5.5427466      1728000    2512.8097        68450         1283 
13700000    1.0751163   -5.4329703      1728000    2514.7091        68500         1283 
13710000    1.0253996   -5.4998536      1728000      2516.61        68550         1283 
13720000    1.0263918   -5.4223721      1728000     2518.493        68600         1283 
13730000   0.95071331   -5.5309935      1728000    2520.3887        68650         1283 
13740000    1.0139554   -5.3085489      1728000    2522.2758        68700         1283 
13750000    1.0178677   -5.3885679      1728000    2524.1668        68750         1283 
13760000   0.98468366   -5.4214878      1728000    2526.0549        68800         1283 
13770000   0.98754939   -5.5693401      1728000    2527.9368        68850         1283 
13780000   0.97779836   -5.3932567      1728000    2529.8321        68900         1283 
13790000   0.97111488   -5.3953635      1728000    2531.7069        68950         1284 
13800000   0.98171052   -5.4243728      1728000    2533.6148        69000         1284 
13810000   0.98291638   -5.4127257      1728000    2535.5047        69050         1284 
13820000    1.0258302   -5.4649633      1728000    2537.3848        69100         1284 
13830000   0.99993722   -5.3025905      1728000    2539.2879        69150         1285 
13840000    1.0278418   -5.4533389      1728000    2541.1739        69200         1285 
13850000   0.97915649   -5.4394429      1728000    2543.0339        69250         1286 
13860000   0.95633809   -5.4487422      1728000    2544.9018        69300         1286 
13870000   0.99944636   -5.3795314      1728000    2546.7976        69350         1286 
13880000    1.0180255   -5.4760481      1728000    2548.6748        69400         1286 
13890000    1.0517838   -5.4175506      1728000    2550.5459        69450         1286 
13900000    1.0443405   -5.4265772      1728000    2552.4258        69500         1286 
13910000    1.0431071   -5.3688169      1728000    2554.3128        69550         1286 
13920000    1.0661534   -5.3817097      1728000    2556.2217        69600         1287 
13930000    1.0078943   -5.4478345      1728000    2558.1227        69650         1287 
13940000    1.0147061   -5.3923886      1728000    2560.0076        69700         1287 
13950000   0.94172477   -5.3235271      1728000    2561.8846        69750         1287 
13960000   0.98306957   -5.4703097      1728000    2563.7799        69800         1287 
13970000    1.0403256   -5.4999498      1728000    2565.6975        69850         1287 
13980000    1.0477521   -5.4168084      1728000    2567.6078        69900         1287 
13990000    1.0156681   -5.4246248      1728000    2569.5002        69950         1287 
14000000   0.96998298   -5.4468297      1728000    2571.3875        70000         1287 
14010000    1.0126994   -5.3795349      1728000    2573.2636        70050         1287 
14020000    1.0252631   -5.3907825      1728000    2575.1676        70100         1287 
14030000    1.0127519   -5.4290959      1728000    2577.0446        70150         1287 
14040000    1.0166855   -5.4629871      1728000    2578.9267        70200         1287 
14050000     1.035996   -5.3004067      1728000    2580.8008        70250         1287 
14060000    0.9886876   -5.3952062      1728000    2582.6827        70300         1287 
14070000    1.0340541   -5.4412468      1728000    2584.5617        70350         1288 
14080000    1.0563971    -5.414732      1728000    2586.4477        70400         1288 
14090000    1.0260147   -5.2913545      1728000    2588.3234        70450         1288 
14100000    1.0120055   -5.4695973      1728000    2590.2077        70500         1288 
14110000    1.0290169   -5.3580883      1728000    2592.0727        70550         1288 
14120000   0.99872158   -5.3886729      1728000    2593.9499        70600         1288 
14130000   0.99695257   -5.4748017      1728000    2595.8424        70650         1288 
14140000   0.95520046   -5.4277947      1728000    2597.7255        70700         1288 
14150000   0.95774872   -5.5233607      1728000    2599.5936        70750         1288 
14160000    1.1201966   -5.4978173      1728000    2601.4736        70800         1288 
14170000    1.0505676   -5.3811716      1728000    2603.3597        70850         1288 
14180000    1.0393334   -5.4207222      1728000    2605.2287        70900         1288 
14190000    1.0004503   -5.3554139      1728000    2607.1084        70950         1288 
14200000   0.99557803   -5.3749732      1728000    2608.9808        71000         1288 
14210000   0.99023904    -5.330988      1728000    2610.8457        71050         1288 
14220000   0.95976814   -5.4954294      1728000    2612.7307        71100         1288 
14230000   0.95046455      -5.2613      1728000    2614.6485        71150         1288 
14240000     1.001791   -5.2688594      1728000    2616.5105        71200         1290 
14250000   0.99791211   -5.4149018      1728000    2618.3737        71250         1290 
14260000    1.0408819    -5.260764      1728000    2620.2374        71300         1290 
14270000    1.0008112   -5.3542383      1728000    2622.1098        71350         1290 
14280000   0.98313387   -5.3411361      1728000    2623.9616        71400         1290 
14290000   0.96872294   -5.4951381      1728000    2625.8254        71450         1290 
14300000    1.0027655   -5.4246786      1728000    2627.7005        71500         1290 
14310000   0.95993076   -5.4262959      1728000    2629.5917        71550         1290 
14320000   0.96431621   -5.4374419      1728000    2631.4954        71600         1290 
14330000   0.95684229   -5.4197027      1728000    2633.3646        71650         1290 
14340000    1.0152493   -5.4047476      1728000    2635.2537        71700         1290 
14350000    1.0040249   -5.3962405      1728000    2637.1226        71750         1290 
14360000   0.99620021   -5.4154383      1728000    2638.9856        71800         1290 
14370000   0.95408652    -5.314972      1728000    2640.8496        71850         1290 
14380000   0.95607893   -5.5000321      1728000    2642.7198        71900         1290 
14390000   0.96804261   -5.3938272      1728000    2644.6175        71950         1291 
14400000    1.0010164   -5.3759526      1728000    2646.5183        72000         1291 
14410000    1.0143027   -5.4833494      1728000    2648.3923        72050         1291 
14420000    1.0226357   -5.4641685      1728000    2650.2672        72100         1291 
14430000   0.99892305    -5.416278      1728000    2652.1391        72150         1291 
14440000    1.0787434   -5.3419645      1728000    2654.0245        72200         1291 
14450000   0.99740324   -5.3232127      1728000    2655.9379        72250         1291 
14460000   0.98442578   -5.3443665      1728000    2657.8272        72300         1291 
14470000     1.006904   -5.4621514      1728000    2659.7122        72350         1291 
14480000   0.95962091   -5.3896131      1728000    2661.6141        72400         1291 
14490000   0.95338454   -5.4851349      1728000    2663.5016        72450         1291 
14500000    1.0163353   -5.3745356      1728000    2665.4147        72500         1291 
14510000   0.98121305    -5.376165      1728000    2667.3146        72550         1291 
14520000   0.93674607   -5.4606988      1728000    2669.2076        72600         1291 
14530000   0.94434028   -5.4167599      1728000    2671.1094        72650         1292 
14540000    1.0096713   -5.3891707      1728000    2673.0095        72700         1292 
14550000    1.0667392   -5.4053217      1728000     2674.893        72750         1292 
14560000    1.0150359   -5.3884719      1728000    2676.7698        72800         1292 
14570000    1.0354657   -5.3900427      1728000    2678.6386        72850         1292 
14580000    1.0247698   -5.4993756      1728000    2680.5126        72900         1292 
14590000    1.0299771   -5.3825982      1728000     2682.384        72950         1292 
14600000   0.97076401   -5.4866498      1728000    2684.2753        73000         1292 
14610000   0.96944515   -5.5349275      1728000    2686.1676        73050         1292 
14620000    1.0400076   -5.3609691      1728000    2688.0395        73100         1292 
14630000    1.0143319   -5.5318897      1728000    2689.9115        73150         1292 
14640000    1.0568588   -5.3221998      1728000    2691.7937        73200         1292 
14650000   0.98401256   -5.3406759      1728000    2693.6975        73250         1292 
14660000    1.0176904    -5.366517      1728000    2695.5925        73300         1292 
14670000   0.97233226   -5.3213335      1728000    2697.5143        73350         1292 
14680000    1.0596839   -5.3791326      1728000    2699.4194        73400         1292 
14690000    1.0030152   -5.3821023      1728000    2701.2827        73450         1293 
14700000   0.96997547   -5.4419176      1728000    2703.1617        73500         1293 
14710000    1.0112542   -5.3811663      1728000    2705.0405        73550         1293 
14720000   0.98675637   -5.4159891      1728000    2706.9137        73600         1293 
14730000   0.98978866    -5.464956      1728000    2708.8001        73650         1293 
14740000   0.98993315   -5.4321692      1728000    2710.6774        73700         1293 
14750000    1.0584986     -5.48801      1728000    2712.5556        73750         1293 
14760000    1.0290156   -5.4343999      1728000    2714.4405        73800         1293 
14770000    1.0217093   -5.3423474      1728000    2716.3265        73850         1293 
14780000    0.9658657   -5.4487344      1728000    2718.2144        73900         1293 
14790000    1.0051831   -5.3585105      1728000    2720.0945        73950         1293 
14800000    1.0168246   -5.4136231      1728000    2721.9825        74000         1293 
14810000    1.0021113   -5.4043766      1728000    2723.8534        74050         1294 
14820000     1.049442   -5.2887313      1728000    2725.7308        74100         1294 
14830000    1.0412888   -5.4824772      1728000     2727.604        74150         1295 
14840000    1.0107317    -5.358779      1728000     2729.485        74200         1295 
14850000   0.95555078   -5.3379616      1728000    2731.3523        74250         1295 
14860000    1.0601905    -5.442787      1728000    2733.2264        74300         1295 
14870000    1.0632502   -5.3466159      1728000    2735.0965        74350         1295 
14880000    1.0173024   -5.4021596      1728000    2736.9624        74400         1296 
14890000    1.0152452    -5.322567      1728000    2738.8296        74450         1296 
14900000    1.0261064   -5.4826567      1728000    2740.7283        74500         1296 
14910000    1.0154767   -5.3578796      1728000    2742.6004        74550         1296 
14920000   0.96314797   -5.4120559      1728000    2744.4764        74600         1296 
14930000   0.99086825   -5.3990937      1728000    2746.3544        74650         1296 
14940000    1.0132621   -5.4761688      1728000    2748.2363        74700         1296 
14950000   0.98343574   -5.5041133      1728000    2750.1081        74750         1296 
14960000     1.016995    -5.441392      1728000    2751.9731        74800         1296 
14970000     1.026502   -5.3342578      1728000    2753.8324        74850         1296 
14980000   0.98678589   -5.4688304      1728000    2755.6996        74900         1296 
14990000    1.0441696   -5.4712264      1728000    2757.5742        74950         1296 
15000000   0.98942111    -5.394188      1728000    2759.4458        75000         1296 
15010000   0.98155263   -5.4239698      1728000    2761.3173        75050         1296 
15020000   0.97579608   -5.3901465      1728000    2763.1858        75100         1296 
15030000    1.0018381   -5.2912271      1728000    2765.0605        75150         1296 
15040000    1.0172692   -5.4135907      1728000    2766.9467        75200         1296 
15050000   0.97707615   -5.4391261      1728000    2768.8712        75250         1296 
15060000    1.0044469   -5.4413339      1728000    2770.7442        75300         1296 
15070000    1.0110659   -5.4199159      1728000     2772.621        75350         1296 
15080000   0.91909985   -5.4920413      1728000    2774.5205        75400         1297 
15090000   0.97309939   -5.4179706      1728000    2776.4007        75450         1297 
15100000    1.0294279   -5.3643193      1728000    2778.2774        75500         1297 
15110000    1.0217852   -5.4594464      1728000    2780.1472        75550         1297 
15120000   0.97168528    -5.477178      1728000    2782.0393        75600         1297 
15130000     1.064476   -5.5598904      1728000    2783.9232        75650         1297 
15140000   0.98803533   -5.4593377      1728000    2785.8288        75700         1297 
15150000    1.0395611   -5.4000852      1728000    2787.7906        75750         1297 
15160000   0.92232753   -5.3974307      1728000    2789.7014        75800         1297 
15170000   0.99060159   -5.4737996      1728000    2791.5952        75850         1297 
15180000    1.0305823   -5.3255787      1728000    2793.5012        75900         1297 
15190000   0.97292966   -5.5560289      1728000    2795.4106        75950         1297 
15200000    1.0226506   -5.5235549      1728000    2797.3063        76000         1297 
15210000    0.9977922   -5.4505623      1728000    2799.1861        76050         1297 
15220000    1.0498462   -5.3595606      1728000    2801.0675        76100         1297 
15230000    1.0104522   -5.4050811      1728000    2802.9595        76150         1297 
15240000   0.92528362   -5.5331001      1728000    2804.8743        76200         1297 
15250000    1.0667206   -5.3557772      1728000     2806.787        76250         1297 
15260000   0.95667795   -5.5080454      1728000    2808.6744        76300         1297 
15270000   0.97174842   -5.3606441      1728000    2810.5623        76350         1297 
15280000    1.0404873   -5.4992597      1728000    2812.4481        76400         1297 
15290000   0.96631213   -5.4754237      1728000     2814.329        76450         1297 
15300000    1.0407069   -5.5065473      1728000    2816.2403        76500         1298 
15310000    1.0272335   -5.3622416      1728000    2818.1398        76550         1298 
15320000    1.0483335   -5.4623701      1728000    2820.0463        76600         1298 
15330000   0.97679859   -5.3768277      1728000    2821.9389        76650         1298 
15340000   0.96150872   -5.3636006      1728000    2823.8232        76700         1298 
15350000   0.92328971   -5.5245658      1728000    2825.7306        76750         1298 
15360000    1.0211164   -5.4278905      1728000     2827.614        76800         1298 
15370000   0.97231442   -5.4936632      1728000    2829.4834        76850         1298 
15380000    1.0129284   -5.3389842      1728000     2831.357        76900         1298 
15390000    1.0239903   -5.3724841      1728000    2833.2372        76950         1298 
15400000   0.98953219   -5.3248248      1728000     2835.113        77000         1298 
15410000   0.94510795    -5.450402      1728000    2836.9803        77050         1298 
15420000    1.0073822   -5.2703661      1728000    2838.8404        77100         1298 
15430000   0.96382005   -5.3576684      1728000    2840.6993        77150         1298 
15440000   0.98829424   -5.4156608      1728000     2842.568        77200         1298 
15450000    1.0539791   -5.3724616      1728000    2844.4332        77250         1298 
15460000   0.97949506   -5.3231828      1728000    2846.3002        77300         1298 
15470000    1.0051366   -5.5259976      1728000    2848.1851        77350         1298 
15480000   0.96726267   -5.5087827      1728000    2850.0498        77400         1299 
15490000   0.98452278   -5.3611157      1728000     2851.928        77450         1299 
15500000   0.99806787   -5.5451393      1728000    2853.8121        77500         1299 
15510000    1.0331123   -5.4407049      1728000    2855.7412        77550         1299 
15520000   0.96903656   -5.3470448      1728000    2857.6269        77600         1299 
15530000    1.0407163   -5.4338918      1728000    2859.5083        77650         1299 
15540000   0.97680076   -5.5347308      1728000    2861.3941        77700         1299 
15550000    1.0618506   -5.3024867      1728000    2863.2682        77750         1299 
15560000    1.0179002   -5.3606609      1728000     2865.137        77800         1299 
15570000   0.99884408   -5.4296213      1728000    2867.0138        77850         1299 
15580000    1.0051262   -5.3363479      1728000    2868.9249        77900         1299 
15590000    1.0245866   -5.2989498      1728000    2870.8017        77950         1299 
15600000    1.0026624    -5.482648      1728000    2872.7133        78000         1299 
15610000    1.0188371   -5.3731223      1728000     2874.589        78050         1299 
15620000    0.9557769    -5.383105      1728000    2876.4828        78100         1299 
15630000   0.96476557   -5.4791059      1728000    2878.3536        78150         1299 
15640000    1.0201427   -5.3971757      1728000    2880.2706        78200         1299 
15650000    1.0540574   -5.5050954      1728000    2882.1653        78250         1299 
15660000    1.0402766   -5.3337677      1728000    2884.0687        78300         1299 
15670000   0.97895656   -5.4411831      1728000    2885.9563        78350         1299 
15680000    1.0793351   -5.5190667      1728000    2887.8262        78400         1299 
15690000   0.98659091    -5.386423      1728000    2889.7032        78450         1299 
15700000    1.0701095   -5.3722617      1728000     2891.582        78500         1299 
15710000    1.0521213   -5.4051138      1728000     2893.457        78550         1299 
15720000   0.94285722   -5.3906253      1728000    2895.3236        78600         1299 
15730000   0.95487725   -5.4100072      1728000     2897.189        78650         1299 
15740000   0.95831448   -5.4491459      1728000    2899.0624        78700         1299 
15750000   0.98320509   -5.3886624      1728000    2900.9419        78750         1299 
15760000   0.99177986   -5.3416917      1728000      2902.83        78800         1299 
15770000    1.0567631   -5.3576202      1728000    2904.6975        78850         1299 
15780000   0.99315131   -5.4212793      1728000     2906.569        78900         1299 
15790000   0.95365944    -5.428357      1728000    2908.4541        78950         1299 
15800000   0.97007323   -5.3697525      1728000    2910.3427        79000         1299 
15810000   0.95313241   -5.4344814      1728000    2912.2181        79050         1299 
15820000   0.97790528   -5.4002812      1728000    2914.0858        79100         1299 
15830000   0.97232963   -5.4545371      1728000    2915.9591        79150         1299 
15840000     1.078942   -5.3893091      1728000    2917.8731        79200         1299 
15850000    1.0541902   -5.5681048      1728000     2919.756        79250         1299 
15860000    1.0532704   -5.4955432      1728000    2921.6212        79300         1299 
15870000   0.97621618   -5.4371746      1728000    2923.4971        79350         1300 
15880000     1.032369    -5.354996      1728000    2925.3913        79400         1300 
15890000    1.0274272   -5.4223113      1728000      2927.26        79450         1300 
15900000   0.97462627   -5.3758536      1728000    2929.1552        79500         1300 
15910000    1.0634382   -5.5665907      1728000      2931.03        79550         1300 
15920000   0.95600595   -5.3950787      1728000     2932.929        79600         1300 
15930000    1.0498427   -5.5300468      1728000    2934.8093        79650         1300 
15940000    1.0186137   -5.3729552      1728000    2936.6771        79700         1300 
15950000   0.99814644    -5.312916      1728000     2938.544        79750         1300 
15960000    1.0190736   -5.3873626      1728000    2940.4372        79800         1300 
15970000    1.0863759   -5.5071312      1728000     2942.331        79850         1300 
15980000    1.0226019   -5.4267651      1728000    2944.2502        79900         1300 
15990000    1.0383054   -5.3730656      1728000     2946.118        79950         1300 
16000000    1.0024398   -5.3621953      1728000    2948.0111        80000         1300 
16010000    1.0532875   -5.3740049      1728000    2949.9531        80050         1300 
16020000    1.0185299   -5.3013974      1728000    2951.8399        80100         1300 
16030000   0.96248724    -5.456455      1728000    2953.7351        80150         1300 
16040000    1.0945915   -5.3968523      1728000    2955.6097        80200         1301 
16050000   0.94005089   -5.3622074      1728000     2957.512        80250         1301 
16060000   0.98060065   -5.3790623      1728000    2959.4088        80300         1301 
16070000   0.99925345   -5.4037431      1728000    2961.3942        80350         1301 
16080000    0.9793108    -5.339362      1728000    2963.3275        80400         1301 
16090000    1.0414123   -5.4728063      1728000    2965.2074        80450         1301 
16100000    0.9867754   -5.4768575      1728000     2967.102        80500         1301 
16110000    1.0527458    -5.422317      1728000     2968.994        80550         1301 
16120000   0.98437781   -5.4688805      1728000    2970.8708        80600         1301 
16130000   0.96970504   -5.2731855      1728000    2972.7721        80650         1301 
16140000     1.043796   -5.3655234      1728000    2974.6431        80700         1302 
16150000   0.96952842   -5.3414991      1728000    2976.5098        80750         1302 
16160000   0.97596359   -5.2916786      1728000     2978.408        80800         1303 
16170000    1.0089626   -5.3256548      1728000     2980.331        80850         1303 
16180000   0.99550248   -5.3406833      1728000    2982.2041        80900         1303 
16190000    1.0535023     -5.53058      1728000     2984.081        80950         1304 
16200000    1.0202581   -5.4443498      1728000    2985.9815        81000         1304 
16210000    1.0257128   -5.3003798      1728000    2987.8401        81050         1304 
16220000   0.96439347   -5.3849998      1728000    2989.6999        81100         1304 
16230000   0.99102548   -5.4145468      1728000    2991.5752        81150         1304 
16240000     1.025154   -5.4328714      1728000    2993.4539        81200         1304 
16250000     1.056013   -5.4720956      1728000    2995.3248        81250         1305 
16260000   0.98871894   -5.3879013      1728000    2997.2021        81300         1305 
16270000   0.97368706   -5.3406564      1728000    2999.0798        81350         1305 
16280000    1.0183725   -5.2765532      1728000     3000.959        81400         1305 
16290000    1.0213149   -5.3187086      1728000    3002.8278        81450         1305 
16300000   0.99466813   -5.3913761      1728000    3004.7311        81500         1305 
16310000    1.0140325   -5.4098567      1728000    3006.6181        81550         1305 
16320000     1.051444   -5.3436663      1728000    3008.4881        81600         1305 
16330000    1.0367813   -5.4720641      1728000     3010.343        81650         1305 
16340000   0.97833104   -5.4508391      1728000    3012.2099        81700         1305 
16350000    1.0257709   -5.4219125      1728000    3014.0899        81750         1305 
16360000    1.0287668   -5.4668054      1728000    3015.9509        81800         1305 
16370000   0.96463932   -5.3208616      1728000    3017.8248        81850         1305 
16380000   0.94141916   -5.4077783      1728000    3019.6856        81900         1305 
16390000    1.0024099   -5.4211764      1728000    3021.5599        81950         1305 
16400000    1.0489818   -5.3303102      1728000    3023.4558        82000         1305 
16410000    0.9551121   -5.4682904      1728000    3025.3342        82050         1305 
16420000    1.0384709   -5.2230359      1728000    3027.1908        82100         1306 
16430000     1.020836   -5.3290922      1728000    3029.0469        82150         1306 
16440000   0.95509644   -5.5550284      1728000    3030.9211        82200         1306 
16450000   0.98605971     -5.49349      1728000    3032.7923        82250         1306 
16460000    1.0201174   -5.4919973      1728000    3034.6931        82300         1306 
16470000    1.0251087   -5.4202588      1728000    3036.5504        82350         1306 
16480000   0.97536725   -5.4738403      1728000    3038.4128        82400         1306 
16490000   0.95557051    -5.279614      1728000     3040.292        82450         1306 
16500000    1.0374409   -5.4214554      1728000     3042.167        82500         1306 
16510000   0.97519036   -5.3987019      1728000    3044.0756        82550         1306 
16520000   0.99178331   -5.4116091      1728000    3045.9588        82600         1306 
16530000   0.98282538   -5.3567547      1728000     3047.831        82650         1306 
16540000   0.93999499   -5.4089976      1728000    3049.7037        82700         1306 
16550000   0.96197902   -5.3917341      1728000    3051.6259        82750         1306 
16560000   0.93963414    -5.447273      1728000    3053.5123        82800         1306 
16570000    0.9389393   -5.3738649      1728000    3055.4057        82850         1306 
16580000   0.95491175   -5.5234985      1728000    3057.2909        82900         1306 
16590000    1.0113817   -5.5138735      1728000    3059.1959        82950         1306 
16600000   0.98946136   -5.4676658      1728000    3061.1016        83000         1306 
16610000    1.0611863   -5.4667672      1728000    3062.9899        83050         1306 
16620000    0.9983836   -5.4107781      1728000    3064.8667        83100         1306 
16630000    1.0052172   -5.3193037      1728000    3066.7576        83150         1306 
16640000   0.94232178   -5.3464439      1728000    3068.6379        83200         1306 
16650000    1.0017341   -5.4012444      1728000    3070.5068        83250         1306 
16660000   0.94026018   -5.4002789      1728000    3072.4012        83300         1306 
16670000    1.0610104   -5.3100914      1728000     3074.285        83350         1307 
16680000   0.96074833   -5.4405747      1728000    3076.1647        83400         1307 
16690000   0.96278228   -5.4349567      1728000    3078.0447        83450         1307 
16700000   0.98437432   -5.4140123      1728000    3079.9378        83500         1307 
16710000     1.030808   -5.3977506      1728000    3081.8213        83550         1307 
16720000   0.93971565   -5.3262895      1728000     3083.699        83600         1307 
16730000   0.95563632    -5.459408      1728000    3085.5636        83650         1307 
16740000    1.0365372   -5.3496622      1728000    3087.4327        83700         1308 
16750000    1.0505657   -5.4746834      1728000    3089.2918        83750         1308 
16760000   0.99967322   -5.4453932      1728000    3091.1578        83800         1308 
16770000    0.9786317   -5.3249885      1728000    3093.0243        83850         1308 
16780000   0.98140806   -5.4092686      1728000    3094.9039        83900         1308 
16790000    1.0858976   -5.4582655      1728000    3096.7809        83950         1308 
16800000   0.97657634   -5.3836536      1728000    3098.6867        84000         1308 
16810000    1.0501393   -5.5021154      1728000    3100.5678        84050         1308 
16820000    1.0209647   -5.5258201      1728000    3102.4639        84100         1309 
16830000   0.97546234   -5.3142478      1728000    3104.3497        84150         1309 
16840000    1.0421452   -5.4967775      1728000    3106.2318        84200         1309 
16850000   0.98488698   -5.3016628      1728000    3108.1222        84250         1309 
16860000   0.97080078   -5.1916656      1728000     3109.997        84300         1309 
16870000   0.98948817   -5.4582189      1728000    3111.8588        84350         1311 
16880000    1.0477369   -5.5074999      1728000    3113.7188        84400         1311 
16890000    1.0778854   -5.4187699      1728000    3115.6193        84450         1311 
16900000    0.9710063   -5.4861105      1728000    3117.6684        84500         1311 
16910000     1.014422   -5.4311135      1728000    3119.7922        84550         1311 
16920000    1.0634536   -5.4789655      1728000     3121.715        84600         1311 
16930000   0.99565582   -5.4039603      1728000    3123.6172        84650         1311 
16940000    0.9597664   -5.4220827      1728000    3125.5695        84700         1311 
16950000    1.0347425   -5.3859824      1728000    3127.4889        84750         1311 
16960000   0.95546345   -5.4088154      1728000    3129.4129        84800         1312 
16970000   0.97153003   -5.5077217      1728000      3131.29        84850         1312 
16980000   0.95606134   -5.4436371      1728000    3133.1641        84900         1312 
16990000    1.0478038   -5.4913576      1728000    3135.0437        84950         1313 
17000000    1.0424835   -5.5731688      1728000    3136.9578        85000         1313 
17010000   0.98614095    -5.471586      1728000    3138.8448        85050         1313 
17020000   0.99322611   -5.4523684      1728000    3140.7188        85100         1314 
17030000    1.0027608   -5.4601901      1728000    3142.5821        85150         1314 
17040000   0.98396847    -5.400243      1728000    3144.4441        85200         1314 
17050000    0.9985472   -5.5110208      1728000     3146.313        85250         1314 
17060000   0.95231433   -5.4761875      1728000    3148.1819        85300         1314 
17070000   0.95762949   -5.2961823      1728000    3150.0469        85350         1314 
17080000   0.99810835   -5.3657968      1728000    3151.9258        85400         1314 
17090000   0.96282301   -5.4179631      1728000    3153.7968        85450         1314 
17100000   0.99914599   -5.3719732      1728000    3155.6736        85500         1314 
17110000   0.92083603   -5.4508169      1728000    3157.5441        85550         1314 
17120000    1.0269378   -5.3480608      1728000    3159.4145        85600         1314 
17130000    1.0158791   -5.4181366      1728000    3161.2948        85650         1314 
17140000    1.0640847   -5.2437886      1728000    3163.1668        85700         1314 
17150000    1.0341039   -5.3275719      1728000    3165.0555        85750         1314 
17160000    1.0104785   -5.4553921      1728000    3166.9225        85800         1315 
17170000    1.0035487   -5.3329408      1728000    3168.7932        85850         1315 
17180000    1.0021761   -5.3386284      1728000    3170.6616        85900         1315 
17190000    1.0208718   -5.4519322      1728000    3172.5291        85950         1315 
17200000   0.99855647    -5.405772      1728000    3174.4102        86000         1315 
17210000   0.98221542   -5.4881701      1728000    3176.2914        86050         1315 
17220000   0.94931239   -5.3736981      1728000    3178.1527        86100         1315 
17230000    1.0151769   -5.4978969      1728000    3180.0376        86150         1315 
17240000   0.96578303   -5.2565972      1728000    3181.9497        86200         1315 
17250000   0.97184908   -5.3810306      1728000    3183.8317        86250         1315 
17260000    1.0203642   -5.4645564      1728000    3185.7464        86300         1315 
17270000   0.98171643   -5.2876294      1728000    3187.6287        86350         1315 
17280000    1.0100749   -5.3554487      1728000    3189.4997        86400         1316 
17290000    1.0372188   -5.4550292      1728000    3191.3996        86450         1316 
17300000    1.0143949   -5.3830275      1728000    3193.3101        86500         1316 
17310000   0.98976041   -5.3389064      1728000    3195.2745        86550         1316 
17320000    1.0458268   -5.4187515      1728000    3197.2246        86600         1316 
17330000   0.98655626   -5.3523757      1728000     3199.093        86650         1316 
17340000    1.0049005   -5.3824966      1728000    3201.0053        86700         1317 
17350000   0.96314719    -5.362266      1728000    3202.9341        86750         1317 
17360000     1.083208   -5.4166669      1728000    3204.8166        86800         1317 
17370000    1.0089433   -5.4033424      1728000    3206.7244        86850         1317 
17380000   0.93957274   -5.4654026      1728000    3208.5947        86900         1317 
17390000   0.99970311   -5.4525503      1728000    3210.4746        86950         1317 
17400000   0.96944186   -5.4327813      1728000    3212.5207        87000         1317 
17410000    1.0693005   -5.4119601      1728000    3214.3904        87050         1317 
17420000    1.0178642   -5.3512506      1728000    3216.2957        87100         1317 
17430000   0.95613046   -5.3545503      1728000    3218.2494        87150         1317 
17440000     1.033083   -5.4748743      1728000    3220.1689        87200         1317 
17450000    1.0761525   -5.3213684      1728000    3222.0463        87250         1317 
17460000    1.0074346   -5.5124611      1728000    3223.9307        87300         1317 
17470000   0.98179132   -5.3586554      1728000    3225.8288        87350         1317 
17480000    1.0145249   -5.3786618      1728000    3227.6946        87400         1317 
17490000    1.0745786   -5.3103091      1728000    3229.5726        87450         1317 
17500000   0.95515892   -5.4134339      1728000    3231.4727        87500         1317 
17510000    1.0501873   -5.3835696      1728000    3233.3554        87550         1317 
17520000    1.0154847   -5.4387466      1728000    3235.2366        87600         1317 
17530000    1.0254001   -5.4271972      1728000    3237.1163        87650         1317 
17540000    1.0350084   -5.5263945      1728000    3238.9954        87700         1317 
17550000   0.97368862   -5.4694813      1728000    3240.8685        87750         1317 
17560000   0.99377907   -5.5111912      1728000    3242.7519        87800         1317 
17570000   0.96258054   -5.4541113      1728000    3244.6277        87850         1317 
17580000    1.0325361    -5.431407      1728000    3246.5136        87900         1317 
17590000    1.0188916   -5.4071086      1728000    3248.3955        87950         1317 
17600000    1.0156877     -5.27436      1728000    3250.2955        88000         1317 
17610000   0.93206103     -5.36799      1728000    3252.2346        88050         1317 
17620000    1.0345242   -5.4671605      1728000    3254.1394        88100         1317 
17630000    1.0299571   -5.4429951      1728000    3256.1372        88150         1317 
17640000    0.9294552   -5.3352326      1728000    3258.0412        88200         1318 
17650000    1.0460376   -5.3262564      1728000    3259.9733        88250         1318 
17660000   0.97821111   -5.3559577      1728000    3261.8438        88300         1318 
17670000    0.9851981    -5.388213      1728000    3263.7246        88350         1318 
17680000   0.98456366   -5.2625659      1728000    3265.6234        88400         1319 
17690000   0.96517473   -5.4551024      1728000    3267.5771        88450         1319 
17700000   0.99346881   -5.3712022      1728000    3269.7112        88500         1320 
17710000    0.9836953   -5.5839583      1728000     3271.843        88550         1320 
17720000   0.97701023   -5.3514834      1728000    3273.7622        88600         1320 
17730000    1.0153998   -5.4224983      1728000    3275.6696        88650         1320 
17740000   0.97733959   -5.4867149      1728000     3277.594        88700         1320 
17750000    0.9859409   -5.4823583      1728000    3279.5261        88750         1320 
17760000   0.97621342   -5.4196329      1728000    3281.4961        88800         1320 
17770000   0.95053345   -5.3538067      1728000    3283.3928        88850         1320 
17780000   0.97297656   -5.3536064      1728000    3285.3221        88900         1320 
17790000    1.0186763   -5.4208522      1728000    3287.2391        88950         1320 
17800000   0.96766765   -5.4109956      1728000    3289.1486        89000         1320 
17810000    1.0347435   -5.5374654      1728000    3291.0699        89050         1320 
17820000   0.99464112   -5.3071937      1728000    3292.9989        89100         1320 
17830000     1.020672   -5.5198111      1728000     3294.898        89150         1320 
17840000   0.99584635   -5.3821015      1728000    3296.8053        89200         1320 
17850000    1.0957114   -5.4869166      1728000    3298.7134        89250         1320 
17860000   0.97671796   -5.4651584      1728000    3300.6556        89300         1320 
17870000    1.0150257    -5.431755      1728000    3302.5527        89350         1320 
17880000   0.97917022   -5.3474534      1728000    3304.4457        89400         1321 
17890000    1.0049346    -5.381323      1728000    3306.3294        89450         1321 
17900000   0.99265421   -5.3860215      1728000    3308.2315        89500         1321 
17910000    1.0214919   -5.2958884      1728000    3310.1135        89550         1321 
17920000   0.94307042    -5.330487      1728000    3312.0276        89600         1321 
17930000    1.0502053    -5.415286      1728000    3313.9241        89650         1321 
17940000   0.98414282   -5.4277745      1728000    3315.8376        89700         1321 
17950000     0.979335   -5.3854821      1728000    3317.7978        89750         1321 
17960000    1.0461322   -5.4379697      1728000    3319.8536        89800         1321 
17970000   0.92853977   -5.5282639      1728000    3321.8407        89850         1322 
17980000    1.0502874   -5.4579648      1728000    3323.7802        89900         1322 
17990000   0.96434477   -5.4495729      1728000    3325.7155        89950         1322 
18000000    1.0683278    -5.431283      1728000    3327.6562        90000         1322 
18010000    1.0693405   -5.3315281      1728000    3329.5685        90050         1322 
18020000    1.0301719   -5.4323609      1728000    3331.4862        90100         1322 
18030000    1.0157429   -5.4883589      1728000    3333.4287        90150         1322 
18040000    1.0461769   -5.4538549      1728000    3335.3523        90200         1322 
18050000    1.0596809   -5.4781556      1728000    3337.2527        90250         1322 
18060000    1.0168246   -5.4561802      1728000    3339.2178        90300         1322 
18070000    1.0072647   -5.4530941      1728000    3341.1314        90350         1322 
18080000    1.0173087   -5.5502313      1728000    3343.0397        90400         1322 
18090000   0.98566444   -5.4980727      1728000    3345.0244        90450         1322 
18100000   0.98887345   -5.4293606      1728000    3347.0233        90500         1322 
18110000    1.0515585   -5.3994471      1728000     3348.976        90550         1322 
18120000   0.99804087   -5.3729444      1728000    3350.8726        90600         1322 
18130000   0.96971761   -5.6448382      1728000    3352.7594        90650         1322 
18140000    1.0162331   -5.4661448      1728000    3354.6552        90700         1322 
18150000    1.0514027   -5.3873467      1728000    3356.5872        90750         1322 
18160000   0.93633352    -5.410076      1728000    3358.5174        90800         1322 
18170000   0.98180287   -5.3347161      1728000     3360.408        90850         1322 
18180000    1.0539574   -5.4631122      1728000    3362.3153        90900         1322 
18190000   0.96863365   -5.3253146      1728000    3364.2687        90950         1322 
18200000    1.0055255   -5.4000089      1728000    3366.4845        91000         1322 
18210000   0.99136647   -5.2747858      1728000    3368.5077        91050         1322 
18220000   0.96847407    -5.470012      1728000    3370.5891        91100         1322 
18230000     0.989441   -5.2703838      1728000    3372.8937        91150         1322 
18240000     1.035636   -5.3786964      1728000    3374.9052        91200         1322 
18250000    1.1069849   -5.3534461      1728000     3376.864        91250         1322 
18260000    1.0167915   -5.4194512      1728000    3378.8292        91300         1322 
18270000   0.93899914   -5.3970167      1728000    3380.7956        91350         1322 
18280000    1.0017789   -5.3964668      1728000    3382.7504        91400         1322 
18290000   0.96219554   -5.4967117      1728000    3384.7246        91450         1322 
18300000    1.0237466   -5.5336618      1728000    3386.6913        91500         1322 
18310000    0.9867806   -5.4083888      1728000    3388.6526        91550         1322 
18320000      1.02934   -5.3423274      1728000    3390.6518        91600         1322 
18330000    1.0110336   -5.4246535      1728000    3392.5988        91650         1322 
18340000   0.96210984   -5.5163336      1728000    3394.5611        91700         1322 
18350000    1.0421279   -5.3900737      1728000    3396.5534        91750         1322 
18360000    1.0457256   -5.4911518      1728000    3398.6109        91800         1322 
18370000   0.95971694   -5.3237367      1728000    3400.6036        91850         1322 
18380000    1.0126335   -5.4021805      1728000    3402.5435        91900         1322 
18390000    1.0910349   -5.5174182      1728000    3404.5113        91950         1322 
18400000   0.97314571   -5.4624454      1728000    3406.4865        92000         1322 
18410000    1.0061021   -5.4531313      1728000    3408.4545        92050         1322 
18420000   0.97181786   -5.3774579      1728000    3410.4119        92100         1322 
18430000    1.0459927   -5.4504985      1728000    3412.3496        92150         1322 
18440000   0.96866719   -5.4702158      1728000    3414.3116        92200         1322 
18450000    0.9967519   -5.4573229      1728000    3416.2789        92250         1322 
18460000   0.97382373   -5.4045416      1728000    3418.2453        92300         1322 
18470000   0.95605208   -5.2590375      1728000    3420.2693        92350         1322 
18480000   0.99143997   -5.4067088      1728000    3422.2615        92400         1322 
18490000    1.0110236   -5.3523894      1728000    3424.2853        92450         1322 
18500000    1.0046528   -5.3219013      1728000    3426.2757        92500         1322 
18510000   0.98695285   -5.3620512      1728000    3428.3343        92550         1322 
18520000    0.9969093   -5.3657071      1728000     3430.635        92600         1322 
18530000   0.98228797   -5.4414466      1728000    3432.6119        92650         1322 
18540000   0.99204111   -5.3848841      1728000    3434.5554        92700         1322 
18550000   0.98436269   -5.4122853      1728000    3436.5583        92750         1322 
18560000   0.96288545   -5.4500343      1728000    3438.4925        92800         1322 
18570000   0.98560958   -5.2990297      1728000    3440.4261        92850         1322 
18580000    1.0004647   -5.4341534      1728000    3442.3493        92900         1322 
18590000    1.0447012   -5.4083732      1728000    3444.2824        92950         1322 
18600000    0.9231604   -5.4600571      1728000     3446.225        93000         1322 
18610000    1.0210115   -5.3769481      1728000    3448.1584        93050         1322 
18620000   0.92867773   -5.4619073      1728000    3450.1172        93100         1322 
18630000   0.97155975   -5.4396665      1728000    3452.1367        93150         1322 
18640000     1.018396   -5.4424295      1728000    3454.1793        93200         1322 
18650000   0.93733718    -5.396075      1728000    3456.1996        93250         1322 
18660000    1.0245381   -5.3281581      1728000    3458.1953        93300         1322 
18670000   0.96221734   -5.3999983      1728000    3460.1912        93350         1322 
18680000    0.9849432   -5.4329711      1728000    3462.1361        93400         1322 
18690000   0.93235841   -5.4281429      1728000    3464.0784        93450         1322 
18700000    1.0253621   -5.5088972      1728000    3466.0281        93500         1322 
18710000    1.1032024      -5.5506      1728000    3467.9657        93550         1322 
18720000     1.011577   -5.4743226      1728000    3469.8845        93600         1322 
18730000    1.0410752   -5.3686544      1728000    3471.8352        93650         1322 
18740000    1.0432314   -5.2764222      1728000    3473.7713        93700         1322 
18750000    1.0188458   -5.3119942      1728000    3475.7082        93750         1322 
18760000   0.95876321   -5.4232969      1728000     3477.645        93800         1322 
18770000    1.0036132   -5.3912833      1728000    3479.5692        93850         1322 
18780000   0.98754094   -5.3547711      1728000    3481.4972        93900         1322 
18790000   0.96613662   -5.3331492      1728000    3483.4482        93950         1322 
18800000   0.94767032   -5.4499978      1728000    3485.3921        94000         1322 
18810000   0.91318943   -5.4509918      1728000    3487.3164        94050         1322 
18820000    1.0393634   -5.4259357      1728000    3489.2658        94100         1322 
18830000   0.99713834   -5.4645548      1728000    3491.1731        94150         1322 
18840000    0.9930763    -5.383874      1728000    3493.1081        94200         1322 
18850000   0.93919999   -5.3423945      1728000    3495.0524        94250         1322 
18860000   0.99258287   -5.3045667      1728000    3496.9794        94300         1322 
18870000    1.0145148   -5.5283003      1728000    3498.9164        94350         1322 
18880000    1.0075311   -5.3508589      1728000    3500.8541        94400         1322 
18890000    1.0215215   -5.5419388      1728000    3502.7713        94450         1322 
18900000    1.0400178   -5.4681674      1728000    3504.7201        94500         1322 
18910000   0.97659532   -5.4605776      1728000    3506.6445        94550         1322 
18920000   0.91943498   -5.5004925      1728000     3508.612        94600         1322 
18930000   0.97479584   -5.4577123      1728000    3510.5863        94650         1322 
18940000    1.0090791   -5.4929511      1728000    3512.5181        94700         1322 
18950000   0.99377845   -5.4335383      1728000    3514.4535        94750         1322 
18960000    1.0293846   -5.4971698      1728000    3516.4001        94800         1322 
18970000    1.0471534    -5.430717      1728000    3518.3334        94850         1322 
18980000    1.0234148   -5.4653124      1728000    3520.2912        94900         1322 
18990000    1.0498873   -5.4074237      1728000    3522.2143        94950         1322 
19000000    1.0293025   -5.5012324      1728000    3524.1542        95000         1322 
19010000   0.98875346   -5.3718951      1728000     3526.107        95050         1322 
19020000     0.948888   -5.4124224      1728000     3528.055        95100         1322 
19030000    1.0575356   -5.2909819      1728000    3529.9868        95150         1322 
19040000    1.0527878   -5.3229441      1728000    3531.9142        95200         1322 
19050000   0.95509908   -5.4629455      1728000    3533.8531        95250         1322 
19060000    0.9795833   -5.3545079      1728000    3535.7873        95300         1322 
19070000    1.0296195   -5.3492676      1728000    3537.7002        95350         1322 
19080000    1.0835844   -5.4717458      1728000    3539.6311        95400         1322 
19090000    1.0583804   -5.4600758      1728000    3541.5427        95450         1322 
19100000    1.0018762   -5.3294223      1728000    3543.4946        95500         1322 
19110000    1.0545771   -5.4842854      1728000    3545.4588        95550         1322 
19120000   0.99334762   -5.4341437      1728000    3547.3859        95600         1322 
19130000   0.95016078   -5.4358355      1728000    3549.3153        95650         1322 
19140000   0.99267992   -5.4563451      1728000    3551.2373        95700         1322 
19150000    1.0430533   -5.3931448      1728000    3553.1665        95750         1323 
19160000    0.9333636   -5.3713264      1728000    3555.0931        95800         1323 
19170000    1.0291826   -5.3678489      1728000    3557.0222        95850         1323 
19180000    1.0285664   -5.4851839      1728000     3558.949        95900         1323 
19190000    1.0275788   -5.2635642      1728000    3560.8815        95950         1323 
19200000    1.0886887   -5.4537603      1728000    3562.8044        96000         1323 
19210000    1.0356862   -5.3683558      1728000    3564.7348        96050         1323 
19220000   0.98224503    -5.325529      1728000    3566.7049        96100         1323 
19230000   0.95224563   -5.4299986      1728000    3568.7397        96150         1324 
19240000   0.96363399    -5.356199      1728000    3570.6845        96200         1325 
19250000   0.98664246   -5.4346086      1728000    3572.6252        96250         1325 
19260000    1.0143294    -5.453563      1728000     3574.545        96300         1325 
19270000   0.98213207   -5.4500414      1728000     3576.489        96350         1325 
19280000   0.99498029   -5.4065641      1728000    3578.4301        96400         1325 
19290000    1.0109075   -5.3518286      1728000    3580.3728        96450         1325 
19300000   0.94488701   -5.4333616      1728000    3582.3861        96500         1325 
19310000    1.0662734   -5.3438463      1728000    3584.2994        96550         1325 
19320000   0.98345598   -5.4459021      1728000    3586.2344        96600         1325 
19330000    1.0258239   -5.4651588      1728000     3588.154        96650         1325 
19340000    1.0239658   -5.4506053      1728000    3590.0691        96700         1325 
19350000   0.97873461   -5.4875356      1728000     3591.991        96750         1325 
19360000    1.0384395   -5.3960771      1728000    3593.9348        96800         1325 
19370000    1.0134818   -5.3500534      1728000    3595.8576        96850         1326 
19380000    1.0117183   -5.4351848      1728000    3597.7813        96900         1326 
19390000   0.97574501   -5.5048948      1728000     3599.714        96950         1326 
19400000     1.061979   -5.4445351      1728000    3601.6662        97000         1326 
19410000    0.9594088   -5.3959604      1728000    3603.6041        97050         1326 
19420000    1.0288723   -5.3340309      1728000    3605.5679        97100         1326 
19430000    0.9721852   -5.4546311      1728000    3607.5321        97150         1326 
19440000   0.99413224   -5.4383104      1728000    3609.4614        97200         1326 
19450000    1.0014256   -5.3301985      1728000    3611.4064        97250         1326 
19460000    1.0437292   -5.3611256      1728000    3613.3452        97300         1326 
19470000   0.95321314   -5.3932175      1728000    3615.2862        97350         1326 
19480000    1.0427767   -5.2723096      1728000    3617.2041        97400         1327 
19490000    1.0383054   -5.5044106      1728000    3619.1452        97450         1327 
19500000    1.0346912   -5.3769378      1728000    3621.0819        97500         1327 
19510000    1.0055847   -5.4920119      1728000    3622.9949        97550         1327 
19520000    1.0626379    -5.424431      1728000     3624.925        97600         1327 
19530000   0.93777775   -5.3069037      1728000     3626.865        97650         1327 
19540000   0.92243268   -5.3193818      1728000    3628.8017        97700         1327 
19550000    0.9759288   -5.3659999      1728000    3630.7253        97750         1327 
19560000    1.0126472   -5.2890119      1728000     3632.639        97800         1327 
19570000    1.0435348   -5.3595379      1728000    3634.5631        97850         1327 
19580000   0.99503599   -5.4643283      1728000    3636.4844        97900         1327 
19590000   0.92881808    -5.441947      1728000    3638.4239        97950         1327 
19600000    1.0261748   -5.4463283      1728000    3640.3611        98000         1327 
19610000   0.99168335    -5.449431      1728000     3642.278        98050         1327 
19620000    1.0044934   -5.2876272      1728000      3644.22        98100         1327 
19630000    1.0163405   -5.4246882      1728000    3646.1643        98150         1327 
19640000    1.0173941   -5.3728177      1728000     3648.115        98200         1327 
19650000    1.0232867   -5.4487845      1728000    3650.0338        98250         1327 
19660000     1.006362    -5.338622      1728000    3651.9572        98300         1327 
19670000   0.97669566   -5.3627027      1728000     3653.878        98350         1327 
19680000   0.97038043   -5.4477204      1728000    3655.8629        98400         1327 
19690000    1.0370686   -5.4889562      1728000     3657.861        98450         1328 
19700000    1.0721698   -5.4149672      1728000    3659.7641        98500         1328 
19710000    1.1301909    -5.333835      1728000    3661.6358        98550         1328 
19720000    1.0496493   -5.4383186      1728000     3663.713        98600         1329 
19730000   0.94021596   -5.3759431      1728000    3665.6581        98650         1330 
19740000     1.079375   -5.4376904      1728000    3667.5761        98700         1330 
19750000    1.0574909   -5.4358065      1728000    3669.4739        98750         1330 
19760000    1.0462604   -5.5446934      1728000    3671.4256        98800         1330 
19770000     1.018891   -5.2974254      1728000    3673.3116        98850         1330 
19780000    1.0305611   -5.3384462      1728000    3675.2162        98900         1330 
19790000   0.98998826   -5.3365018      1728000    3677.1103        98950         1330 
19800000    1.0148715   -5.4923488      1728000    3679.0058        99000         1331 
19810000   0.98475399    -5.418198      1728000    3680.8937        99050         1331 
19820000    0.9543537   -5.3906904      1728000    3682.9739        99100         1332 
19830000   0.99082266   -5.4905204      1728000     3684.847        99150         1332 
19840000   0.97671416   -5.4030032      1728000    3686.7329        99200         1332 
19850000    1.0416619   -5.3844921      1728000     3688.598        99250         1332 
19860000    1.0086908    -5.433488      1728000    3690.5661        99300         1332 
19870000   0.93262509    -5.466007      1728000    3692.5138        99350         1332 
19880000   0.95898196   -5.3660289      1728000    3694.3758        99400         1333 
19890000    1.0542195   -5.3499431      1728000    3696.2878        99450         1333 
19900000     1.011111   -5.4172664      1728000       3698.3        99500         1334 
19910000   0.99619162   -5.3237086      1728000     3700.166        99550         1335 
19920000    1.0086948   -5.4111068      1728000     3702.059        99600         1336 
19930000     1.025465   -5.4152019      1728000    3703.9328        99650         1336 
19940000   0.94606472   -5.3314479      1728000    3705.8129        99700         1336 
19950000    1.0032878   -5.4200102      1728000    3707.6789        99750         1336 
19960000   0.99799659   -5.3672433      1728000    3709.5789        99800         1336 
19970000   0.97816544   -5.5297149      1728000    3711.5529        99850         1336 
19980000   0.92675208   -5.3898228      1728000    3713.5068        99900         1336 
19990000   0.94335037   -5.3880772      1728000    3715.4675        99950         1336 
20000000   0.99156367   -5.3853881      1728000    3717.4135       100000         1336 
20010000    1.0940642    -5.303023      1728000    3719.3926       100050         1336 
20020000   0.92873106   -5.3377531      1728000    3721.3411       100100         1336 
20030000    1.0291434   -5.4520298      1728000    3723.2861       100150         1337 
20040000   0.98087556   -5.3725578      1728000    3725.2591       100200         1337 
20050000   0.98121665   -5.4028654      1728000    3727.2061       100250         1337 
20060000    1.0596456   -5.4551683      1728000    3729.1665       100300         1337 
20070000    1.0424062   -5.4568308      1728000    3731.1058       100350         1337 
20080000    1.0009059   -5.3234954      1728000     3733.047       100400         1337 
20090000    1.0308982   -5.4538342      1728000     3735.082       100450         1337 
20100000    1.0028301   -5.4261358      1728000    3737.0469       100500         1338 
20110000   0.97068046   -5.2900775      1728000    3739.0288       100550         1338 
20120000   0.99312682   -5.3815871      1728000    3740.9438       100600         1338 
20130000    1.0280412   -5.4909934      1728000    3742.8627       100650         1339 
20140000    1.0138749   -5.2741648      1728000    3744.7949       100700         1340 
20150000    1.0155887   -5.4182321      1728000     3746.717       100750         1340 
20160000   0.97381327   -5.6188746      1728000    3748.6627       100800         1340 
20170000    0.9755841   -5.3715216      1728000    3750.6028       100850         1340 
20180000     1.054469   -5.4751359      1728000     3752.549       100900         1340 
20190000   0.99490508   -5.4907296      1728000    3754.4859       100950         1340 
20200000   0.99123657   -5.3737203      1728000    3756.4346       101000         1340 
20210000    1.0271269    -5.477858      1728000    3758.4262       101050         1340 
20220000     1.057778    -5.367192      1728000    3760.3599       101100         1340 
20230000   0.99924375   -5.4325727      1728000    3762.2937       101150         1340 
20240000    0.9962298   -5.3895358      1728000     3764.218       101200         1341 
20250000    1.0144062   -5.3249828      1728000    3766.1498       101250         1341 
20260000   0.94681607   -5.4425415      1728000    3768.0878       101300         1341 
20270000    1.0102464   -5.2958117      1728000    3770.0089       101350         1341 
20280000    1.0224513   -5.3549078      1728000    3771.9249       101400         1341 
20290000   0.97561886   -5.2949415      1728000    3773.9008       101450         1341 
20300000   0.94533171   -5.3876111      1728000    3775.8439       101500         1341 
20310000    1.0770999   -5.4876944      1728000    3777.7661       101550         1341 
20320000   0.99126658   -5.4417151      1728000    3779.6818       101600         1341 
20330000    1.0784147   -5.4710916      1728000    3781.5999       101650         1341 
20340000    1.0030418   -5.4398732      1728000    3783.5205       101700         1341 
20350000    1.0202618   -5.3824214      1728000    3785.4498       101750         1341 
20360000   0.99961464   -5.3656353      1728000    3787.3815       101800         1342 
20370000    1.0153039   -5.4294432      1728000    3789.3069       101850         1343 
20380000   0.98101326    -5.334189      1728000    3791.2237       101900         1343 
20390000    1.0011437   -5.4264026      1728000     3793.154       101950         1343 
20400000     1.002146   -5.5412932      1728000    3795.0876       102000         1343 
20410000    1.0217814   -5.3809501      1728000    3797.0108       102050         1343 
20420000    1.0185077   -5.4199511      1728000     3798.938       102100         1343 
20430000      1.04016   -5.3831431      1728000    3800.8946       102150         1343 
20440000    1.0286192      -5.4345      1728000    3802.8577       102200         1343 
20450000    0.9849141   -5.3092801      1728000    3804.7848       102250         1343 
20460000   0.98624961   -5.3739515      1728000     3806.716       102300         1343 
20470000    1.0466065   -5.4504555      1728000    3808.6411       102350         1343 
20480000    1.0694437   -5.5350756      1728000    3810.5908       102400         1343 
20490000    1.0045125   -5.5063744      1728000    3812.5242       102450         1343 
20500000    1.0503348   -5.4054499      1728000     3814.484       102500         1343 
20510000     1.010797   -5.4938703      1728000     3816.462       102550         1343 
20520000    1.0117358   -5.3489799      1728000    3818.3947       102600         1343 
20530000   0.99289242   -5.5491179      1728000    3820.3238       102650         1343 
20540000   0.98731864   -5.2941643      1728000    3822.2573       102700         1343 
20550000    1.0189828   -5.5038877      1728000    3824.1797       102750         1343 
20560000    1.0019672   -5.3294488      1728000    3826.1087       102800         1343 
20570000     1.024542   -5.4316113      1728000    3828.0352       102850         1343 
20580000    1.0198039   -5.3700774      1728000    3829.9718       102900         1343 
20590000    1.0094376   -5.4527775      1728000    3831.8908       102950         1343 
20600000   0.96042631    -5.463497      1728000    3833.9096       103000         1343 
20610000   0.95468926   -5.3679171      1728000    3835.8445       103050         1343 
20620000    1.0649486   -5.5009217      1728000    3837.7638       103100         1343 
20630000   0.95484532   -5.4574106      1728000    3839.7027       103150         1343 
20640000    1.0865009   -5.4275608      1728000    3841.6601       103200         1343 
20650000    1.0627485   -5.3910095      1728000    3843.5967       103250         1343 
20660000    1.0082207   -5.4093303      1728000    3845.5287       103300         1343 
20670000    1.0460957   -5.4054776      1728000    3847.4826       103350         1343 
20680000     1.007625   -5.3732799      1728000    3849.4521       103400         1343 
20690000     1.090671   -5.3411428      1728000    3851.3717       103450         1343 
20700000    1.0013841   -5.4206506      1728000    3853.3139       103500         1343 
20710000   0.99754728   -5.3212618      1728000    3855.2709       103550         1343 
20720000    1.0185816   -5.3635353      1728000    3857.2037       103600         1343 
20730000     1.033895   -5.3685745      1728000    3859.1379       103650         1343 
20740000    1.0252104   -5.4297318      1728000    3861.0649       103700         1343 
20750000   0.96183246   -5.3166161      1728000      3862.99       103750         1343 
20760000   0.99623933   -5.3128254      1728000    3864.9489       103800         1343 
20770000   0.99651182   -5.3748056      1728000    3866.8768       103850         1343 
20780000    1.0001699    -5.302469      1728000    3868.8038       103900         1343 
20790000    1.0095439   -5.3466126      1728000    3870.7367       103950         1343 
20800000   0.96779126   -5.3775164      1728000    3872.6698       104000         1343 
20810000     1.044135   -5.3623017      1728000    3874.6192       104050         1343 
20820000    1.0269036   -5.2780357      1728000    3876.5389       104100         1343 
20830000    1.0528936   -5.4280755      1728000    3878.4739       104150         1343 
20840000   0.98700993   -5.4307818      1728000    3880.4016       104200         1343 
20850000   0.94799174   -5.3978705      1728000     3882.312       104250         1343 
20860000    1.0266252   -5.4038877      1728000    3884.2419       104300         1343 
20870000   0.98288905   -5.4493149      1728000    3886.1839       104350         1343 
20880000    1.0586065   -5.3760285      1728000    3888.1089       104400         1343 
20890000    1.0495759   -5.4895638      1728000     3890.026       104450         1343 
20900000   0.92184685   -5.4442302      1728000    3891.9949       104500         1343 
20910000   0.97738382   -5.4245235      1728000    3893.9105       104550         1344 
20920000   0.99020845   -5.4184071      1728000    3895.8439       104600         1346 
20930000    1.0314001    -5.386278      1728000    3897.7761       104650         1346 
20940000    1.0115361   -5.4398015      1728000    3899.7564       104700         1346 
20950000    0.9872317   -5.4606198      1728000    3901.7302       104750         1347 
20960000    1.0510938   -5.4061081      1728000    3903.6648       104800         1347 
20970000   0.99283661   -5.4973549      1728000    3905.5917       104850         1347 
20980000    1.0310343   -5.3894139      1728000    3907.5617       104900         1347 
20990000   0.98724167   -5.4296584      1728000    3909.4908       104950         1347 
21000000   0.94700109   -5.4331464      1728000    3911.5077       105000         1347 
21010000   0.99627903   -5.4650564      1728000    3913.4287       105050         1348 
21020000    1.0078078   -5.3900173      1728000    3915.3667       105100         1348 
21030000    1.0029107   -5.4171256      1728000    3917.2836       105150         1348 
21040000    1.0352374   -5.3467649      1728000    3919.2395       105200         1349 
21050000   0.95105289   -5.4807643      1728000    3921.1646       105250         1349 
21060000    1.0587971    -5.338204      1728000    3923.0948       105300         1349 
21070000    1.0250086   -5.3890855      1728000    3925.0096       105350         1349 
21080000    1.0449949   -5.4603188      1728000    3926.9319       105400         1349 
21090000    1.0075575   -5.4435696      1728000    3928.8679       105450         1349 
21100000    1.0196094   -5.3242183      1728000    3930.7988       105500         1349 
21110000   0.92750598   -5.5043382      1728000    3932.7357       105550         1349 
21120000   0.98124189   -5.3486915      1728000    3934.6516       105600         1349 
21130000     1.003035   -5.3973522      1728000    3936.5688       105650         1349 
21140000     1.024774   -5.4271699      1728000    3938.4955       105700         1349 
21150000    1.0025466   -5.3908113      1728000    3940.4328       105750         1349 
21160000    1.0031576   -5.5232644      1728000    3942.3531       105800         1349 
21170000    1.0498386   -5.4815767      1728000    3944.2768       105850         1349 
21180000   0.97264316     -5.43335      1728000    3946.2488       105900         1350 
21190000   0.97312872   -5.4389738      1728000    3948.1968       105950         1350 
21200000    1.0461603   -5.4354983      1728000    3950.1304       106000         1350 
21210000    0.9927498   -5.5204037      1728000    3952.0736       106050         1350 
21220000   0.97214508    -5.321547      1728000    3954.0175       106100         1350 
21230000     0.911152   -5.5195448      1728000    3956.0048       106150         1350 
21240000    1.0296343   -5.3889066      1728000    3957.9356       106200         1350 
21250000    1.0513352   -5.4038915      1728000    3959.8587       106250         1350 
21260000    1.0018667    -5.360035      1728000    3961.8078       106300         1350 
21270000    1.0459992   -5.4228049      1728000    3963.7379       106350         1350 
21280000     1.009022   -5.5137019      1728000     3965.692       106400         1350 
21290000   0.98949481   -5.5002663      1728000    3967.6218       106450         1350 
21300000   0.98498559   -5.4285774      1728000    3969.5579       106500         1350 
21310000    1.0236544   -5.4331487      1728000    3971.5002       106550         1350 
21320000    1.0165384   -5.3574949      1728000    3973.4328       106600         1351 
21330000    1.0382175   -5.4572824      1728000    3975.3758       106650         1351 
21340000     1.031376   -5.3917369      1728000    3977.3078       106700         1351 
21350000   0.96414676   -5.4328614      1728000    3979.2235       106750         1352 
21360000   0.99681949   -5.2980412      1728000    3981.1488       106800         1352 
21370000   0.95694626   -5.3262266      1728000    3983.0789       106850         1353 
21380000   0.93511045   -5.3469738      1728000    3984.9888       106900         1353 
21390000   0.99478967   -5.3941318      1728000    3986.9117       106950         1353 
21400000   0.94070045   -5.3841288      1728000    3988.8493       107000         1353 
21410000    0.9569695   -5.4495535      1728000    3990.7813       107050         1354 
21420000   0.99878893   -5.3765636      1728000    3992.6957       107100         1354 
21430000    1.0167977   -5.4403911      1728000    3994.6474       107150         1355 
21440000    1.0704248   -5.3948049      1728000    3996.6307       107200         1355 
21450000   0.99890268   -5.4663653      1728000    3998.5495       107250         1355 
21460000    0.9460984   -5.4068244      1728000    4000.4646       107300         1355 
21470000   0.99437184   -5.3892965      1728000    4002.3846       107350         1355 
21480000   0.97666601   -5.4071859      1728000    4004.3548       107400         1355 
21490000   0.92189913   -5.3186369      1728000    4006.3538       107450         1355 
21500000    1.0438073   -5.2888957      1728000    4008.2735       107500         1357 
21510000    1.0488012   -5.4992842      1728000    4010.1907       107550         1358 
21520000   0.98265338   -5.3382567      1728000    4012.1115       107600         1358 
21530000    1.0255194   -5.3612961      1728000    4014.0246       107650         1358 
21540000   0.95140679   -5.4518725      1728000    4015.9522       107700         1359 
21550000    1.0036819   -5.4488074      1728000     4017.883       107750         1360 
21560000   0.99798477   -5.2925974      1728000    4019.8506       107800         1361 
21570000    1.0484793   -5.3536233      1728000    4021.7681       107850         1361 
21580000   0.98835965   -5.3224789      1728000    4023.6845       107900         1361 
21590000    1.0177071   -5.3587108      1728000    4025.5964       107950         1361 
21600000     1.011941   -5.3250978      1728000    4027.5285       108000         1361 
21610000     1.001151   -5.2809031      1728000    4029.4514       108050         1361 
21620000   0.95162162   -5.3278345      1728000    4031.3764       108100         1363 
21630000    1.0037588   -5.3925377      1728000    4033.2967       108150         1363 
21640000    1.0286994   -5.4283241      1728000    4035.2138       108200         1363 
21650000    1.0567487   -5.4487372      1728000    4037.1435       108250         1363 
21660000   0.98385364   -5.4724116      1728000    4039.1355       108300         1363 
21670000   0.96869539   -5.3706793      1728000    4041.0555       108350         1363 
21680000    1.0547726   -5.3385559      1728000    4042.9642       108400         1363 
21690000   0.97384888   -5.3332575      1728000    4044.9126       108450         1363 
21700000    1.0696783   -5.3791222      1728000    4046.8614       108500         1364 
21710000   0.99269245   -5.4145848      1728000    4048.8625       108550         1365 
21720000   0.97552918   -5.3761144      1728000    4050.9374       108600         1365 
21730000    1.0406281   -5.2720693      1728000    4052.9866       108650         1366 
21740000   0.98982254   -5.3618344      1728000    4054.9751       108700         1366 
21750000    1.0012396   -5.3137795      1728000    4057.0077       108750         1367 
21760000    1.0005334   -5.4526742      1728000    4059.1305       108800         1367 
21770000    1.0102005    -5.324796      1728000    4061.1554       108850         1367 
21780000    1.0058534   -5.2276243      1728000    4063.2165       108900         1368 
21790000   0.98983302   -5.4014769      1728000    4065.1996       108950         1370 
21800000   0.95670501   -5.3900598      1728000    4067.1486       109000         1371 
21810000   0.98695781   -5.4282788      1728000    4069.0693       109050         1371 
21820000    1.0598512   -5.3623248      1728000    4071.0957       109100         1371 
21830000   0.98116127   -5.4042204      1728000    4073.0239       109150         1371 
21840000   0.95004972   -5.3402663      1728000     4074.968       109200         1371 
21850000    1.0589851   -5.4553097      1728000     4076.907       109250         1371 
21860000    1.0691045   -5.3667231      1728000    4078.9709       109300         1373 
21870000   0.97991385   -5.4070164      1728000     4080.957       109350         1373 
21880000     1.014124   -5.4467667      1728000    4082.8574       109400         1373 
21890000    1.0011009   -5.4926636      1728000    4084.7586       109450         1373 
21900000   0.97781523   -5.3541014      1728000    4086.7086       109500         1373 
21910000    1.0316269   -5.3328311      1728000    4088.5887       109550         1373 
21920000   0.98873599   -5.4469911      1728000    4090.4763       109600         1373 
21930000   0.98590116   -5.4166904      1728000    4092.4348       109650         1373 
21940000   0.98721538   -5.3994259      1728000    4094.4238       109700         1373 
21950000    0.9412992   -5.3734085      1728000    4096.3202       109750         1373 
21960000    1.0161182   -5.3569945      1728000    4098.2594       109800         1373 
21970000   0.98201261   -5.3399755      1728000    4100.2073       109850         1373 
21980000   0.95419755   -5.3565461      1728000    4102.1043       109900         1373 
21990000   0.95302508   -5.5340868      1728000      4103.99       109950         1373 
22000000    1.0196934   -5.3390436      1728000    4105.8845       110000         1373 
22010000    1.0388293   -5.3839586      1728000    4107.9035       110050         1373 
22020000     1.065144   -5.3725174      1728000    4110.0363       110100         1373 
22030000    1.0415682   -5.2812938      1728000     4113.183       110150         1373 
22040000    1.0046871   -5.3501647      1728000    4115.2123       110200         1374 
22050000    0.9746606   -5.3874709      1728000    4117.3371       110250         1374 
22060000   0.98084557   -5.4260265      1728000    4119.3831       110300         1375 
22070000   0.90108741   -5.3865386      1728000    4121.4711       110350         1375 
22080000    1.0290534   -5.2658451      1728000    4123.7418       110400         1375 
22090000   0.94752501   -5.4386494      1728000    4125.8606       110450         1375 
22100000    0.9625014   -5.4039722      1728000    4127.9835       110500         1375 
22110000    1.0074669   -5.4316046      1728000    4130.0084       110550         1376 
22120000    1.0667509   -5.2463579      1728000    4132.0973       110600         1376 
22130000    1.0056889   -5.3682456      1728000    4134.2081       110650         1376 
22140000     1.049695   -5.4000158      1728000    4136.3749       110700         1376 
22150000   0.94933202   -5.3766888      1728000    4138.5087       110750         1376 
22160000    1.0008003   -5.2858773      1728000    4140.6185       110800         1376 
22170000     1.038191   -5.3505734      1728000    4142.6475       110850         1376 
22180000     1.047393   -5.3811429      1728000    4144.6164       110900         1376 
22190000    1.0419626   -5.4703681      1728000    4146.5874       110950         1376 
22200000    1.0337318   -5.3061139      1728000    4148.5764       111000         1377 
22210000   0.97064655   -5.3984504      1728000    4150.5464       111050         1377 
22220000   0.98394363   -5.3892881      1728000    4152.5173       111100         1377 
22230000     1.011475   -5.3890618      1728000    4154.4843       111150         1377 
22240000   0.97011668   -5.3870789      1728000    4156.4483       111200         1377 
22250000    1.0164726   -5.4175988      1728000    4158.4283       111250         1377 
22260000    1.0828934   -5.2941513      1728000    4160.4142       111300         1377 
22270000    0.9810492   -5.3281333      1728000    4162.3662       111350         1377 
22280000   0.95026065   -5.3091086      1728000    4164.3262       111400         1378 
22290000     1.007844   -5.4129802      1728000    4166.2952       111450         1378 
22300000    1.0014011   -5.3960836      1728000    4168.3141       111500         1378 
22310000    1.0280859   -5.3194881      1728000    4170.2911       111550         1378 
22320000    1.0037188   -5.3933696      1728000    4172.2831       111600         1380 
22330000    1.0925248   -5.3996757      1728000    4174.2631       111650         1380 
22340000    1.0473081   -5.3615341      1728000      4176.23       111700         1380 
22350000   0.99585033   -5.5700777      1728000     4178.202       111750         1380 
22360000    1.0282593   -5.3716371      1728000     4180.166       111800         1380 
22370000   0.97938166   -5.3868652      1728000     4182.147       111850         1380 
22380000    1.0132597   -5.3857236      1728000     4184.101       111900         1381 
22390000   0.98643187   -5.4292779      1728000    4186.0639       111950         1381 
22400000    1.0607945   -5.4231095      1728000    4188.0399       112000         1382 
22410000    1.0623064   -5.4277434      1728000    4190.0609       112050         1384 
22420000    1.0210647    -5.406735      1728000    4192.0348       112100         1384 
22430000    1.0652371   -5.4369591      1728000    4193.9918       112150         1385 
22440000   0.98363798   -5.3961257      1728000    4195.9628       112200         1385 
22450000    1.0129896   -5.4455739      1728000    4197.9758       112250         1385 
22460000    1.0080798   -5.3243047      1728000    4199.9467       112300         1385 
22470000   0.95151899   -5.4087889      1728000    4201.9657       112350         1386 
22480000   0.98797784   -5.4247446      1728000    4203.9496       112400         1386 
22490000    1.0131573   -5.3671909      1728000    4205.9146       112450         1387 
22500000    1.0345985   -5.3725952      1728000    4207.9106       112500         1387 
22510000    1.0431613   -5.4224269      1728000    4209.8706       112550         1387 
22520000   0.97183487   -5.3268281      1728000    4211.8715       112600         1387 
22530000    0.9869441   -5.3557493      1728000    4213.8974       112650         1389 
22540000   0.98412288   -5.4444935      1728000    4215.8554       112700         1389 
22550000    1.0015249   -5.4300948      1728000    4217.8144       112750         1389 
22560000   0.97204266   -5.3920956      1728000    4219.7844       112800         1389 
22570000   0.99599459   -5.4262915      1728000    4221.7624       112850         1389 
22580000    1.0673683   -5.3412222      1728000    4223.7503       112900         1391 
22590000    1.0040696   -5.3682141      1728000    4225.7023       112950         1392 
22600000    1.0179036     -5.43274      1728000    4227.7243       113000         1392 
22610000    1.0171278   -5.3127544      1728000    4229.6803       113050         1392 
22620000   0.98345116   -5.3689391      1728000    4231.6313       113100         1392 
22630000    1.0061145   -5.3811479      1728000    4233.6092       113150         1392 
22640000   0.90137995   -5.3325574      1728000    4235.5792       113200         1392 
22650000   0.93413306   -5.2837671      1728000    4237.5702       113250         1393 
22660000   0.98825002   -5.4416906      1728000    4239.5372       113300         1393 
22670000    1.0245227    -5.340434      1728000    4241.5551       113350         1393 
22680000   0.98423432   -5.2845484      1728000    4243.5521       113400         1393 
22690000    1.0506877   -5.4067012      1728000     4245.512       113450         1393 
22700000   0.96250661   -5.3423686      1728000     4247.501       113500         1393 
22710000     1.039986    -5.334558      1728000     4249.462       113550         1394 
22720000   0.95847724   -5.3958741      1728000     4251.447       113600         1394 
22730000   0.99203904   -5.4119485      1728000    4253.4239       113650         1394 
22740000    1.0089715   -5.4715472      1728000    4255.3809       113700         1394 
22750000   0.93346072   -5.5806751      1728000    4257.3419       113750         1394 
22760000    1.0438051    -5.432316      1728000    4259.3029       113800         1394 
22770000   0.98869066   -5.4530423      1728000    4261.2579       113850         1394 
22780000   0.97701939   -5.4748033      1728000    4263.2339       113900         1395 
22790000    1.0269244   -5.5591877      1728000    4265.1999       113950         1395 
22800000    1.0235474    -5.306714      1728000    4267.2238       114000         1395 
22810000    1.0330731   -5.3697896      1728000    4269.1748       114050         1395 
22820000    0.9121888   -5.3599365      1728000    4271.1418       114100         1395 
22830000    1.0434886   -5.3590077      1728000    4273.1177       114150         1395 
22840000    1.0021159   -5.4208537      1728000    4275.1077       114200         1395 
22850000   0.96933477   -5.3397713      1728000    4277.0937       114250         1395 
22860000     1.038953    -5.315267      1728000    4279.0637       114300         1395 
22870000    1.0079361   -5.2968655      1728000    4281.0726       114350         1395 
22880000      1.01856   -5.4718978      1728000    4283.0091       114400         1396 
22890000    1.0079764   -5.4237463      1728000    4284.8924       114450         1396 
22900000    1.0283898   -5.3089355      1728000    4286.8678       114500         1396 
22910000    1.0306843   -5.3817851      1728000    4288.7919       114550         1396 
22920000    1.0235464   -5.3825518      1728000    4290.7351       114600         1396 
22930000   0.97871207   -5.3486299      1728000    4292.6388       114650         1396 
22940000   0.97279289   -5.4499085      1728000    4294.4987       114700         1396 
22950000    1.0218026   -5.2971784      1728000    4296.3548       114750         1396 
22960000   0.98118174   -5.4131438      1728000    4298.2229       114800         1396 
22970000     1.078278   -5.3975569      1728000    4300.1013       114850         1396 
22980000    1.0629746   -5.3480777      1728000    4301.9864       114900         1396 
22990000    1.0104262   -5.4908299      1728000    4303.9583       114950         1396 
23000000    1.0137817   -5.3259024      1728000    4305.8645       115000         1396 
23010000    1.0210938   -5.5039959      1728000    4307.7271       115050         1397 
23020000   0.97652651   -5.3421267      1728000     4309.586       115100         1397 
23030000   0.99501233   -5.4239211      1728000    4311.4899       115150         1397 
23040000     1.028903   -5.2884487      1728000     4313.352       115200         1397 
23050000    1.0167746   -5.4727893      1728000    4315.2084       115250         1397 
23060000   0.96222034   -5.4793105      1728000    4317.0801       115300         1397 
23070000    1.0588188   -5.3891854      1728000    4318.9464       115350         1397 
23080000    1.0063129   -5.4331849      1728000    4320.8377       115400         1398 
23090000    1.0396153   -5.4665048      1728000     4322.723       115450         1399 
23100000   0.97213803   -5.3962862      1728000    4324.6074       115500         1399 
23110000   0.99944412   -5.4673379      1728000    4326.4792       115550         1399 
23120000    0.9644406   -5.3847925      1728000    4328.3549       115600         1399 
23130000   0.95304204   -5.2994574      1728000     4330.218       115650         1400 
23140000   0.98046243   -5.3996168      1728000    4332.0749       115700         1400 
23150000   0.97639744   -5.3334914      1728000    4333.9489       115750         1400 
23160000    1.0362607   -5.3597741      1728000    4335.8201       115800         1400 
23170000     1.005577   -5.3791213      1728000     4337.674       115850         1400 
23180000   0.95422989   -5.3565383      1728000     4339.548       115900         1400 
23190000    1.0452215   -5.2985341      1728000    4341.4097       115950         1400 
23200000   0.98772962   -5.5144038      1728000     4343.287       116000         1400 
23210000    1.0134047   -5.3561321      1728000    4345.1449       116050         1400 
23220000   0.94289151   -5.3506961      1728000    4347.0007       116100         1401 
23230000    1.0318688   -5.2768848      1728000    4348.8529       116150         1401 
23240000    1.0067872   -5.3782882      1728000    4350.7189       116200         1401 
23250000   0.96010665   -5.5209625      1728000    4352.5747       116250         1401 
23260000   0.95002637   -5.3363118      1728000    4354.4333       116300         1401 
23270000    1.0115567    -5.418624      1728000     4356.292       116350         1401 
23280000   0.95976672   -5.4624333      1728000    4358.1739       116400         1401 
23290000     1.018917   -5.4104458      1728000    4360.0497       116450         1401 
23300000    1.0357747    -5.454362      1728000    4361.9377       116500         1402 
23310000    1.0030554   -5.5541195      1728000    4363.8009       116550         1402 
23320000   0.96690412   -5.3461583      1728000    4365.6597       116600         1402 
23330000   0.99770805   -5.3394752      1728000    4367.5148       116650         1404 
23340000    1.0647132   -5.3537705      1728000    4369.3772       116700         1404 
23350000    1.0131048   -5.4723567      1728000    4371.2368       116750         1405 
23360000    1.0308925   -5.4199552      1728000    4373.1147       116800         1405 
23370000    0.9952376    -5.371773      1728000    4374.9744       116850         1405 
23380000   0.97128414   -5.3197016      1728000    4376.8315       116900         1406 
23390000    1.0179551   -5.4182681      1728000    4378.6799       116950         1406 
23400000   0.99325066   -5.5100301      1728000    4380.5625       117000         1406 
23410000   0.96574796    -5.323346      1728000    4382.4218       117050         1406 
23420000    1.0390373   -5.3918802      1728000    4384.2927       117100         1407 
23430000    1.0155511   -5.2262307      1728000    4386.1396       117150         1407 
23440000    1.0125224   -5.3055758      1728000    4387.9908       117200         1407 
23450000   0.96290424   -5.3329317      1728000    4389.8501       117250         1407 
23460000   0.97859362   -5.3380573      1728000    4391.7058       117300         1407 
23470000    1.0302845   -5.2774686      1728000     4393.564       117350         1408 
23480000   0.93669504   -5.3710582      1728000    4395.4379       117400         1408 
23490000   0.99738791   -5.4095329      1728000    4397.3057       117450         1408 
23500000    1.0001749   -5.3453604      1728000    4399.1888       117500         1408 
23510000   0.96888979   -5.3608923      1728000    4401.0491       117550         1409 
23520000    1.0177364    -5.457159      1728000     4402.902       117600         1409 
23530000   0.99994946   -5.2896463      1728000    4404.7649       117650         1409 
23540000   0.97756631    -5.366949      1728000    4406.6207       117700         1409 
23550000   0.97351594   -5.3435968      1728000    4408.4936       117750         1409 
23560000    1.0113621   -5.3049685      1728000     4410.348       117800         1409 
23570000   0.94882151   -5.3810728      1728000    4412.2065       117850         1409 
23580000    1.0200281   -5.3812801      1728000     4414.069       117900         1409 
23590000     1.027562   -5.3296427      1728000    4415.9281       117950         1409 
23600000    1.0358278   -5.3660687      1728000    4417.8036       118000         1409 
23610000   0.97029477   -5.4366638      1728000     4419.666       118050         1409 
23620000    1.0925473   -5.2122035      1728000    4421.5269       118100         1409 
23630000    1.0018717   -5.3823791      1728000    4423.3953       118150         1410 
23640000    1.0396542   -5.4741477      1728000    4425.3761       118200         1410 
23650000   0.97054249   -5.3382202      1728000    4427.2409       118250         1410 
23660000   0.99121233   -5.4520616      1728000    4429.1478       118300         1410 
23670000    1.0339127   -5.5173436      1728000    4431.0659       118350         1411 
23680000    1.0434181   -5.3758605      1728000    4433.0251       118400         1411 
23690000      1.01189   -5.4419119      1728000     4435.065       118450         1411 
23700000    1.0559756   -5.3893115      1728000    4436.9688       118500         1411 
23710000   0.93304331   -5.2096302      1728000    4438.8457       118550         1411 
23720000   0.95331158   -5.3650469      1728000    4440.7534       118600         1411 
23730000    1.0002591   -5.3487008      1728000    4442.6818       118650         1411 
23740000    1.0325952    -5.314322      1728000    4444.5828       118700         1411 
23750000   0.98209526   -5.4658162      1728000    4446.4896       118750         1411 
23760000   0.95141939   -5.4961246      1728000    4448.3855       118800         1411 
23770000    1.0022378   -5.3817607      1728000    4450.2736       118850         1411 
23780000   0.92182512   -5.3621639      1728000    4452.1699       118900         1411 
23790000   0.99530851   -5.2888788      1728000    4454.0598       118950         1411 
23800000    0.9512417   -5.4927414      1728000         4456       119000         1411 
23810000   0.93577093   -5.3320712      1728000    4457.8787       119050         1411 
23820000    1.0233881   -5.4620298      1728000    4459.7723       119100         1411 
23830000    1.0643145   -5.4761433      1728000    4461.6638       119150         1411 
23840000    1.0247516   -5.3355533      1728000    4463.5528       119200         1412 
23850000      1.03394   -5.3261749      1728000    4465.4308       119250         1412 
23860000   0.96748927   -5.3520243      1728000    4467.4635       119300         1412 
23870000   0.93350153   -5.4381529      1728000     4469.551       119350         1413 
23880000    1.0410053   -5.4051393      1728000    4471.4467       119400         1413 
23890000   0.97188851   -5.2724911      1728000    4473.3389       119450         1413 
23900000   0.98547134   -5.4106205      1728000    4475.2682       119500         1414 
23910000   0.97049496   -5.4330007      1728000    4477.2469       119550         1414 
23920000    0.9769183   -5.3081962      1728000      4479.25       119600         1414 
23930000   0.93693253   -5.3259527      1728000      4481.28       119650         1414 
23940000   0.95585322   -5.4453737      1728000    4483.2038       119700         1414 
23950000   0.98947345   -5.4029615      1728000    4485.0926       119750         1414 
23960000    1.0062106   -5.4248773      1728000    4486.9732       119800         1414 
23970000   0.99629256   -5.3136274      1728000    4488.8588       119850         1414 
23980000   0.94021186   -5.4699303      1728000    4490.7738       119900         1414 
23990000    1.0616065   -5.4540429      1728000    4492.6828       119950         1414 
24000000     0.963627   -5.4108556      1728000    4494.5868       120000         1414 
24010000   0.97300967   -5.3937151      1728000    4496.5423       120050         1414 
24020000    1.0026075   -5.4831643      1728000    4498.4887       120100         1414 
24030000    1.0241885   -5.4293329      1728000    4500.4362       120150         1414 
24040000    1.0138225   -5.5331414      1728000    4502.3346       120200         1414 
24050000   0.94855531   -5.3561813      1728000    4504.2278       120250         1414 
24060000    1.0078095   -5.4265221      1728000    4506.1217       120300         1414 
24070000    1.0137008   -5.4005985      1728000    4508.0503       120350         1414 
24080000    1.0153018    -5.420214      1728000    4509.9307       120400         1414 
24090000    1.0386895   -5.5738627      1728000    4511.8036       120450         1414 
24100000   0.98438126   -5.2881906      1728000    4513.6838       120500         1414 
24110000   0.96718296   -5.4640768      1728000    4515.5618       120550         1414 
24120000    1.0813911   -5.4260343      1728000    4517.4503       120600         1414 
24130000   0.95935653   -5.3681934      1728000    4519.3266       120650         1414 
24140000   0.97243149    -5.362189      1728000    4521.2027       120700         1414 
24150000    1.0127362   -5.4484085      1728000    4523.0807       120750         1414 
24160000    1.0187511   -5.3694105      1728000    4524.9527       120800         1414 
24170000    1.0535477   -5.3887083      1728000    4526.8297       120850         1414 
24180000    1.0657353   -5.4234805      1728000    4528.7015       120900         1414 
24190000    1.0082743   -5.4743566      1728000    4530.5767       120950         1414 
24200000    0.9763236   -5.4561876      1728000    4532.4617       121000         1414 
24210000    1.0313838   -5.4150722      1728000    4534.3398       121050         1414 
24220000   0.93567298   -5.4094979      1728000    4536.2097       121100         1414 
24230000   0.96385913   -5.2945358      1728000    4538.0748       121150         1414 
24240000    1.0047219    -5.399123      1728000    4539.9506       121200         1414 
24250000   0.92414152   -5.5382857      1728000    4541.8297       121250         1414 
24260000    1.0616944   -5.5144826      1728000    4543.7106       121300         1414 
24270000    1.0364185   -5.3856791      1728000    4545.5792       121350         1414 
24280000    1.0455888   -5.4640209      1728000    4547.4537       121400         1414 
24290000     1.002908   -5.4194996      1728000    4549.3257       121450         1414 
24300000   0.96603926   -5.4860579      1728000     4551.213       121500         1414 
24310000   0.99705051   -5.4363898      1728000    4553.0936       121550         1414 
24320000    1.0441707   -5.5891561      1728000    4554.9838       121600         1414 
24330000    1.0236229   -5.3954605      1728000    4556.8702       121650         1414 
24340000   0.94613003   -5.4697145      1728000    4558.7588       121700         1414 
24350000   0.97213107   -5.3841738      1728000    4560.7135       121750         1414 
24360000    1.0281856   -5.4073302      1728000     4562.642       121800         1414 
24370000    1.0147038   -5.4645935      1728000    4564.5377       121850         1414 
24380000    1.0296231   -5.2902777      1728000    4566.4147       121900         1414 
24390000    1.0655441     -5.32397      1728000    4568.2846       121950         1415 
24400000   0.98114675   -5.3978845      1728000    4570.1625       122000         1416 
24410000   0.93728823   -5.4228257      1728000    4572.0477       122050         1416 
24420000     1.019999   -5.4394302      1728000    4573.9347       122100         1417 
24430000     1.028389   -5.4351286      1728000    4575.8347       122150         1417 
24440000   0.94605046   -5.4325738      1728000    4577.7316       122200         1417 
24450000   0.99600128   -5.3183717      1728000    4579.6276       122250         1417 
24460000   0.95972733   -5.3419923      1728000    4581.5186       122300         1417 
24470000    1.0112634   -5.3165154      1728000    4583.3967       122350         1417 
24480000   0.98866514   -5.4923023      1728000    4585.2895       122400         1417 
24490000   0.97819661    -5.336216      1728000    4587.1696       122450         1417 
24500000   0.98140778   -5.3498844      1728000    4589.0607       122500         1418 
24510000    1.0151734   -5.3500936      1728000    4590.9365       122550         1418 
24520000   0.97209125   -5.3671024      1728000    4592.8156       122600         1418 
24530000   0.99797342   -5.4540551      1728000    4594.6907       122650         1418 
24540000   0.99632438   -5.3350687      1728000    4596.5655       122700         1418 
24550000   0.98009981   -5.2808896      1728000    4598.4476       122750         1418 
24560000   0.98338486   -5.4042761      1728000    4600.3297       122800         1418 
24570000    1.0128248   -5.3790477      1728000    4602.2125       122850         1418 
24580000     1.006838    -5.443383      1728000    4604.0917       122900         1418 
24590000   0.98604639   -5.5349464      1728000    4605.9777       122950         1418 
24600000   0.97570379   -5.3056764      1728000    4607.8728       123000         1418 
24610000    1.0489658   -5.4613177      1728000    4609.7554       123050         1418 
24620000    1.0310393   -5.3410877      1728000    4611.6366       123100         1418 
24630000    1.0230867   -5.3304691      1728000    4613.5118       123150         1418 
24640000   0.99930769   -5.5619497      1728000    4615.4196       123200         1418 
24650000   0.96467416   -5.3427017      1728000    4617.3646       123250         1418 
24660000   0.97160858   -5.4217541      1728000    4619.2623       123300         1418 
24670000   0.95503242   -5.4058688      1728000    4621.1515       123350         1418 
24680000    1.0098712   -5.3669399      1728000    4623.0335       123400         1418 
24690000    1.0238212   -5.3697324      1728000    4624.9156       123450         1418 
24700000   0.94889239    -5.321018      1728000    4626.7993       123500         1418 
24710000    1.0218616   -5.4075393      1728000    4628.6766       123550         1418 
24720000    1.0681788   -5.5145639      1728000    4630.6182       123600         1418 
24730000   0.99591406   -5.4676636      1728000    4632.5288       123650         1418 
24740000    1.0444744   -5.5642202      1728000    4634.4052       123700         1418 
24750000   0.93579079   -5.4068003      1728000    4636.2992       123750         1418 
24760000   0.97767128    -5.448998      1728000    4638.1798       123800         1418 
24770000   0.98164555   -5.3857301      1728000    4640.0455       123850         1418 
24780000    1.0253081   -5.5430581      1728000     4641.939       123900         1418 
24790000   0.97086259   -5.3905195      1728000    4643.8617       123950         1418 
24800000    1.0017041   -5.4455589      1728000    4645.7725       124000         1418 
24810000    1.0222432   -5.4555202      1728000    4647.6504       124050         1418 
24820000     1.009047   -5.4954039      1728000    4649.5245       124100         1418 
24830000    1.0104522   -5.5119589      1728000    4651.3955       124150         1418 
24840000     1.043816   -5.5184487      1728000    4653.2674       124200         1418 
24850000     1.042224   -5.5215384      1728000    4655.1605       124250         1418 
24860000   0.94411901   -5.4000219      1728000    4657.0577       124300         1418 
24870000   0.95990104    -5.560615      1728000    4659.0012       124350         1418 
24880000    1.0714015    -5.496467      1728000    4660.9817       124400         1418 
24890000   0.96962948   -5.3995361      1728000    4662.8875       124450         1418 
24900000    1.0065824   -5.3965974      1728000    4664.7709       124500         1418 
24910000   0.98885496   -5.3363744      1728000    4666.6477       124550         1418 
24920000    1.0219652    -5.443256      1728000    4668.5494       124600         1418 
24930000   0.98039785   -5.4514289      1728000    4670.5054       124650         1418 
24940000   0.99524487   -5.4330769      1728000    4672.4344       124700         1418 
24950000   0.86795689   -5.4649046      1728000    4674.3437       124750         1418 
24960000    1.0137712   -5.2530603      1728000    4676.2519       124800         1418 
24970000    1.0687304   -5.5129839      1728000    4678.1766       124850         1418 
24980000    1.0214247   -5.5175456      1728000    4680.0763       124900         1418 
24990000     1.021481   -5.4004275      1728000    4681.9658       124950         1418 
25000000    1.0003336   -5.4702479      1728000    4683.9768       125000         1418 
25010000   0.98994151   -5.4969805      1728000    4685.8725       125050         1418 
25020000    1.0264582   -5.3904732      1728000    4687.7894       125100         1418 
25030000    1.0192109   -5.3892819      1728000    4689.7455       125150         1418 
25040000   0.95825357   -5.4875819      1728000    4691.6615       125200         1418 
25050000    1.0103395     -5.39674      1728000    4693.5694       125250         1418 
25060000    1.0159338   -5.3322882      1728000    4695.4825       125300         1418 
25070000    1.0367727   -5.4168585      1728000    4697.3692       125350         1418 
25080000    1.0269345   -5.2721629      1728000    4699.2639       125400         1419 
25090000    1.0684427   -5.3568677      1728000     4701.157       125450         1419 
25100000    1.0120621   -5.5059381      1728000    4703.0584       125500         1419 
25110000    1.0122031   -5.4131457      1728000    4704.9754       125550         1419 
25120000   0.95256691   -5.5134773      1728000    4706.8594       125600         1419 
25130000    1.0057429   -5.4843804      1728000    4708.7663       125650         1419 
25140000     1.012498   -5.3895991      1728000    4710.6892       125700         1419 
25150000   0.99761551   -5.4090358      1728000    4712.5925       125750         1419 
25160000   0.98546591   -5.3436775      1728000    4714.4905       125800         1419 
25170000     1.095653     -5.40178      1728000    4716.3877       125850         1419 
25180000    1.0096563   -5.4377574      1728000    4718.3364       125900         1419 
25190000    1.0974257   -5.3340752      1728000    4720.3806       125950         1420 
25200000     1.012193   -5.4615767      1728000    4722.2855       126000         1420 
25210000    1.0498324   -5.3965502      1728000    4724.1912       126050         1420 
25220000    1.0020886   -5.4564787      1728000    4726.1085       126100         1420 
25230000    1.0000593    -5.239735      1728000    4728.0036       126150         1420 
25240000   0.97507304   -5.3522789      1728000    4729.9015       126200         1420 
25250000    1.0303186   -5.5164905      1728000    4731.8853       126250         1420 
25260000   0.92130041   -5.3648051      1728000    4733.8045       126300         1420 
25270000   0.91675689   -5.4949407      1728000    4735.6965       126350         1420 
25280000   0.97157007   -5.3398479      1728000    4737.5734       126400         1420 
25290000    1.0214929   -5.4805945      1728000    4739.4511       126450         1420 
25300000    1.0574939   -5.4663291      1728000    4741.4264       126500         1420 
25310000   0.95753199   -5.3541892      1728000    4743.3424       126550         1420 
25320000   0.97189733    -5.439983      1728000    4745.2174       126600         1420 
25330000     1.013381   -5.2887134      1728000    4747.0906       126650         1420 
25340000    1.0311135   -5.4981597      1728000    4748.9584       126700         1420 
25350000   0.97489339   -5.4121181      1728000    4750.8423       126750         1420 
25360000    0.9037369   -5.5131653      1728000    4752.7285       126800         1420 
25370000    1.0529359   -5.3422013      1728000    4754.6062       126850         1421 
25380000    1.0270315   -5.4849153      1728000    4756.5054       126900         1421 
25390000   0.98860542    -5.469387      1728000    4758.3943       126950         1422 
25400000    1.0359195   -5.4515989      1728000    4760.2872       127000         1422 
25410000    1.0219633    -5.373292      1728000    4762.1864       127050         1422 
25420000    1.0072847   -5.3683777      1728000    4764.0689       127100         1422 
25430000   0.96131115   -5.3598699      1728000    4765.9812       127150         1422 
25440000   0.97507463    -5.362768      1728000    4767.8643       127200         1422 
25450000   0.96023921   -5.4893921      1728000    4769.7664       127250         1422 
25460000    1.0234682   -5.4286507      1728000    4771.6734       127300         1422 
25470000   0.98961279   -5.3110648      1728000    4773.5773       127350         1422 
25480000   0.99592344   -5.2809497      1728000    4775.4543       127400         1422 
25490000    1.0219923   -5.3903919      1728000    4777.3664       127450         1423 
25500000    1.0387001   -5.2571108      1728000    4779.2603       127500         1425 
25510000    1.0799026   -5.3701693      1728000    4781.1733       127550         1425 
25520000    1.0017512   -5.4939309      1728000    4783.0554       127600         1425 
25530000    1.0158633   -5.4941562      1728000    4784.9422       127650         1425 
25540000    1.0506303   -5.3846178      1728000    4786.8334       127700         1426 
25550000    1.0082398   -5.4490415      1728000    4788.7331       127750         1426 
25560000    1.0135037   -5.4086181      1728000    4790.6303       127800         1426 
25570000   0.98606242   -5.4104103      1728000    4792.5183       127850         1426 
25580000   0.96826865   -5.4148368      1728000    4794.4034       127900         1427 
25590000     1.047392   -5.4229265      1728000    4796.2942       127950         1428 
25600000    1.0042154   -5.4419619      1728000    4798.1975       128000         1428 
25610000   0.96718631   -5.4581507      1728000    4800.0943       128050         1428 
25620000    1.0459143   -5.6080782      1728000    4801.9814       128100         1428 
25630000   0.98661693   -5.4028771      1728000    4803.8642       128150         1428 
25640000   0.99576809   -5.3839455      1728000    4805.7543       128200         1429 
25650000    1.0010127   -5.3993924      1728000    4807.6313       128250         1429 
25660000    1.0149673   -5.4137117      1728000    4809.5112       128300         1430 
25670000    0.9364511   -5.4914988      1728000    4811.3887       128350         1430 
25680000    1.0090528   -5.5048544      1728000    4813.2633       128400         1430 
25690000    1.0344319   -5.3797521      1728000    4815.1475       128450         1430 
25700000   0.97723737     -5.40693      1728000    4817.0443       128500         1430 
25710000   0.98804345   -5.4044008      1728000    4818.9323       128550         1430 
25720000   0.91536253   -5.3416019      1728000    4820.8295       128600         1430 
25730000   0.98003635   -5.5109684      1728000    4822.7332       128650         1431 
25740000     1.020702   -5.5019609      1728000    4824.6419       128700         1431 
25750000    1.0239732   -5.3199692      1728000    4826.5382       128750         1431 
25760000    1.0478608   -5.4102213      1728000    4828.4413       128800         1431 
25770000    1.0672386   -5.4708192      1728000     4830.383       128850         1432 
25780000    1.0048779   -5.4452272      1728000    4832.2771       128900         1432 
25790000    1.0487546   -5.3386615      1728000    4834.1973       128950         1433 
25800000     1.028928   -5.3458213      1728000    4836.0944       129000         1433 
25810000   0.96491119   -5.3707265      1728000    4837.9679       129050         1433 
25820000    0.9778397   -5.4376828      1728000    4839.8371       129100         1433 
25830000   0.93555901   -5.3614008      1728000    4841.7131       129150         1433 
25840000   0.98397906   -5.4488834      1728000    4843.5801       129200         1433 
25850000      1.02444   -5.4532191      1728000    4845.4601       129250         1433 
25860000     1.019446   -5.4134063      1728000    4847.3343       129300         1433 
25870000    1.0611291   -5.4888255      1728000    4849.2694       129350         1433 
25880000    1.0159738   -5.2386327      1728000     4851.246       129400         1433 
25890000    1.0045208   -5.4846572      1728000    4853.2578       129450         1433 
25900000    1.0272582   -5.4658828      1728000    4855.3336       129500         1433 
25910000   0.94335679   -5.3772776      1728000    4857.2856       129550         1433 
25920000    1.0077948   -5.4438142      1728000    4859.1757       129600         1433 
25930000    1.0579703   -5.5043041      1728000    4861.0825       129650         1433 
25940000    0.9489777   -5.5018696      1728000    4862.9795       129700         1433 
25950000    1.0456016   -5.4508109      1728000    4864.8683       129750         1433 
25960000   0.98819051   -5.4840545      1728000     4866.752       129800         1433 
25970000     1.013233   -5.5149034      1728000    4868.6969       129850         1433 
25980000    1.0142182   -5.4187664      1728000    4870.6372       129900         1433 
25990000   0.99087901   -5.3442518      1728000    4872.5549       129950         1433 
26000000    1.0196018   -5.4485128      1728000     4874.476       130000         1433 
26010000    1.0061641   -5.4510668      1728000    4876.3692       130050         1433 
26020000    1.0321117     -5.37549      1728000    4878.2413       130100         1433 
26030000    1.0175166   -5.5525142      1728000    4880.1022       130150         1433 
26040000    1.0544796   -5.4477999      1728000     4881.971       130200         1433 
26050000   0.97731712   -5.4599679      1728000    4883.8492       130250         1433 
26060000   0.97143573   -5.4473717      1728000    4885.7282       130300         1433 
26070000   0.96764896   -5.4475091      1728000    4887.7051       130350         1433 
26080000   0.95684225   -5.3521132      1728000    4889.6004       130400         1433 
26090000    0.9728268     -5.39511      1728000    4891.5043       130450         1433 
26100000   0.98192688   -5.3312611      1728000    4893.3951       130500         1433 
26110000   0.95631431   -5.3134988      1728000    4895.2643       130550         1433 
26120000   0.95581377   -5.4793287      1728000    4897.1303       130600         1433 
26130000    1.0031387    -5.467013      1728000    4899.0052       130650         1433 
26140000    1.0150852   -5.4568802      1728000    4900.8871       130700         1433 
26150000    1.0825738   -5.4740602      1728000    4902.7572       130750         1433 
26160000   0.92161245   -5.4917175      1728000    4904.6576       130800         1433 
26170000   0.98204502   -5.4092302      1728000    4906.5927       130850         1433 
26180000    1.0114401   -5.4324582      1728000    4908.4823       130900         1433 
26190000   0.92743795   -5.2728241      1728000     4910.481       130950         1433 
26200000    0.9286303    -5.484701      1728000    4912.6898       131000         1433 
26210000   0.97117552   -5.5090919      1728000    4914.6438       131050         1433 
26220000    1.0172954   -5.4467009      1728000    4916.5592       131100         1433 
26230000    1.0075622   -5.4860396      1728000    4918.5119       131150         1433 
26240000   0.97756037    -5.428496      1728000    4920.5248       131200         1433 
26250000    1.0383313   -5.4894942      1728000    4922.4663       131250         1433 
26260000   0.99985276   -5.5121135      1728000    4924.4823       131300         1433 
26270000   0.99988958   -5.3502463      1728000    4926.4136       131350         1433 
26280000    1.0406111   -5.4831842      1728000    4928.2994       131400         1433 
26290000    1.0320952    -5.525986      1728000    4930.1862       131450         1433 
26300000   0.94967978   -5.3933177      1728000    4932.1873       131500         1433 
26310000    1.0288038    -5.455458      1728000     4934.181       131550         1433 
26320000   0.97698697   -5.4322921      1728000    4936.0991       131600         1433 
26330000   0.97587872   -5.2305234      1728000    4937.9934       131650         1433 
26340000    1.0280574   -5.3180615      1728000    4939.9336       131700         1433 
26350000    1.0419626   -5.5181604      1728000    4941.8511       131750         1433 
26360000   0.99893232   -5.4623631      1728000     4943.749       131800         1433 
26370000   0.96886387   -5.3700675      1728000     4945.659       131850         1433 
26380000    1.0081508   -5.4299495      1728000    4947.5856       131900         1433 
26390000   0.97854802   -5.3235014      1728000     4949.486       131950         1433 
26400000   0.97816844   -5.5178997      1728000    4951.4172       132000         1433 
26410000    1.0497518   -5.3588256      1728000    4953.3116       132050         1433 
26420000    1.0351064    -5.323011      1728000    4955.1959       132100         1433 
26430000   0.98818375    -5.393222      1728000    4957.0802       132150         1433 
26440000   0.91939154    -5.359546      1728000    4959.0061       132200         1433 
26450000   0.98780124   -5.4653869      1728000    4961.0241       132250         1433 
26460000    1.0317932   -5.4357771      1728000    4962.9506       132300         1433 
26470000   0.94716464   -5.3688409      1728000     4964.841       132350         1433 
26480000   0.95323204   -5.2918959      1728000    4966.7189       132400         1433 
26490000   0.96036933   -5.3963049      1728000     4968.799       132450         1433 
26500000   0.96806188   -5.4388817      1728000    4970.6889       132500         1433 
26510000    1.0266399   -5.5294665      1728000    4972.5778       132550         1433 
26520000    1.0080643   -5.4137104      1728000    4974.4861       132600         1433 
26530000   0.92746086   -5.4109452      1728000     4976.459       132650         1433 
26540000    1.0154429   -5.5040133      1728000    4978.3498       132700         1434 
26550000   0.96484781    -5.576462      1728000    4980.2948       132750         1434 
26560000    1.0418764   -5.3888902      1728000    4982.3929       132800         1434 
26570000   0.93332255   -5.4390956      1728000    4984.3422       132850         1434 
26580000   0.97973907   -5.4342238      1728000    4986.2858       132900         1435 
26590000    0.9916939   -5.4181381      1728000    4988.2052       132950         1435 
26600000   0.98355968   -5.4363376      1728000    4990.0941       133000         1435 
26610000   0.99216938   -5.3246647      1728000    4991.9727       133050         1435 
26620000   0.96802753   -5.3457355      1728000    4993.9015       133100         1435 
26630000    1.0049639   -5.4029586      1728000    4995.9445       133150         1436 
26640000   0.91289371    -5.242286      1728000    4998.3112       133200         1436 
26650000     1.017814   -5.4146774      1728000    5000.2179       133250         1436 
26660000   0.97668017    -5.542367      1728000     5002.091       133300         1436 
26670000    0.9516113   -5.2710703      1728000    5003.9887       133350         1436 
26680000    1.0147668   -5.4186449      1728000     5005.877       133400         1436 
26690000    1.0581163   -5.3148269      1728000    5007.7579       133450         1436 
26700000   0.98179882   -5.3851007      1728000     5009.637       133500         1436 
26710000    1.0372091   -5.4903725      1728000    5011.5239       133550         1436 
26720000   0.96351685   -5.4330504      1728000    5013.4499       133600         1436 
26730000    1.0240171    -5.374438      1728000    5015.3815       133650         1436 
26740000   0.93872341   -5.3463048      1728000    5017.3009       133700         1438 
26750000   0.98742274     -5.35123      1728000    5019.1988       133750         1438 
26760000   0.95900629   -5.5369327      1728000    5021.1243       133800         1438 
26770000     1.042762   -5.3818726      1728000    5023.0551       133850         1438 
26780000    1.0950723   -5.4811008      1728000    5025.0149       133900         1439 
26790000    1.0466006   -5.5168326      1728000    5026.9327       133950         1439 
26800000    0.9403523   -5.4416863      1728000    5028.8869       134000         1439 
26810000   0.98087374   -5.3431969      1728000     5030.812       134050         1439 
26820000    1.1049203   -5.4316028      1728000    5032.7552       134100         1440 
26830000     1.036398   -5.4191684      1728000    5034.6642       134150         1440 
26840000    0.9730232   -5.4440641      1728000    5036.5411       134200         1440 
26850000    0.9956586    -5.376388      1728000     5038.414       134250         1441 
26860000   0.96485693   -5.3988248      1728000    5040.3408       134300         1441 
26870000    1.0615234   -5.2340122      1728000     5042.285       134350         1442 
26880000   0.97325525   -5.3487251      1728000    5044.1816       134400         1442 
26890000    1.0161048   -5.3371176      1728000    5046.1649       134450         1442 
26900000   0.92656788   -5.4203334      1728000    5048.1529       134500         1442 
26910000    1.0442731   -5.4107769      1728000    5050.3627       134550         1442 
26920000    1.0636823   -5.3677212      1728000    5052.5644       134600         1442 
26930000    1.0525543   -5.4684288      1728000    5054.4875       134650         1442 
26940000   0.98005107   -5.3293058      1728000     5056.429       134700         1442 
26950000   0.99300715   -5.4987674      1728000    5058.3243       134750         1442 
26960000    1.0086314    -5.330943      1728000    5060.2371       134800         1442 
26970000    1.0230681    -5.445248      1728000    5062.2756       134850         1443 
26980000   0.97813737   -5.4874671      1728000     5064.219       134900         1443 
26990000   0.99637282   -5.4385736      1728000    5066.0963       134950         1443 
27000000   0.94291478   -5.5053703      1728000    5068.0228       135000         1444 
27010000     1.013423     -5.37128      1728000    5069.9069       135050         1444 
27020000    1.0134994   -5.5022758      1728000    5071.7959       135100         1444 
27030000   0.99048357   -5.4804269      1728000     5073.686       135150         1444 
27040000    1.0611689    -5.415955      1728000    5075.5688       135200         1444 
27050000   0.98284061   -5.4469334      1728000    5077.4646       135250         1444 
27060000    1.0244217   -5.3749742      1728000    5079.3579       135300         1444 
27070000   0.93717143   -5.5139923      1728000    5081.2516       135350         1444 
27080000   0.95276912   -5.4603539      1728000    5083.1678       135400         1444 
27090000    1.0313595   -5.3921424      1728000    5085.1222       135450         1444 
27100000    1.0083154   -5.4295145      1728000    5087.0618       135500         1444 
27110000    1.0029235   -5.4254004      1728000    5089.0069       135550         1444 
27120000    1.0780325   -5.3932947      1728000    5090.9439       135600         1445 
27130000   0.99984444   -5.3727305      1728000    5092.8208       135650         1445 
27140000    1.0541171    -5.386764      1728000    5094.7187       135700         1445 
27150000    1.0337551   -5.3974826      1728000    5096.8209       135750         1445 
27160000   0.98953387   -5.4147238      1728000    5098.7518       135800         1445 
27170000    1.0975508   -5.4361606      1728000    5100.6878       135850         1445 
27180000    1.0012475   -5.4799459      1728000    5102.6339       135900         1445 
27190000    1.0021865   -5.3655774      1728000    5104.7539       135950         1445 
27200000   0.97357706   -5.3780866      1728000    5106.7238       136000         1445 
27210000    1.0506972   -5.3803993      1728000    5108.6637       136050         1447 
27220000    1.1103325   -5.4267379      1728000    5110.5688       136100         1447 
27230000    1.0139805   -5.4890582      1728000    5112.4711       136150         1449 
27240000   0.97419672   -5.4573388      1728000    5114.4505       136200         1449 
27250000   0.97004737   -5.3281572      1728000    5116.3439       136250         1449 
27260000   0.97784693   -5.4282347      1728000    5118.2299       136300         1450 
27270000   0.92333493   -5.4073784      1728000    5120.1108       136350         1450 
27280000     1.026093   -5.3920408      1728000    5122.0556       136400         1451 
27290000   0.97634866   -5.3688703      1728000    5123.9648       136450         1451 
27300000    1.0193914   -5.3418655      1728000    5125.9479       136500         1451 
27310000    1.0361097   -5.4301226      1728000    5127.8236       136550         1451 
27320000   0.95275327   -5.3893719      1728000    5129.6899       136600         1451 
27330000    1.0320766   -5.2729263      1728000    5131.5962       136650         1451 
27340000   0.96984182   -5.4076928      1728000    5133.5615       136700         1451 
27350000   0.94809745   -5.4124288      1728000    5135.4931       136750         1451 
27360000    1.0183783   -5.4440159      1728000    5137.4095       136800         1451 
27370000    1.0286576   -5.5079474      1728000    5139.3319       136850         1452 
27380000   0.97881657   -5.4460234      1728000    5141.2616       136900         1452 
27390000   0.98750092   -5.4055288      1728000     5143.161       136950         1452 
27400000     1.019345    -5.278628      1728000    5145.1521       137000         1452 
27410000    1.0266474   -5.3612976      1728000    5147.2152       137050         1452 
27420000    1.0320202   -5.4658866      1728000    5149.1272       137100         1452 
27430000   0.96762087   -5.4108116      1728000     5151.036       137150         1453 
27440000    1.0328666   -5.2964591      1728000    5152.9433       137200         1453 
27450000    0.9751385   -5.4457892      1728000    5154.8448       137250         1453 
27460000    0.9826821   -5.3939749      1728000     5156.782       137300         1453 
27470000    1.0184016   -5.5014318      1728000    5158.6988       137350         1453 
27480000   0.98577846   -5.3866797      1728000    5160.5977       137400         1453 
27490000   0.99122898   -5.5078935      1728000    5162.5086       137450         1453 
27500000   0.98599238   -5.3108799      1728000    5164.4458       137500         1453 
27510000   0.97506763   -5.3304216      1728000     5166.354       137550         1454 
27520000    1.0269362   -5.3235176      1728000    5168.2626       137600         1454 
27530000   0.98692942     -5.38984      1728000    5170.1667       137650         1454 
27540000   0.94618335   -5.4356232      1728000    5172.1008       137700         1455 
27550000    1.0248588   -5.3303629      1728000    5174.0046       137750         1455 
27560000    1.0531325   -5.3900729      1728000    5175.9107       137800         1455 
27570000   0.99552767   -5.4907116      1728000    5177.8257       137850         1456 
27580000    1.0108276   -5.4282623      1728000    5179.7572       137900         1456 
27590000   0.96655646   -5.3676038      1728000    5181.6617       137950         1457 
27600000    1.0585979    -5.490639      1728000    5183.5755       138000         1457 
27610000    1.0111776   -5.3787746      1728000    5185.4799       138050         1457 
27620000   0.93455087   -5.3422837      1728000    5187.3905       138100         1457 
27630000   0.97657994    -5.465841      1728000    5189.2976       138150         1457 
27640000   0.98428613   -5.4313565      1728000    5191.2026       138200         1457 
27650000   0.98714487   -5.3944322      1728000    5193.0995       138250         1457 
27660000   0.98269501   -5.4642336      1728000    5194.9996       138300         1458 
27670000    1.0467076    -5.536748      1728000    5196.9957       138350         1458 
27680000    1.0477315   -5.3331903      1728000    5198.8907       138400         1458 
27690000   0.95399217   -5.5058231      1728000    5200.7907       138450         1458 
27700000    1.0075665   -5.3500127      1728000    5202.6948       138500         1458 
27710000   0.98408643   -5.4945163      1728000    5204.5922       138550         1458 
27720000    1.0109503   -5.3422374      1728000    5206.5268       138600         1458 
27730000    1.0185459   -5.4983723      1728000    5208.4324       138650         1458 
27740000    1.0017787   -5.3804199      1728000    5210.3426       138700         1458 
27750000    1.0493918   -5.3077191      1728000     5212.292       138750         1459 
27760000     1.125555   -5.3832235      1728000     5214.191       138800         1459 
27770000   0.99350018   -5.3422061      1728000    5216.1668       138850         1459 
27780000   0.97633119   -5.4267211      1728000    5218.0568       138900         1459 
27790000   0.94041287   -5.4883722      1728000    5219.9365       138950         1460 
27800000    0.9194779   -5.4150636      1728000    5221.8287       139000         1460 
27810000   0.98849886   -5.4997628      1728000    5223.7157       139050         1460 
27820000    1.0008318   -5.4577202      1728000    5225.6397       139100         1460 
27830000   0.99777795   -5.6144989      1728000    5227.5215       139150         1460 
27840000    1.0008495   -5.2995233      1728000    5229.4165       139200         1460 
27850000     1.082728    -5.413209      1728000    5231.2905       139250         1460 
27860000    1.0014632   -5.3263872      1728000    5233.1688       139300         1460 
27870000    0.9788568   -5.3845681      1728000    5235.0536       139350         1461 
27880000    1.0148925   -5.2962117      1728000    5236.9331       139400         1461 
27890000    1.0255903   -5.5262967      1728000    5238.8097       139450         1461 
27900000    1.0055438   -5.4184671      1728000    5240.7239       139500         1461 
27910000    1.0202442   -5.3895768      1728000    5242.6127       139550         1461 
27920000   0.97486775    -5.440052      1728000    5244.4917       139600         1461 
27930000     1.038253   -5.3181157      1728000    5246.3731       139650         1461 
27940000   0.96923922   -5.5689457      1728000    5248.2612       139700         1461 
27950000   0.97844139   -5.3619776      1728000    5250.1546       139750         1461 
27960000   0.96981336   -5.4706938      1728000    5252.0387       139800         1461 
27970000   0.98609801   -5.4146007      1728000    5253.9257       139850         1461 
27980000   0.96037896    -5.412995      1728000    5255.8104       139900         1461 
27990000   0.98863843   -5.4699194      1728000    5257.6975       139950         1461 
28000000   0.95549243   -5.5355792      1728000    5259.5931       140000         1461 
28010000    1.0610994   -5.4844769      1728000    5261.4695       140050         1461 
28020000    1.0023282   -5.4172962      1728000    5263.3497       140100         1461 
28030000   0.95492075   -5.3954065      1728000    5265.2235       140150         1461 
28040000    1.0825363   -5.4838487      1728000    5267.1146       140200         1461 
28050000    1.0248109   -5.3666825      1728000    5268.9962       140250         1461 
28060000    0.9465434   -5.4749281      1728000    5270.8632       140300         1461 
28070000    1.0312086   -5.2394361      1728000     5272.756       140350         1461 
28080000   0.98637647   -5.3332853      1728000    5274.6379       140400         1461 
28090000    1.0185902   -5.4568225      1728000    5276.5176       140450         1461 
28100000    1.0327453   -5.2923379      1728000    5278.4174       140500         1461 
28110000   0.96705111    -5.409001      1728000    5280.3236       140550         1461 
28120000     1.009687    -5.468967      1728000    5282.2206       140600         1461 
28130000   0.99276267   -5.4004908      1728000    5284.1115       140650         1461 
28140000    1.0406927   -5.4890301      1728000    5285.9966       140700         1461 
28150000   0.98671046   -5.4932824      1728000    5287.8687       140750         1461 
28160000    0.9284579   -5.5200635      1728000    5289.7486       140800         1461 
28170000     1.034349   -5.2761615      1728000    5291.6503       140850         1461 
28180000   0.91874886   -5.4063205      1728000    5293.5356       140900         1461 
28190000    1.0217512   -5.3811748      1728000    5295.4087       140950         1461 
28200000   0.97506859   -5.4229074      1728000    5297.3041       141000         1461 
28210000    1.0004059   -5.3945664      1728000    5299.2026       141050         1461 
28220000   0.98879643     -5.47846      1728000    5301.0815       141100         1461 
28230000   0.99690111   -5.5107255      1728000    5302.9645       141150         1461 
28240000    1.0057208   -5.4703177      1728000    5304.8448       141200         1461 
28250000    1.0041503   -5.5565362      1728000    5306.7325       141250         1461 
28260000     1.082633   -5.3498589      1728000    5308.6224       141300         1461 
28270000    1.0784953   -5.5477049      1728000    5310.5084       141350         1461 
28280000     1.027467    -5.519763      1728000    5312.3916       141400         1461 
28290000    1.0186419   -5.4213191      1728000    5314.2665       141450         1461 
28300000    1.0352419   -5.4283592      1728000    5316.1605       141500         1461 
28310000   0.97494256   -5.3610291      1728000    5318.0428       141550         1461 
28320000   0.99726049    -5.448732      1728000    5319.9286       141600         1461 
28330000   0.98890637   -5.3078804      1728000    5321.8365       141650         1461 
28340000   0.94446269   -5.4293674      1728000    5323.7424       141700         1461 
28350000   0.98939383   -5.4108837      1728000    5325.6573       141750         1461 
28360000    1.0385404   -5.3864143      1728000    5327.5998       141800         1461 
28370000   0.97875299   -5.4638291      1728000    5329.4963       141850         1462 
28380000   0.99473708   -5.4519496      1728000    5331.3953       141900         1462 
28390000   0.96915545   -5.4934051      1728000    5333.2945       141950         1462 
28400000   0.96922498   -5.4678082      1728000    5335.2075       142000         1462 
28410000    1.0119944   -5.4437863      1728000    5337.1175       142050         1462 
28420000    1.0621256    -5.500718      1728000    5339.0244       142100         1462 
28430000    1.0286107   -5.3764902      1728000    5340.9207       142150         1463 
28440000   0.96566982   -5.3863457      1728000    5342.8164       142200         1463 
28450000     1.004024   -5.3688492      1728000    5344.7275       142250         1464 
28460000    1.0157862   -5.4246585      1728000    5346.6319       142300         1464 
28470000    1.0175798   -5.5033129      1728000    5348.5388       142350         1464 
28480000   0.99247693   -5.5172159      1728000    5350.4364       142400         1464 
28490000    1.0513068    -5.392297      1728000    5352.4182       142450         1464 
28500000     0.964052   -5.4523915      1728000    5354.3254       142500         1464 
28510000    1.0057534   -5.4406054      1728000    5356.2424       142550         1464 
28520000   0.98374322   -5.3679144      1728000    5358.1544       142600         1464 
28530000    1.0312376   -5.3484041      1728000    5360.0534       142650         1464 
28540000   0.96897382   -5.4729139      1728000    5361.9704       142700         1464 
28550000    1.0371976   -5.3569386      1728000    5363.8805       142750         1464 
28560000   0.98399728   -5.4872521      1728000    5365.7995       142800         1464 
28570000    1.0062455   -5.4270604      1728000    5367.7341       142850         1464 
28580000    1.0347773   -5.4682643      1728000    5369.6539       142900         1464 
28590000   0.99331576   -5.5342869      1728000    5371.5756       142950         1464 
28600000    1.0093476   -5.3821543      1728000    5373.4884       143000         1464 
28610000   0.97431477   -5.4167179      1728000    5375.3965       143050         1464 
28620000    1.0511986   -5.4277536      1728000    5377.3581       143100         1465 
28630000   0.98394218   -5.4767953      1728000    5379.3082       143150         1465 
28640000   0.97753399   -5.4449265      1728000    5381.2633       143200         1465 
28650000    1.0209876   -5.3491501      1728000    5383.1533       143250         1465 
28660000   0.96687317   -5.2303608      1728000    5385.0627       143300         1465 
28670000   0.96197047   -5.3041511      1728000    5386.9515       143350         1465 
28680000    1.0229337   -5.4030896      1728000    5388.8485       143400         1466 
28690000    1.0337285   -5.4455368      1728000    5390.8235       143450         1466 
28700000    1.0877818   -5.4219874      1728000    5392.7435       143500         1466 
28710000    1.0410018   -5.3326755      1728000    5394.6826       143550         1466 
28720000   0.96122876   -5.3766487      1728000    5396.6665       143600         1467 
28730000   0.97802033   -5.3646582      1728000    5398.6296       143650         1467 
28740000    1.0379778   -5.2227387      1728000    5400.5403       143700         1468 
28750000   0.99969904   -5.3680031      1728000    5402.4645       143750         1468 
28760000    1.0606071   -5.4354261      1728000    5404.5386       143800         1468 
28770000   0.98048235   -5.3566183      1728000    5406.5246       143850         1468 
28780000   0.97965738   -5.4288218      1728000     5408.439       143900         1468 
28790000    1.0061206   -5.4687817      1728000    5410.3416       143950         1468 
28800000   0.99676233   -5.4159365      1728000    5412.2534       144000         1468 
28810000   0.96494645   -5.4015104      1728000    5414.1742       144050         1468 
28820000    1.0188081   -5.3151195      1728000    5416.0674       144100         1470 
28830000   0.97109056   -5.4174282      1728000    5417.9592       144150         1471 
28840000    1.0275999   -5.3685894      1728000    5419.8641       144200         1471 
28850000    1.0154979   -5.3940414      1728000    5421.7654       144250         1471 
28860000    1.0437308   -5.2620683      1728000    5423.6684       144300         1471 
28870000   0.97636921    -5.298388      1728000    5425.5723       144350         1471 
28880000    0.9829786   -5.3981081      1728000    5427.4825       144400         1471 
28890000   0.91705136   -5.3872795      1728000    5429.3794       144450         1472 
28900000    1.0096089   -5.3953001      1728000    5431.2975       144500         1472 
28910000    1.0527788   -5.3031648      1728000    5433.2083       144550         1473 
28920000    1.0170103   -5.3851553      1728000    5435.1223       144600         1473 
28930000    1.0423151   -5.3782324      1728000    5437.0543       144650         1473 
28940000     1.025553   -5.3749981      1728000    5438.9583       144700         1473 
28950000    1.0723802   -5.3837302      1728000    5440.8813       144750         1474 
28960000    1.0189973   -5.4341559      1728000    5442.7838       144800         1474 
28970000    0.9571905   -5.3118563      1728000    5444.6816       144850         1475 
28980000   0.99279931   -5.2661505      1728000    5446.5988       144900         1475 
28990000   0.95259702   -5.2861947      1728000    5448.5055       144950         1475 
29000000    1.0405233   -5.3537935      1728000    5450.4292       145000         1475 
29010000   0.98036923   -5.4367838      1728000    5452.3294       145050         1475 
29020000    1.0069635   -5.3453552      1728000     5454.233       145100         1475 
29030000   0.98194308   -5.2694926      1728000    5456.1424       145150         1476 
29040000   0.96925334   -5.3650031      1728000    5458.0337       145200         1476 
29050000   0.97989199    -5.265538      1728000    5459.9361       145250         1476 
29060000    0.9864235    -5.331751      1728000    5461.8384       145300         1476 
29070000   0.97825623   -5.2595238      1728000    5463.7623       145350         1476 
29080000   0.97842448   -5.3933309      1728000    5465.6703       145400         1476 
29090000    1.0223644   -5.2565361      1728000    5467.5697       145450         1476 
29100000   0.96200773   -5.4142398      1728000    5469.4752       145500         1476 
29110000   0.96873277   -5.2620498      1728000    5471.3648       145550         1476 
29120000    1.0015116   -5.4644344      1728000    5473.2582       145600         1476 
29130000   0.99520589   -5.2289694      1728000    5475.1694       145650         1477 
29140000   0.94140969   -5.3753327      1728000    5477.0934       145700         1477 
29150000   0.95090967   -5.3563379      1728000    5478.9873       145750         1478 
29160000   0.98856901   -5.4100172      1728000    5480.8983       145800         1480 
29170000   0.98258385   -5.3694177      1728000    5482.8083       145850         1480 
29180000   0.97547392   -5.3837219      1728000    5484.7021       145900         1480 
29190000   0.93144782   -5.4232334      1728000    5486.6112       145950         1481 
29200000    0.9826002   -5.3679344      1728000    5488.5301       146000         1483 
29210000   0.98880141   -5.3452968      1728000    5490.4194       146050         1485 
29220000    1.0272556   -5.3860205      1728000    5492.3133       146100         1485 
29230000   0.94150797   -5.4592643      1728000    5494.2159       146150         1485 
29240000     1.002756   -5.4222159      1728000    5496.1138       146200         1485 
29250000    1.0199449   -5.4217564      1728000    5498.0151       146250         1485 
29260000   0.98574805   -5.4392036      1728000     5499.917       146300         1486 
29270000    1.0210796   -5.3868835      1728000    5501.8209       146350         1486 
29280000   0.96512405   -5.3966225      1728000    5503.7301       146400         1486 
29290000      1.02186   -5.4845693      1728000    5505.6362       146450         1486 
29300000    1.0154878    -5.356106      1728000    5507.5483       146500         1486 
29310000   0.99928489   -5.2451999      1728000    5509.4351       146550         1487 
29320000   0.98723551   -5.5452434      1728000    5511.3301       146600         1487 
29330000    0.9840532    -5.528162      1728000    5513.2704       146650         1488 
29340000    1.0116924   -5.4363859      1728000     5515.259       146700         1489 
29350000    1.0118346   -5.3413974      1728000    5517.2122       146750         1489 
29360000   0.98255482   -5.3638535      1728000    5519.1643       146800         1489 
29370000   0.99290897   -5.3333249      1728000    5521.0625       146850         1489 
29380000   0.98557332   -5.4238099      1728000    5522.9613       146900         1489 
29390000    1.0323707   -5.3139429      1728000    5524.8615       146950         1489 
29400000    0.9506048   -5.4056763      1728000    5526.7721       147000         1489 
29410000     1.039116   -5.2356844      1728000      5528.68       147050         1489 
29420000    1.0461928   -5.3797789      1728000    5530.5873       147100         1489 
29430000   0.98251106   -5.3019916      1728000    5532.4805       147150         1489 
29440000    1.0176299   -5.4040562      1728000    5534.3741       147200         1489 
29450000   0.98870918   -5.5468833      1728000    5536.2723       147250         1490 
29460000    1.0263763   -5.3899917      1728000    5538.1781       147300         1490 
29470000    1.0594475   -5.3223421      1728000    5540.0781       147350         1490 
29480000   0.97271063   -5.2794664      1728000    5541.9903       147400         1490 
29490000    1.0638999   -5.3412098      1728000    5543.9027       147450         1490 
29500000   0.98740763   -5.4994099      1728000    5545.8084       147500         1490 
29510000   0.99029547   -5.4007214      1728000    5547.7083       147550         1490 
29520000    1.0329037   -5.3939856      1728000    5549.6162       147600         1490 
29530000    1.0614634   -5.3721682      1728000     5551.523       147650         1490 
29540000    1.0664318   -5.4834367      1728000     5553.436       147700         1490 
29550000    1.0709153   -5.3630293      1728000    5555.3413       147750         1490 
29560000   0.97527239   -5.3679063      1728000    5557.2337       147800         1491 
29570000   0.94606061   -5.4951438      1728000    5559.1383       147850         1492 
29580000    1.0160852   -5.4203841      1728000    5561.0453       147900         1492 
29590000    1.0348221   -5.5596471      1728000      5562.94       147950         1493 
29600000    0.9660301   -5.3576925      1728000    5564.8498       148000         1493 
29610000    1.0228894   -5.5208194      1728000    5566.7582       148050         1493 
29620000    1.0091063    -5.465341      1728000    5568.6584       148100         1493 
29630000   0.99467467   -5.3975348      1728000     5570.562       148150         1493 
29640000   0.96895691   -5.4801038      1728000    5572.4618       148200         1493 
29650000   0.97088051   -5.3457045      1728000    5574.3582       148250         1493 
29660000    1.0382034   -5.3465358      1728000     5576.295       148300         1493 
29670000    1.0413758    -5.376121      1728000     5578.282       148350         1495 
29680000    1.0091251   -5.4731376      1728000    5580.2026       148400         1495 
29690000    1.0053331   -5.5451681      1728000     5582.094       148450         1495 
29700000    1.0227258   -5.2687235      1728000    5584.0032       148500         1495 
29710000    1.0809491   -5.2458252      1728000    5585.9911       148550         1495 
29720000    1.0469715   -5.4435303      1728000    5587.8931       148600         1495 
29730000    1.0193479   -5.4031722      1728000     5589.799       148650         1495 
29740000   0.97490829   -5.5005081      1728000    5591.7079       148700         1495 
29750000   0.97718804   -5.3532391      1728000    5593.6048       148750         1495 
29760000    1.0342535   -5.2760917      1728000    5595.4991       148800         1495 
29770000     1.027313   -5.4268033      1728000    5597.4012       148850         1495 
29780000   0.99284651   -5.5137194      1728000    5599.3255       148900         1495 
29790000   0.96087101   -5.3682955      1728000    5601.2279       148950         1495 
29800000   0.97194682   -5.3450539      1728000    5603.1526       149000         1495 
29810000    1.0707197   -5.2618726      1728000    5605.0501       149050         1496 
29820000     1.006809   -5.3686452      1728000    5606.9501       149100         1496 
29830000   0.99826508   -5.3552708      1728000     5608.854       149150         1496 
29840000    1.0085215   -5.3703058      1728000    5610.7659       149200         1496 
29850000   0.97999606   -5.4206617      1728000     5612.688       149250         1496 
29860000     1.013417   -5.3376941      1728000    5614.5859       149300         1496 
29870000   0.98191052   -5.4044169      1728000    5616.4852       149350         1497 
29880000    1.0018384    -5.297672      1728000    5618.3944       149400         1497 
29890000   0.96361167   -5.4876407      1728000      5620.29       149450         1497 
29900000   0.97547664   -5.4986581      1728000    5622.2149       149500         1499 
29910000   0.96277816   -5.3925571      1728000    5624.1193       149550         1500 
29920000    1.0211687   -5.2828966      1728000     5626.035       149600         1500 
29930000   0.99328913   -5.3201149      1728000    5627.9363       149650         1500 
29940000   0.95053092   -5.4882377      1728000    5629.8295       149700         1500 
29950000   0.99074695   -5.4445571      1728000    5631.7353       149750         1501 
29960000   0.99500838   -5.4353252      1728000    5633.6487       149800         1501 
29970000    1.0581658   -5.3994839      1728000    5635.5537       149850         1502 
29980000   0.97159172   -5.3237173      1728000    5637.4426       149900         1502 
29990000   0.97886235   -5.3895049      1728000    5639.3401       149950         1503 
30000000    1.0217915   -5.3258249      1728000    5641.2845       150000         1503 
30010000   0.98831238   -5.3945991      1728000     5643.183       150050         1503 
30020000     1.037709   -5.5037959      1728000    5645.0858       150100         1503 
30030000   0.99372272    -5.410716      1728000    5646.9958       150150         1503 
30040000   0.97863581   -5.3914589      1728000    5648.9231       150200         1504 
30050000    1.0128857   -5.3763927      1728000    5650.8163       150250         1504 
30060000   0.97214381   -5.4530375      1728000     5652.712       150300         1504 
30070000    1.0075642   -5.4502105      1728000    5654.6142       150350         1504 
30080000    1.0514533   -5.4833508      1728000     5656.531       150400         1504 
30090000     1.013057   -5.3897689      1728000    5658.4409       150450         1504 
30100000   0.98848925   -5.3528171      1728000    5660.3585       150500         1504 
30110000    1.0023367   -5.4995021      1728000    5662.2589       150550         1504 
30120000    1.0095692   -5.3891736      1728000    5664.1607       150600         1504 
30130000    1.0287985   -5.3337562      1728000     5666.064       150650         1504 
30140000    1.0055108   -5.3083674      1728000     5667.956       150700         1504 
30150000    1.0259938   -5.3518814      1728000    5669.8502       150750         1504 
30160000   0.98972123   -5.3846606      1728000    5671.7509       150800         1504 
30170000   0.98350718   -5.4876751      1728000    5673.6478       150850         1504 
30180000   0.94308522   -5.3769737      1728000    5675.5389       150900         1504 
30190000    1.0692418   -5.3438436      1728000     5677.436       150950         1504 
30200000   0.92131549   -5.4399585      1728000    5679.3414       151000         1504 
30210000    1.1106628   -5.4158961      1728000    5681.2471       151050         1504 
30220000    0.9578257   -5.3764187      1728000    5683.1439       151100         1504 
30230000   0.97628346   -5.4423705      1728000    5685.0467       151150         1504 
30240000   0.98848712   -5.4751362      1728000    5686.9408       151200         1504 
30250000    1.0160946   -5.4347762      1728000    5688.8395       151250         1504 
30260000    1.0112127   -5.3300985      1728000    5690.7387       151300         1504 
30270000   0.98219882   -5.4450114      1728000    5692.6411       151350         1504 
30280000    1.0978811   -5.3711869      1728000    5694.5388       151400         1504 
30290000    1.0380773   -5.3551981      1728000     5696.445       151450         1504 
30300000    1.0108006   -5.4639223      1728000    5698.3479       151500         1504 
30310000   0.98792966   -5.3001168      1728000    5700.2497       151550         1504 
30320000   0.96372446   -5.3682272      1728000     5702.146       151600         1504 
30330000   0.95191571    -5.328353      1728000    5704.0388       151650         1505 
30340000    1.0382105   -5.4052929      1728000    5705.9301       151700         1505 
30350000     1.001853   -5.3503708      1728000    5707.8399       151750         1506 
30360000    1.0024795   -5.3110567      1728000    5709.7314       151800         1506 
30370000   0.99611534   -5.4469781      1728000    5711.6254       151850         1506 
30380000    1.0200524   -5.3760852      1728000    5713.5201       151900         1506 
30390000   0.94249807   -5.4152382      1728000    5715.4271       151950         1506 
30400000   0.98926318   -5.3704179      1728000    5717.3311       152000         1507 
30410000   0.98226628   -5.3760839      1728000     5719.247       152050         1507 
30420000    1.0772242   -5.3227637      1728000    5721.1488       152100         1507 
30430000    1.0044963   -5.3248296      1728000    5723.1011       152150         1507 
30440000   0.99019175   -5.3708712      1728000    5725.0207       152200         1507 
30450000    1.0081984   -5.4176076      1728000    5726.9207       152250         1507 
30460000    1.0010451   -5.2772958      1728000    5728.8164       152300         1507 
30470000    1.0319639   -5.4483496      1728000    5730.7089       152350         1508 
30480000   0.97424731   -5.3856057      1728000    5732.6058       152400         1508 
30490000   0.95923604   -5.3996076      1728000    5734.4969       152450         1509 
30500000    1.0191102   -5.3823277      1728000    5736.4167       152500         1509 
30510000    1.0370303    -5.400906      1728000    5738.3256       152550         1509 
30520000    1.0049024   -5.4102502      1728000    5740.3106       152600         1510 
30530000    1.0808982   -5.4005808      1728000    5742.2738       152650         1510 
30540000    1.0096974    -5.366717      1728000    5744.1708       152700         1510 
30550000   0.97065204   -5.3298799      1728000     5746.072       152750         1510 
30560000    1.0164421   -5.3506491      1728000    5747.9749       152800         1511 
30570000    1.0025289   -5.4043506      1728000      5749.87       152850         1511 
30580000     1.000162   -5.4134526      1728000    5751.7631       152900         1511 
30590000    1.0085412   -5.5012071      1728000    5753.6607       152950         1511 
30600000   0.94482771   -5.3944861      1728000    5755.6007       153000         1512 
30610000   0.98941655    -5.317465      1728000    5757.5108       153050         1512 
30620000   0.99089507   -5.3273649      1728000    5759.4099       153100         1514 
30630000    1.0433438   -5.5228618      1728000    5761.3149       153150         1515 
30640000    1.0176827    -5.465302      1728000    5763.2097       153200         1515 
30650000    1.0190989   -5.3206285      1728000     5765.107       153250         1515 
30660000    1.0224231    -5.347246      1728000    5767.0009       153300         1515 
30670000     1.056418    -5.403366      1728000    5768.9045       153350         1515 
30680000   0.97812344   -5.3243441      1728000    5770.7969       153400         1515 
30690000   0.97203114   -5.3878401      1728000    5772.6959       153450         1515 
30700000   0.98983635   -5.4275217      1728000    5774.6058       153500         1515 
30710000   0.98624366   -5.3797592      1728000    5776.5107       153550         1515 
30720000    1.0290116   -5.4025583      1728000    5778.4168       153600         1515 
30730000    1.0245539    -5.315987      1728000    5780.3148       153650         1515 
30740000    1.0058623   -5.2928212      1728000    5782.2139       153700         1515 
30750000   0.97465217   -5.3722929      1728000    5784.1158       153750         1515 
30760000    1.0184332   -5.3422068      1728000    5786.0137       153800         1515 
30770000   0.99469606   -5.3134165      1728000    5787.9171       153850         1515 
30780000    1.0064791   -5.4331769      1728000    5789.9004       153900         1515 
30790000   0.99830722   -5.4399366      1728000    5791.8504       153950         1515 
30800000   0.97999735   -5.3465074      1728000    5793.8124       154000         1515 
30810000    1.0075684   -5.3821618      1728000    5795.7144       154050         1515 
30820000   0.98600561   -5.3535761      1728000    5797.6803       154100         1515 
30830000   0.99789688   -5.3810762      1728000    5799.6326       154150         1515 
30840000     1.044201   -5.3159009      1728000     5801.604       154200         1515 
30850000   0.94475544   -5.3550745      1728000     5803.573       154250         1515 
30860000    1.0860775   -5.3767156      1728000    5805.4775       154300         1515 
30870000   0.98114934   -5.4144789      1728000    5807.3632       154350         1515 
30880000    1.0521272   -5.4597253      1728000    5809.2571       154400         1515 
30890000   0.94610577    -5.366812      1728000     5811.167       154450         1515 
30900000   0.96909318   -5.3753203      1728000    5813.0717       154500         1515 
30910000   0.98888941   -5.3437656      1728000     5814.974       154550         1515 
30920000   0.94864585   -5.3746479      1728000    5816.8744       154600         1515 
30930000    0.9963027   -5.2883484      1728000    5818.7758       154650         1515 
30940000    1.0112807   -5.3325068      1728000    5820.6678       154700         1515 
30950000    1.0139471   -5.4465794      1728000    5822.5632       154750         1515 
30960000    1.0109918   -5.5250476      1728000    5824.4855       154800         1515 
30970000   0.97333171   -5.3238618      1728000     5826.376       154850         1516 
30980000   0.99478622   -5.3897561      1728000    5828.2671       154900         1516 
30990000    1.0027013   -5.4186122      1728000    5830.1632       154950         1517 
31000000    1.0116842   -5.4250164      1728000    5832.0728       155000         1517 
31010000   0.99956915   -5.3890079      1728000    5833.9749       155050         1518 
31020000    1.0240941   -5.2849266      1728000    5835.8759       155100         1518 
31030000   0.93583581   -5.3672535      1728000    5837.7768       155150         1518 
31040000    1.0113286    -5.350055      1728000    5839.6686       155200         1519 
31050000    1.0347619    -5.362709      1728000    5841.5675       155250         1519 
31060000    0.9785011   -5.3161358      1728000    5843.4638       155300         1519 
31070000    1.0676876   -5.4313435      1728000    5845.3798       155350         1519 
31080000    1.0323762   -5.4381854      1728000    5847.2822       155400         1520 
31090000    1.0199829   -5.3282381      1728000    5849.1786       155450         1520 
31100000     1.005369   -5.3432207      1728000    5851.0828       155500         1520 
31110000    1.0330672   -5.2703779      1728000    5852.9744       155550         1520 
31120000   0.93070742    -5.370594      1728000    5854.8735       155600         1521 
31130000   0.98996298    -5.321013      1728000    5856.7637       155650         1522 
31140000   0.97519656   -5.3582852      1728000    5858.6696       155700         1522 
31150000    1.0490589   -5.3631093      1728000    5860.5647       155750         1522 
31160000   0.96537696    -5.477924      1728000    5862.4754       155800         1523 
31170000    1.0546882   -5.4127901      1728000    5864.3779       155850         1523 
31180000    1.0028695   -5.4163484      1728000    5866.2828       155900         1523 
31190000     1.048059   -5.3421574      1728000    5868.1784       155950         1523 
31200000    1.0200086   -5.4503397      1728000    5870.0875       156000         1523 
31210000   0.99021371   -5.4277782      1728000    5871.9924       156050         1523 
31220000   0.98864021   -5.3110477      1728000    5873.8985       156100         1524 
31230000     1.040319   -5.3783088      1728000    5875.7988       156150         1525 
31240000    1.0440399   -5.3715693      1728000    5877.6947       156200         1525 
31250000    1.0586005    -5.324786      1728000    5879.6305       156250         1525 
31260000   0.96805981   -5.4013355      1728000    5881.5316       156300         1526 
31270000    1.0114327   -5.3703945      1728000    5883.4464       156350         1526 
31280000    1.0451634    -5.352311      1728000    5885.3516       156400         1526 
31290000   0.99292392   -5.4850727      1728000    5887.2798       156450         1527 
31300000   0.96702747   -5.4429912      1728000    5889.1817       156500         1528 
31310000   0.96506739   -5.4733376      1728000    5891.0858       156550         1528 
31320000    1.0121382   -5.3533817      1728000    5892.9933       156600         1528 
31330000   0.95921827    -5.512737      1728000    5894.9105       156650         1528 
31340000   0.94782564   -5.4508217      1728000    5896.8162       156700         1528 
31350000    1.0062145   -5.4449104      1728000     5898.731       156750         1528 
31360000   0.99918235   -5.5171606      1728000    5900.6327       156800         1529 
31370000    0.9835628   -5.4850692      1728000    5902.5334       156850         1529 
31380000    1.0567018   -5.3340479      1728000    5904.4433       156900         1529 
31390000    1.0017173   -5.4442946      1728000    5906.3475       156950         1529 
31400000   0.98398884    -5.336369      1728000    5908.2636       157000         1529 
31410000   0.98221285   -5.3061313      1728000    5910.1686       157050         1529 
31420000   0.99864279   -5.5053491      1728000    5912.0775       157100         1529 
31430000    1.0157201   -5.4590901      1728000    5913.9846       157150         1529 
31440000    1.0410385   -5.3446211      1728000    5915.8876       157200         1529 
31450000    1.0141367    -5.494275      1728000    5917.7906       157250         1530 
31460000    1.0154551   -5.3494881      1728000    5919.7006       157300         1530 
31470000    1.0192221    -5.385043      1728000    5921.6043       157350         1530 
31480000     1.027688   -5.2425885      1728000    5923.5126       157400         1530 
31490000    1.0555393   -5.3281459      1728000    5925.4144       157450         1530 
31500000    1.0141475   -5.4545815      1728000    5927.3187       157500         1530 
31510000    1.0425139    -5.443794      1728000    5929.2186       157550         1530 
31520000   0.97409957   -5.3518133      1728000    5931.1256       157600         1530 
31530000    1.0403204   -5.3690346      1728000    5933.0317       157650         1530 
31540000    1.0415874   -5.4959787      1728000    5934.9405       157700         1530 
31550000    1.0339663   -5.3655759      1728000    5936.8604       157750         1530 
31560000    1.1091089   -5.3518788      1728000    5938.7654       157800         1530 
31570000   0.99337752    -5.386574      1728000    5940.6675       157850         1531 
31580000   0.99799625   -5.3606804      1728000    5942.5686       157900         1531 
31590000    1.0152457   -5.5256949      1728000    5944.4753       157950         1531 
31600000   0.99600154   -5.4359479      1728000    5946.3884       158000         1531 
31610000   0.97773738   -5.3957212      1728000    5948.2815       158050         1531 
31620000    1.0174342   -5.4241758      1728000    5950.1857       158100         1531 
31630000    1.0146448   -5.3577797      1728000    5952.0894       158150         1532 
31640000    1.0546921    -5.506679      1728000    5954.0125       158200         1532 
31650000   0.97916269   -5.4756165      1728000    5955.9126       158250         1532 
31660000    1.0413466   -5.3962028      1728000    5957.8154       158300         1532 
31670000   0.97158836   -5.4241067      1728000    5959.7307       158350         1532 
31680000     1.046763   -5.4094083      1728000    5961.6376       158400         1532 
31690000    1.0129142   -5.3647519      1728000    5963.5463       158450         1533 
31700000    1.0318719   -5.4383337      1728000     5965.458       158500         1533 
31710000   0.95304598   -5.4638078      1728000    5967.3499       158550         1534 
31720000   0.98844796   -5.3196994      1728000    5969.2533       158600         1534 
31730000   0.99501729    -5.294656      1728000    5971.1565       158650         1534 
31740000   0.99573058   -5.3920033      1728000    5973.0533       158700         1534 
31750000    1.0753686   -5.5181658      1728000    5974.9497       158750         1534 
31760000    1.0288084   -5.4645891      1728000    5976.8515       158800         1534 
31770000    0.9827007   -5.3377009      1728000    5978.7454       158850         1534 
31780000    1.0083605   -5.4147656      1728000    5980.6433       158900         1534 
31790000   0.95086526   -5.3410614      1728000    5982.5407       158950         1534 
31800000   0.95809903   -5.3564564      1728000    5984.4556       159000         1534 
31810000    1.0230283   -5.4151928      1728000    5986.4002       159050         1534 
31820000   0.96685201   -5.3269575      1728000    5988.3535       159100         1534 
31830000   0.99703171   -5.4263762      1728000    5990.2463       159150         1534 
31840000   0.93923354   -5.3864364      1728000    5992.1316       159200         1534 
31850000   0.99215756   -5.4019391      1728000    5994.0252       159250         1534 
31860000   0.95606148   -5.4158021      1728000    5996.0164       159300         1534 
31870000   0.98667361   -5.5024505      1728000    5997.9224       159350         1534 
31880000   0.98377769   -5.4319063      1728000    5999.8225       159400         1534 
31890000    1.0006175   -5.3758308      1728000    6001.7294       159450         1534 
31900000    1.0001208   -5.5075031      1728000    6003.6419       159500         1534 
31910000   0.96777075   -5.3890848      1728000    6005.5794       159550         1534 
31920000   0.98307462   -5.3486162      1728000    6007.4811       159600         1534 
31930000    1.0356839    -5.324955      1728000    6009.3848       159650         1534 
31940000   0.99762192   -5.4247146      1728000    6011.2832       159700         1534 
31950000   0.99476451   -5.3914188      1728000    6013.1767       159750         1534 
31960000   0.96282114   -5.4526177      1728000    6015.0896       159800         1534 
31970000    1.0058191   -5.4193786      1728000    6016.9885       159850         1534 
31980000     1.023224   -5.3026086      1728000    6018.8874       159900         1534 
31990000     1.029583   -5.3325737      1728000    6020.7843       159950         1535 
32000000   0.99390439   -5.5188813      1728000    6022.7103       160000         1535 
32010000    1.0246515   -5.3923174      1728000    6024.6061       160050         1535 
32020000   0.99011124   -5.1621729      1728000    6026.5064       160100         1536 
32030000   0.97368224   -5.4266705      1728000    6028.3961       160150         1537 
32040000    1.0125538   -5.3486858      1728000    6030.2968       160200         1537 
32050000   0.99966114   -5.4597513      1728000    6032.2007       160250         1537 
32060000   0.98356409   -5.3261353      1728000    6034.1086       160300         1537 
32070000   0.95122879   -5.4123495      1728000    6036.0093       160350         1537 
32080000   0.95466779    -5.353249      1728000    6037.8997       160400         1538 
32090000    1.0777545   -5.4527259      1728000    6039.7931       160450         1539 
32100000   0.98678574   -5.3863113      1728000    6041.6912       160500         1539 
32110000    1.0118067   -5.4859936      1728000    6043.5893       160550         1539 
32120000      1.01187   -5.4033385      1728000    6045.4851       160600         1540 
32130000   0.99912916   -5.3011517      1728000    6047.3824       160650         1540 
32140000   0.91580234   -5.4847303      1728000    6049.2826       160700         1540 
32150000   0.98475015   -5.3472737      1728000    6051.1972       160750         1540 
32160000     1.069914   -5.2792175      1728000    6053.0783       160800         1540 
32170000    1.1033628   -5.4040463      1728000    6054.9784       160850         1540 
32180000    1.0207905   -5.3668078      1728000    6056.8807       160900         1541 
32190000    1.0272766   -5.3464261      1728000    6058.7792       160950         1541 
32200000   0.96568399   -5.4324304      1728000    6060.6831       161000         1542 
32210000    1.0334417   -5.3466348      1728000    6062.5798       161050         1543 
32220000    1.0279638    -5.397508      1728000    6064.4803       161100         1543 
32230000   0.97976484   -5.2915619      1728000    6066.3752       161150         1543 
32240000    1.0214088   -5.3495949      1728000    6068.2717       161200         1545 
32250000    1.0355342   -5.3933793      1728000    6070.1741       161250         1545 
32260000    1.0297397   -5.4735419      1728000    6072.0654       161300         1545 
32270000    1.0132117   -5.4184097      1728000    6073.9701       161350         1545 
32280000   0.98355879   -5.4829343      1728000    6075.8663       161400         1545 
32290000   0.99296926   -5.3473261      1728000    6077.7534       161450         1546 
32300000   0.98913305    -5.363923      1728000    6079.6619       161500         1546 
32310000   0.99222298   -5.4264124      1728000     6081.561       161550         1546 
32320000     1.009226   -5.4025866      1728000    6083.4703       161600         1546 
32330000    1.0342467    -5.482507      1728000    6085.3722       161650         1547 
32340000    1.0179644   -5.3345825      1728000    6087.2826       161700         1547 
32350000   0.99126089    -5.496708      1728000    6089.2032       161750         1547 
32360000    1.0267816   -5.3803465      1728000    6091.1077       161800         1547 
32370000    1.0174663   -5.4124784      1728000    6092.9983       161850         1547 
32380000      1.01284   -5.3340627      1728000    6094.9015       161900         1547 
32390000   0.94983016   -5.3988367      1728000    6096.8003       161950         1547 
32400000   0.98912816    -5.337382      1728000    6098.7234       162000         1548 
32410000    1.0479163   -5.4233892      1728000    6100.6222       162050         1548 
32420000    1.0403999   -5.4600054      1728000    6102.5192       162100         1548 
32430000    1.0303864   -5.3487206      1728000    6104.4574       162150         1548 
32440000    1.0046748   -5.3734448      1728000     6106.371       162200         1548 
32450000    1.0451741   -5.4332234      1728000    6108.2996       162250         1548 
32460000   0.99327169   -5.5299144      1728000    6110.2304       162300         1548 
32470000   0.99843071    -5.364466      1728000    6112.1919       162350         1548 
32480000    1.0311198   -5.4082731      1728000    6114.2098       162400         1548 
32490000   0.96315791   -5.3447509      1728000    6116.2386       162450         1548 
32500000    1.0274259   -5.3942154      1728000    6118.1215       162500         1548 
32510000    1.0011977   -5.3988074      1728000    6120.0035       162550         1548 
32520000   0.98690948    -5.355434      1728000    6121.8914       162600         1548 
32530000     1.020254   -5.4191843      1728000    6123.7685       162650         1548 
32540000   0.97599586   -5.4318291      1728000    6125.6671       162700         1549 
32550000   0.98047675   -5.4623931      1728000    6127.5468       162750         1549 
32560000   0.96828555   -5.3975951      1728000    6129.4249       162800         1549 
32570000   0.99735395   -5.4693511      1728000    6131.3081       162850         1549 
32580000   0.96962694   -5.3242825      1728000    6133.1857       162900         1549 
32590000    1.0146951   -5.5038791      1728000    6135.0684       162950         1549 
32600000   0.97765264   -5.5402495      1728000    6136.9549       163000         1550 
32610000    1.0912293   -5.3830963      1728000    6138.8445       163050         1550 
32620000    1.0001597   -5.4100203      1728000    6140.7306       163100         1550 
32630000    1.0193804   -5.3796585      1728000    6142.6071       163150         1550 
32640000    1.0323389   -5.3568516      1728000    6144.5011       163200         1550 
32650000     1.010637   -5.3649651      1728000    6146.3803       163250         1550 
32660000   0.98549769   -5.4596797      1728000    6148.3306       163300         1550 
32670000    0.9978446    -5.315459      1728000    6150.2977       163350         1550 
32680000   0.94233815   -5.3273907      1728000    6152.1859       163400         1550 
32690000    1.0009586    -5.411074      1728000     6154.105       163450         1550 
32700000   0.95582434    -5.431536      1728000    6156.0665       163500         1550 
32710000   0.96297958   -5.3998602      1728000    6158.0154       163550         1550 
32720000   0.96879784   -5.3573665      1728000    6159.9915       163600         1550 
32730000   0.97558368   -5.5038248      1728000    6162.0691       163650         1550 
32740000    1.0223284   -5.4167788      1728000      6164.15       163700         1550 
32750000   0.99996704   -5.4292212      1728000    6166.1276       163750         1550 
32760000    0.9365362    -5.354135      1728000    6168.0817       163800         1550 
32770000    1.0803787   -5.4771655      1728000     6170.045       163850         1550 
32780000    1.0231393   -5.3879598      1728000    6171.9849       163900         1550 
32790000   0.98909915    -5.428105      1728000    6173.9413       163950         1550 
32800000    1.0030929   -5.4930414      1728000    6175.9038       164000         1550 
32810000   0.97677191   -5.4359999      1728000    6177.8823       164050         1550 
32820000    1.0941317   -5.4539595      1728000    6179.8403       164100         1550 
32830000   0.99404416   -5.4282296      1728000    6181.7789       164150         1550 
32840000     1.045416   -5.4010336      1728000    6183.7145       164200         1550 
32850000    1.0286205   -5.4499626      1728000    6185.6505       164250         1550 
32860000     1.002423   -5.4131343      1728000    6187.6032       164300         1550 
32870000     1.007859   -5.4314844      1728000    6189.5384       164350         1550 
32880000    1.0054011   -5.4644884      1728000    6191.4802       164400         1551 
32890000   0.99300248   -5.2030448      1728000    6193.4391       164450         1552 
32900000   0.97987721   -5.4654907      1728000    6195.3792       164500         1552 
32910000   0.94174405   -5.3579801      1728000    6197.3231       164550         1552 
32920000   0.95163738   -5.4834474      1728000     6199.299       164600         1552 
32930000   0.97685847    -5.515922      1728000     6201.277       164650         1552 
32940000   0.97834072   -5.6085597      1728000    6203.2171       164700         1552 
32950000    1.0073936   -5.4363401      1728000    6205.1473       164750         1553 
32960000    1.0154672   -5.3244809      1728000    6207.0974       164800         1554 
32970000    1.0597102   -5.3896915      1728000    6209.0338       164850         1554 
32980000    1.0058076   -5.3702893      1728000    6210.9692       164900         1556 
32990000     1.010777   -5.3882258      1728000    6212.9123       164950         1556 
33000000    1.0010206   -5.3288772      1728000    6214.8694       165000         1556 
33010000   0.99172625    -5.456515      1728000    6216.8008       165050         1556 
33020000    0.9889376   -5.3057754      1728000    6218.7342       165100         1556 
33030000   0.93231339   -5.3535493      1728000    6220.6648       165150         1556 
33040000    1.0312615   -5.3552033      1728000    6222.6222       165200         1556 
33050000    1.0063017    -5.395173      1728000    6224.5569       165250         1556 
33060000   0.99441277   -5.4726173      1728000    6226.4815       165300         1556 
33070000    1.0352001   -5.3926223      1728000     6228.418       165350         1556 
33080000   0.98413634   -5.4098902      1728000     6230.341       165400         1557 
33090000    1.0014645   -5.4525164      1728000     6232.273       165450         1557 
33100000    1.0261466   -5.4729099      1728000     6234.213       165500         1557 
33110000   0.98625322   -5.4818746      1728000     6236.158       165550         1557 
33120000   0.99750539   -5.4636022      1728000     6238.099       165600         1557 
33130000   0.98147182   -5.4184192      1728000    6240.0296       165650         1557 
33140000    1.0085988    -5.439776      1728000    6241.9758       165700         1557 
33150000    1.0376662   -5.4104756      1728000    6243.9294       165750         1557 
33160000   0.93577205   -5.4525505      1728000    6245.8797       165800         1557 
33170000   0.96653693   -5.4932146      1728000    6247.8211       165850         1557 
33180000    1.0403142   -5.4406595      1728000    6249.7581       165900         1557 
33190000    1.0018194   -5.3881864      1728000     6251.713       165950         1557 
33200000    1.0269543   -5.3445123      1728000    6253.6503       166000         1557 
33210000    0.9972082   -5.3381803      1728000    6255.5825       166050         1557 
33220000    1.0427306   -5.3446501      1728000    6257.5119       166100         1557 
33230000   0.98209619   -5.3889045      1728000    6259.4393       166150         1557 
33240000   0.95516444   -5.4481303      1728000    6261.3997       166200         1557 
33250000   0.94396563    -5.418263      1728000      6263.35       166250         1557 
33260000    1.0382316   -5.2749753      1728000    6265.2768       166300         1557 
33270000   0.94371273   -5.4952726      1728000    6267.2061       166350         1557 
33280000   0.97241993   -5.4545321      1728000    6269.1945       166400         1557 
33290000    1.1128307   -5.3100111      1728000     6271.132       166450         1557 
33300000    1.0520255   -5.5152438      1728000    6273.0841       166500         1557 
33310000    1.0558262   -5.2909231      1728000    6275.0223       166550         1557 
33320000    0.9866714   -5.3735188      1728000     6276.963       166600         1557 
33330000    1.1052553   -5.4807923      1728000      6278.89       166650         1558 
33340000    1.0183112   -5.4831921      1728000    6280.8372       166700         1560 
33350000    1.0352335    -5.347064      1728000    6282.7671       166750         1560 
33360000    1.0764276   -5.4390915      1728000    6284.6961       166800         1560 
33370000    1.0045203   -5.4350082      1728000    6286.6253       166850         1560 
33380000    1.0555445   -5.4799625      1728000    6288.5648       166900         1560 
33390000    1.0043394   -5.3300168      1728000    6290.4991       166950         1560 
33400000    1.0306939   -5.3704491      1728000    6292.4344       167000         1560 
33410000    1.0044607   -5.3618144      1728000    6294.3713       167050         1560 
33420000   0.97077463   -5.4785708      1728000    6296.3683       167100         1560 
33430000    1.0149782   -5.4099615      1728000    6298.3665       167150         1560 
33440000    0.9934206   -5.2148051      1728000     6300.303       167200         1560 
33450000   0.93194689   -5.5128059      1728000    6302.2413       167250         1560 
33460000   0.99518308   -5.4429531      1728000    6304.1813       167300         1560 
33470000     0.998896   -5.3483408      1728000    6306.2388       167350         1560 
33480000    1.0691894    -5.437217      1728000    6308.1939       167400         1560 
33490000    1.0231588   -5.4464534      1728000    6310.1253       167450         1561 
33500000    1.0444308   -5.3639344      1728000    6312.0824       167500         1562 
33510000    1.0417337   -5.4386131      1728000    6314.0434       167550         1562 
33520000    1.0413824   -5.3119307      1728000    6315.9865       167600         1562 
33530000   0.97902178   -5.5323291      1728000    6317.9311       167650         1562 
33540000   0.98898343   -5.6029432      1728000    6319.8657       167700         1562 
33550000    1.0075126   -5.5726921      1728000    6321.8125       167750         1562 
33560000    1.0004339   -5.4808361      1728000      6323.75       167800         1562 
33570000    1.0051712   -5.4535024      1728000    6325.6919       167850         1562 
33580000   0.96156945   -5.4147421      1728000    6327.7082       167900         1562 
33590000   0.96833428   -5.5021243      1728000    6329.6793       167950         1562 
33600000   0.91727192   -5.4035572      1728000    6331.5725       168000         1562 
33610000   0.97324024   -5.3995813      1728000     6333.459       168050         1562 
33620000   0.97984875   -5.4710059      1728000    6335.3363       168100         1562 
33630000    0.9633546   -5.4911622      1728000    6337.2151       168150         1562 
33640000    0.9897777   -5.4041111      1728000    6339.0932       168200         1562 
33650000   0.95727802   -5.3985015      1728000    6340.9689       168250         1562 
33660000    1.0055662   -5.3958037      1728000     6342.837       168300         1562 
33670000   0.96783274    -5.410549      1728000    6344.7069       168350         1562 
33680000    1.0625798   -5.3781246      1728000    6346.5759       168400         1562 
33690000   0.95626823   -5.5007052      1728000    6348.4456       168450         1562 
33700000   0.99137808   -5.3534933      1728000    6350.3267       168500         1562 
33710000    1.0319571   -5.3317885      1728000    6352.1949       168550         1562 
33720000   0.96571866   -5.4302492      1728000    6354.0619       168600         1562 
33730000   0.94000812   -5.3711057      1728000     6355.935       168650         1563 
33740000   0.93524134    -5.445129      1728000    6357.8043       168700         1563 
33750000   0.96717883   -5.3842862      1728000    6359.6806       168750         1563 
33760000   0.96149489   -5.4179797      1728000    6361.5487       168800         1564 
33770000    1.0060642    -5.336092      1728000    6363.4743       168850         1564 
33780000   0.96223375   -5.4845705      1728000    6365.4483       168900         1564 
33790000   0.96305267   -5.4983938      1728000    6367.4019       168950         1564 
33800000    1.0665249   -5.3836296      1728000    6369.3598       169000         1564 
33810000   0.94227882   -5.4442094      1728000    6371.3191       169050         1564 
33820000    1.0369027   -5.4470397      1728000    6373.2481       169100         1564 
33830000   0.96915213   -5.3974453      1728000    6375.1801       169150         1564 
33840000    1.0708266      -5.3526      1728000    6377.1192       169200         1564 
33850000   0.99363478   -5.3898958      1728000     6379.061       169250         1564 
33860000     1.023335   -5.3267372      1728000    6380.9986       169300         1564 
33870000   0.96158621   -5.4188106      1728000    6382.9287       169350         1564 
33880000    1.0174054   -5.4422052      1728000    6384.8843       169400         1564 
33890000    1.0266649   -5.4841107      1728000    6386.8113       169450         1564 
33900000   0.99857652   -5.3737705      1728000    6388.7699       169500         1565 
33910000   0.99691824   -5.3850136      1728000    6390.7069       169550         1565 
33920000    1.0390611    -5.322796      1728000     6392.639       169600         1565 
33930000   0.94332874   -5.3516009      1728000    6394.5834       169650         1565 
33940000      1.01726   -5.3884805      1728000    6396.5399       169700         1565 
33950000   0.96940947   -5.4405179      1728000    6398.4932       169750         1565 
33960000   0.99391731   -5.3252016      1728000    6400.4269       169800         1565 
33970000    1.0369531   -5.5553258      1728000    6402.3789       169850         1565 
33980000   0.97830666   -5.4935405      1728000     6404.315       169900         1565 
33990000   0.98738649   -5.4776182      1728000    6406.2511       169950         1565 
34000000    1.0074178   -5.4376074      1728000     6408.284       170000         1565 
34010000    1.0054805   -5.3094624      1728000    6410.2249       170050         1565 
34020000    1.0436027    -5.445446      1728000    6412.1718       170100         1565 
34030000   0.94870031   -5.4940773      1728000    6414.1128       170150         1565 
34040000    1.0373343   -5.3814578      1728000    6416.0501       170200         1565 
34050000   0.98534897   -5.4599986      1728000    6418.0061       170250         1565 
34060000    1.0248252   -5.4688282      1728000     6419.955       170300         1565 
34070000   0.97353465   -5.4288944      1728000    6421.8909       170350         1566 
34080000    0.9856227   -5.3946488      1728000    6423.8409       170400         1566 
34090000    1.0475053   -5.5398659      1728000    6425.7917       170450         1566 
34100000   0.98931911   -5.3999751      1728000    6427.7377       170500         1566 
34110000   0.99593731   -5.3925643      1728000    6429.6796       170550         1566 
34120000   0.99795582   -5.4201603      1728000    6431.6346       170600         1567 
34130000     1.029244     -5.51932      1728000    6433.5762       170650         1567 
34140000   0.97442769   -5.3577573      1728000    6435.5134       170700         1567 
34150000    1.0116819   -5.3566568      1728000    6437.4397       170750         1567 
34160000    1.0430651    -5.473023      1728000    6439.3867       170800         1567 
34170000    1.0070963   -5.4499972      1728000    6441.3212       170850         1567 
34180000   0.99944515    -5.492356      1728000    6443.2563       170900         1567 
34190000    1.0327112   -5.4178346      1728000    6445.1875       170950         1567 
34200000   0.96150224   -5.4568988      1728000     6447.134       171000         1569 
34210000    1.0614409   -5.3094984      1728000     6449.095       171050         1569 
34220000    0.9275274   -5.3940239      1728000    6451.0277       171100         1569 
34230000    0.9879703   -5.4329842      1728000    6452.9607       171150         1569 
34240000   0.95624279   -5.2840109      1728000    6454.8998       171200         1569 
34250000    1.0466959   -5.3856414      1728000    6456.8492       171250         1569 
34260000   0.98922681   -5.4833328      1728000    6458.7943       171300         1569 
34270000    1.0045172   -5.4079707      1728000    6460.7279       171350         1569 
34280000    1.0011216   -5.4299959      1728000    6462.6539       171400         1569 
34290000   0.98778785   -5.3135038      1728000    6464.5875       171450         1569 
34300000    1.0196722    -5.513994      1728000    6466.5172       171500         1569 
34310000     1.032009   -5.3423611      1728000    6468.4382       171550         1569 
34320000    1.0202874   -5.4039314      1728000    6470.3634       171600         1569 
34330000    1.0179548   -5.4502284      1728000    6472.3027       171650         1569 
34340000   0.94060163   -5.3481384      1728000    6474.2378       171700         1569 
34350000   0.97604805   -5.3784512      1728000     6476.187       171750         1569 
34360000    1.0082371   -5.3712187      1728000    6478.1244       171800         1569 
34370000    1.0027826   -5.4042845      1728000    6480.0642       171850         1571 
34380000   0.96038185   -5.5589113      1728000    6481.9939       171900         1571 
34390000    1.0009809   -5.3002523      1728000    6483.9298       171950         1571 
34400000   0.96334059   -5.4465704      1728000    6485.8729       172000         1571 
34410000   0.94670896   -5.4247127      1728000    6487.8267       172050         1571 
34420000    1.0494573   -5.4366388      1728000    6489.7616       172100         1571 
34430000   0.99319402   -5.3783849      1728000    6491.7017       172150         1571 
34440000    1.0380793   -5.3459949      1728000    6493.6258       172200         1571 
34450000    1.0212429   -5.2955195      1728000    6495.5528       172250         1572 
34460000   0.90817779   -5.3246774      1728000    6497.4699       172300         1572 
34470000   0.96526836    -5.301521      1728000    6499.4139       172350         1572 
34480000    1.0031319   -5.3873529      1728000    6501.3459       172400         1574 
34490000    1.0064077   -5.3133345      1728000    6503.2859       172450         1574 
34500000   0.98275194   -5.5563946      1728000    6505.2397       172500         1574 
34510000    1.0414304   -5.4926319      1728000     6507.194       172550         1574 
34520000    1.0014463    -5.379754      1728000    6509.1339       172600         1574 
34530000   0.98486644   -5.3549656      1728000    6511.0937       172650         1574 
34540000   0.96417545    -5.398602      1728000    6513.0278       172700         1574 
34550000   0.97133255   -5.3700582      1728000    6514.9676       172750         1574 
34560000   0.98429466   -5.3505592      1728000    6516.9085       172800         1574 
34570000    0.9763795    -5.467912      1728000    6518.8348       172850         1574 
34580000    1.0002357   -5.4108394      1728000    6520.7749       172900         1574 
34590000   0.96262939   -5.3616226      1728000    6522.7137       172950         1574 
34600000   0.98162762   -5.4151072      1728000    6524.6538       173000         1574 
34610000     1.012941   -5.3162945      1728000    6526.5869       173050         1574 
34620000    0.9651905   -5.4899854      1728000     6528.521       173100         1574 
34630000    1.0623227   -5.3526401      1728000    6530.4533       173150         1574 
34640000    1.0246211   -5.4070166      1728000    6532.3838       173200         1574 
34650000    1.0311299   -5.5386088      1728000    6534.3179       173250         1574 
34660000    1.0230328   -5.4705649      1728000     6536.257       173300         1574 
34670000    1.0105243   -5.5190186      1728000    6538.1968       173350         1574 
34680000   0.98558818   -5.5009779      1728000    6540.1329       173400         1574 
34690000    1.0120525   -5.3611977      1728000    6542.0649       173450         1574 
34700000    1.0301743   -5.3587638      1728000     6544.041       173500         1575 
34710000    1.0449126   -5.5286307      1728000    6546.0072       173550         1575 
34720000    1.0066345   -5.3576445      1728000    6547.9334       173600         1576 
34730000    1.0607612   -5.5970606      1728000    6549.8608       173650         1576 
34740000   0.97491136   -5.3634629      1728000    6551.8037       173700         1576 
34750000    0.9728512   -5.3593372      1728000    6553.7317       173750         1576 
34760000   0.99733576   -5.3793275      1728000    6555.6711       173800         1576 
34770000   0.98821234   -5.4521917      1728000    6557.6018       173850         1576 
34780000    1.1169537   -5.4259304      1728000    6559.5517       173900         1576 
34790000    1.0174629   -5.3935554      1728000    6561.5071       173950         1576 
34800000    1.0206769   -5.4160383      1728000    6563.4497       174000         1576 
34810000    1.0139854   -5.3791768      1728000    6565.3777       174050         1576 
34820000    1.0318902   -5.4774509      1728000    6567.3189       174100         1576 
34830000   0.94220843   -5.3592515      1728000    6569.2484       174150         1576 
34840000    1.0145923    -5.467711      1728000    6571.2018       174200         1576 
34850000   0.96511211   -5.4172266      1728000    6573.1567       174250         1576 
34860000   0.94175956    -5.392406      1728000    6575.0869       174300         1576 
34870000    1.0356612   -5.4259234      1728000    6577.0336       174350         1576 
34880000   0.97557963   -5.4361741      1728000    6578.9828       174400         1576 
34890000    1.0454892   -5.4199885      1728000    6580.9258       174450         1576 
34900000   0.99140522   -5.3810828      1728000    6582.8917       174500         1577 
34910000    1.0049095   -5.3518351      1728000    6584.8446       174550         1578 
34920000   0.95074361   -5.3972142      1728000    6586.7888       174600         1578 
34930000   0.96171801   -5.3648654      1728000    6588.7397       174650         1580 
34940000    1.0229766   -5.3657727      1728000    6590.6756       174700         1580 
34950000   0.91946783   -5.4104341      1728000    6592.6288       174750         1580 
34960000    0.8910409   -5.3991746      1728000    6594.5516       174800         1583 
34970000    1.0339723   -5.3894473      1728000    6596.4758       174850         1583 
34980000    1.0547459   -5.4141281      1728000     6598.409       174900         1583 
34990000    1.0002984   -5.3698985      1728000    6600.3398       174950         1584 
35000000    1.0577079   -5.3965752      1728000    6602.2768       175000         1585 
35010000    1.0198411   -5.3537261      1728000    6604.2097       175050         1585 
35020000    0.9348219   -5.3257435      1728000    6606.1348       175100         1585 
35030000     1.051028   -5.4126942      1728000    6608.0683       175150         1586 
35040000    1.0289529   -5.3662225      1728000    6610.0206       175200         1586 
35050000    1.0016951   -5.4136735      1728000    6611.9505       175250         1587 
35060000   0.96663262   -5.4469955      1728000    6613.8893       175300         1587 
35070000     1.031348   -5.4119736      1728000    6615.8248       175350         1588 
35080000    1.0116425   -5.4443319      1728000    6617.7773       175400         1588 
35090000    1.0243637   -5.3288799      1728000    6619.7147       175450         1588 
35100000   0.99698891   -5.3101608      1728000    6621.6732       175500         1588 
35110000   0.98128818   -5.2562537      1728000    6623.6198       175550         1588 
35120000   0.96878829   -5.4204104      1728000    6625.5572       175600         1588 
35130000    1.0286934   -5.4002802      1728000    6627.5119       175650         1588 
35140000   0.96788774   -5.4812025      1728000    6629.4462       175700         1588 
35150000    1.0574457   -5.4071958      1728000    6631.3916       175750         1588 
35160000   0.99161975   -5.3155737      1728000    6633.3319       175800         1588 
35170000    1.0332108   -5.3796114      1728000    6635.2621       175850         1588 
35180000    1.0262198   -5.3733651      1728000    6637.1832       175900         1589 
35190000   0.99138465   -5.4008634      1728000    6639.1162       175950         1589 
35200000   0.87536033   -5.4446559      1728000    6641.1152       176000         1589 
35210000    1.0103938   -5.4340164      1728000    6643.1262       176050         1589 
35220000    0.9811912    -5.399848      1728000    6645.0734       176100         1589 
35230000   0.98863726   -5.5346021      1728000    6647.0186       176150         1589 
35240000   0.97411199   -5.4361918      1728000    6649.0737       176200         1589 
35250000    1.0270681   -5.5110722      1728000    6651.0335       176250         1589 
35260000   0.94543801    -5.347047      1728000    6652.9263       176300         1589 
35270000    1.0300907    -5.301114      1728000    6654.8027       176350         1589 
35280000   0.99981095   -5.3979721      1728000    6656.6874       176400         1589 
35290000    1.0277959   -5.4704076      1728000      6658.58       176450         1589 
35300000    1.0370069   -5.3817767      1728000    6660.4712       176500         1589 
35310000   0.93776028   -5.5142876      1728000    6662.3495       176550         1589 
35320000     1.038658   -5.4674853      1728000     6664.228       176600         1589 
35330000     1.036185   -5.4853666      1728000    6666.1264       176650         1589 
35340000     1.013003   -5.4209675      1728000    6668.0007       176700         1589 
35350000   0.98697434   -5.4530401      1728000    6669.8875       176750         1589 
35360000    1.0315179   -5.4614828      1728000    6671.7711       176800         1589 
35370000    0.9771644   -5.4074928      1728000    6673.6522       176850         1589 
35380000   0.98406845   -5.3171877      1728000    6675.5365       176900         1589 
35390000    1.0241233   -5.4229534      1728000    6677.4062       176950         1589 
35400000    1.0143159    -5.373991      1728000    6679.2965       177000         1589 
35410000   0.91671706   -5.4796089      1728000    6681.1761       177050         1589 
35420000   0.98624252   -5.4397399      1728000    6683.0475       177100         1589 
35430000    1.0256613   -5.3071858      1728000    6684.9265       177150         1589 
35440000   0.98722865   -5.3265503      1728000    6686.8143       177200         1589 
35450000   0.99124566   -5.4947607      1728000    6688.6991       177250         1589 
35460000   0.93160302   -5.4415775      1728000    6690.5849       177300         1589 
35470000   0.99305335   -5.5174141      1728000    6692.4636       177350         1589 
35480000   0.96661824    -5.271597      1728000    6694.3404       177400         1589 
35490000   0.99968524   -5.4191752      1728000     6696.216       177450         1589 
35500000    1.0113829   -5.4463558      1728000    6698.1113       177500         1589 
35510000   0.99881942      -5.4335      1728000    6699.9904       177550         1589 
35520000    1.0561063   -5.3925731      1728000    6701.8644       177600         1589 
35530000   0.95895822    -5.278981      1728000    6703.7374       177650         1589 
35540000    1.0382243   -5.5200504      1728000    6705.6194       177700         1589 
35550000   0.96405303   -5.4353821      1728000    6707.5024       177750         1589 
35560000   0.98888023   -5.4205623      1728000    6709.3815       177800         1589 
35570000    1.0866564   -5.4429286      1728000    6711.2544       177850         1589 
35580000   0.97423803   -5.3880763      1728000    6713.1321       177900         1589 
35590000    1.0456339   -5.3315168      1728000    6715.0171       177950         1589 
35600000   0.99409142   -5.3731934      1728000    6716.9157       178000         1589 
35610000    1.0420361   -5.5335692      1728000    6718.8519       178050         1589 
35620000   0.97078469   -5.4713579      1728000    6720.7284       178100         1589 
35630000     1.008006   -5.5215338      1728000    6722.6032       178150         1589 
35640000    1.0880113   -5.3214809      1728000    6724.4866       178200         1589 
35650000   0.90424144   -5.3326708      1728000    6726.3676       178250         1589 
35660000   0.98963478   -5.4134433      1728000    6728.2486       178300         1589 
35670000     1.065808   -5.5124284      1728000    6730.1204       178350         1589 
35680000    1.0368984   -5.4852663      1728000    6731.9931       178400         1589 
35690000   0.99695994    -5.511307      1728000    6733.8702       178450         1589 
35700000     1.001898   -5.3311386      1728000    6735.7632       178500         1589 
35710000   0.97825204   -5.5005966      1728000    6737.6435       178550         1589 
35720000   0.96885007   -5.4456116      1728000    6739.5232       178600         1589 
35730000   0.99852017   -5.4481476      1728000    6741.4153       178650         1589 
35740000   0.88330478   -5.4041941      1728000    6743.2902       178700         1589 
35750000    1.0254026   -5.3555566      1728000    6745.1653       178750         1589 
35760000    1.0091169   -5.4358271      1728000    6747.0481       178800         1589 
35770000    1.0496554   -5.3228716      1728000    6748.9171       178850         1589 
35780000    1.0442232   -5.3389886      1728000    6750.7881       178900         1589 
35790000   0.93529113   -5.3663814      1728000    6752.6702       178950         1589 
35800000   0.99383682   -5.3921294      1728000    6754.5638       179000         1589 
35810000    1.0340006   -5.4207639      1728000    6756.4519       179050         1589 
35820000     0.987992    -5.417628      1728000    6758.3343       179100         1589 
35830000     1.013055   -5.3555034      1728000    6760.2124       179150         1589 
35840000    1.0099044   -5.5350683      1728000    6762.0943       179200         1589 
35850000   0.97153318   -5.3645925      1728000     6763.979       179250         1589 
35860000   0.94035111   -5.3970784      1728000    6765.8623       179300         1589 
35870000   0.97156967   -5.4147582      1728000    6767.7411       179350         1589 
35880000   0.94964319   -5.4129669      1728000    6769.6202       179400         1589 
35890000    1.0429294   -5.3798148      1728000     6771.494       179450         1589 
35900000   0.98090273   -5.3473286      1728000    6773.3731       179500         1591 
35910000   0.98860668   -5.3210179      1728000    6775.2521       179550         1591 
35920000   0.99128874    -5.323868      1728000     6777.119       179600         1592 
35930000   0.98859974   -5.4775945      1728000     6778.994       179650         1592 
35940000    1.0192839   -5.5503326      1728000    6780.8751       179700         1592 
35950000   0.98554144   -5.3814119      1728000    6782.7523       179750         1592 
35960000   0.97203833   -5.3955621      1728000    6784.6363       179800         1592 
35970000    1.0199021   -5.4087317      1728000    6786.5133       179850         1592 
35980000    1.0062201   -5.4247863      1728000    6788.3891       179900         1592 
35990000   0.99864593   -5.3868648      1728000    6790.2732       179950         1592 
36000000   0.93792659   -5.4119452      1728000    6792.1613       180000         1593 
36010000    1.0009907   -5.2851473      1728000    6794.0373       180050         1593 
36020000    1.0150519   -5.3529944      1728000     6795.908       180100         1594 
36030000    1.0245303   -5.3963325      1728000    6797.8122       180150         1594 
36040000   0.99892742   -5.3920849      1728000    6799.7234       180200         1594 
36050000   0.90226053   -5.2679967      1728000    6801.6035       180250         1594 
36060000    1.0172281   -5.3507623      1728000    6803.4759       180300         1594 
36070000   0.98847323   -5.4826168      1728000     6805.355       180350         1594 
36080000    1.1080182   -5.4552102      1728000    6807.2332       180400         1595 
36090000   0.98755382   -5.5046013      1728000    6809.1174       180450         1595 
36100000    1.0564989   -5.4123256      1728000    6811.0122       180500         1595 
36110000   0.95113272   -5.3419329      1728000    6812.9021       180550         1595 
36120000    1.0335254   -5.3502208      1728000    6814.7833       180600         1595 
36130000    1.0659073    -5.368335      1728000     6816.667       180650         1595 
36140000     0.990268   -5.5192264      1728000    6818.5491       180700         1595 
36150000    1.0508157   -5.3080029      1728000    6820.4312       180750         1595 
36160000   0.95826603   -5.3779194      1728000    6822.3099       180800         1595 
36170000    1.0087488   -5.4325294      1728000    6824.1862       180850         1595 
36180000    0.9694874   -5.3763946      1728000      6826.07       180900         1595 
36190000    1.0116779    -5.517892      1728000    6827.9499       180950         1595 
36200000     1.021439   -5.4583563      1728000     6829.836       181000         1595 
36210000    1.0339305   -5.3864503      1728000    6831.7466       181050         1595 
36220000    1.0361886   -5.4111485      1728000    6833.6531       181100         1595 
36230000   0.96684129   -5.4415853      1728000    6835.6172       181150         1595 
36240000    1.0052226   -5.3440122      1728000    6837.5133       181200         1595 
36250000    1.0151336   -5.3823352      1728000    6839.4173       181250         1595 
36260000    1.0197235   -5.3930221      1728000     6841.299       181300         1595 
36270000    1.0293326   -5.2789651      1728000    6843.1749       181350         1595 
36280000    1.0867259   -5.4583121      1728000    6845.0518       181400         1595 
36290000   0.98015647   -5.4495595      1728000    6846.9284       181450         1595 
36300000   0.97198941   -5.3608437      1728000    6848.8282       181500         1595 
36310000   0.98699382   -5.3403043      1728000     6850.745       181550         1595 
36320000    1.0506238   -5.3600267      1728000    6852.6318       181600         1595 
36330000   0.96392022   -5.3998744      1728000    6854.5096       181650         1595 
36340000   0.97776611   -5.4897626      1728000    6856.3993       181700         1595 
36350000    1.0408127   -5.3544546      1728000    6858.2751       181750         1595 
36360000   0.98139884   -5.3356162      1728000    6860.1493       181800         1595 
36370000   0.97389672   -5.5215815      1728000    6862.0271       181850         1595 
36380000    1.0322652   -5.4497151      1728000    6863.8982       181900         1595 
36390000    1.0504927   -5.5378794      1728000    6865.8037       181950         1595 
36400000   0.98192229   -5.4297762      1728000      6867.72       182000         1595 
36410000    1.0261215   -5.3973782      1728000    6869.7057       182050         1595 
36420000   0.93528006   -5.4151404      1728000    6871.6325       182100         1595 
36430000   0.94723669   -5.4705563      1728000    6873.5192       182150         1596 
36440000    1.0170626   -5.4082897      1728000    6875.4452       182200         1596 
36450000   0.99686391   -5.4760106      1728000    6877.3201       182250         1596 
36460000   0.97771867   -5.4641137      1728000    6879.1959       182300         1596 
36470000   0.99948801   -5.3856495      1728000    6881.0932       182350         1596 
36480000   0.99409418   -5.3802502      1728000    6882.9668       182400         1596 
36490000    0.9984854   -5.4152316      1728000    6884.8376       182450         1596 
36500000    1.0346262   -5.4484823      1728000    6886.7371       182500         1596 
36510000    1.0284034    -5.452261      1728000    6888.6031       182550         1596 
36520000    1.0552923   -5.4087625      1728000    6890.4748       182600         1596 
36530000   0.98697143   -5.5789845      1728000    6892.3528       182650         1596 
36540000   0.92663836   -5.3782337      1728000    6894.2288       182700         1596 
36550000   0.98450902   -5.3797018      1728000      6896.11       182750         1596 
36560000    1.0309525   -5.4710248      1728000    6897.9909       182800         1596 
36570000    1.0051614    -5.451704      1728000    6899.8739       182850         1596 
36580000   0.98249802   -5.3847157      1728000     6901.767       182900         1596 
36590000   0.94925653   -5.3673934      1728000    6903.6481       182950         1596 
36600000    1.0045962   -5.2834464      1728000    6905.5431       183000         1596 
36610000   0.99146899   -5.3338425      1728000    6907.4218       183050         1596 
36620000   0.93756038   -5.4941332      1728000    6909.3022       183100         1596 
36630000    1.0086772    -5.287818      1728000    6911.1799       183150         1596 
36640000    1.0312018   -5.4227604      1728000    6913.0619       183200         1596 
36650000    1.0066634   -5.4047807      1728000    6914.9351       183250         1596 
36660000    1.0308081   -5.4371549      1728000    6916.8461       183300         1596 
36670000   0.95621224   -5.3450975      1728000    6918.7391       183350         1596 
36680000    1.0052068    -5.319573      1728000    6920.6081       183400         1596 
36690000     0.979997   -5.4831535      1728000    6922.4961       183450         1596 
36700000     0.971651   -5.4685047      1728000    6924.3858       183500         1596 
36710000    1.0328065   -5.5435502      1728000    6926.2664       183550         1596 
36720000    1.0183004    -5.561673      1728000    6928.1509       183600         1596 
36730000    1.0359171   -5.5282417      1728000    6930.0329       183650         1596 
36740000    1.0267811   -5.3328478      1728000    6931.9148       183700         1596 
36750000    1.0574886   -5.4507012      1728000    6933.8007       183750         1596 
36760000   0.96268888   -5.4183861      1728000    6935.6835       183800         1596 
36770000   0.94409668   -5.3061174      1728000    6937.5586       183850         1597 
36780000    1.0952775   -5.5245153      1728000     6939.435       183900         1597 
36790000    1.0457482    -5.380674      1728000    6941.3126       183950         1597 
36800000   0.98922197   -5.3913456      1728000    6943.2124       184000         1597 
36810000    1.0021677   -5.3928927      1728000    6945.0951       184050         1597 
36820000     1.035582   -5.5442965      1728000    6946.9855       184100         1598 
36830000    1.0328067   -5.4196891      1728000    6948.8691       184150         1598 
36840000     0.965968   -5.4884604      1728000    6950.7534       184200         1600 
36850000     1.011494   -5.3278868      1728000    6952.6423       184250         1600 
36860000    1.0199717   -5.4530488      1728000    6954.5261       184300         1600 
36870000   0.99185906   -5.3987399      1728000     6956.416       184350         1600 
36880000    1.0204905   -5.3473452      1728000     6958.301       184400         1600 
36890000   0.97491609   -5.4282091      1728000    6960.1847       184450         1600 
36900000    1.0421927   -5.5232017      1728000     6962.141       184500         1600 
36910000    1.0022593   -5.3905762      1728000    6964.0428       184550         1600 
36920000   0.99872978   -5.3846065      1728000     6965.929       184600         1600 
36930000     1.010387    -5.461771      1728000    6967.8091       184650         1600 
36940000     1.033413   -5.3513991      1728000    6969.7016       184700         1600 
36950000   0.94065831    -5.457975      1728000    6971.5757       184750         1600 
36960000     1.001889   -5.4503173      1728000    6973.4579       184800         1600 
36970000    1.0214844   -5.5490217      1728000    6975.3327       184850         1600 
36980000    1.0182357   -5.4387324      1728000    6977.2337       184900         1600 
36990000    1.0434354   -5.4281091      1728000    6979.1533       184950         1600 
37000000    1.0095895   -5.3935138      1728000    6981.0849       185000         1600 
37010000   0.97908602   -5.4270065      1728000    6983.0738       185050         1600 
37020000    1.0502451   -5.3845804      1728000    6985.0151       185100         1600 
37030000     0.938018   -5.4615454      1728000    6986.8976       185150         1600 
37040000    1.0034172   -5.3222221      1728000    6988.7718       185200         1600 
37050000   0.99458664   -5.3433249      1728000    6990.6768       185250         1600 
37060000    0.9535203   -5.4217426      1728000    6992.5459       185300         1600 
37070000   0.91157229    -5.382719      1728000    6994.4306       185350         1600 
37080000    1.0675859   -5.3976291      1728000    6996.3068       185400         1600 
37090000    1.0359231   -5.3947193      1728000    6998.1768       185450         1600 
37100000    1.0060549   -5.4482273      1728000    7000.0579       185500         1600 
37110000    1.0426256   -5.3776121      1728000    7001.9359       185550         1600 
37120000    1.0158989   -5.3523567      1728000    7003.8109       185600         1601 
37130000   0.95813588   -5.3560853      1728000     7005.695       185650         1601 
37140000    1.0613163   -5.4580989      1728000    7007.5608       185700         1601 
37150000    1.0131673   -5.2770802      1728000    7009.4429       185750         1601 
37160000   0.98744131   -5.4858939      1728000    7011.3289       185800         1601 
37170000     1.011763   -5.4798551      1728000    7013.2154       185850         1602 
37180000    1.0264258   -5.4409752      1728000    7015.0994       185900         1602 
37190000   0.99977033    -5.304139      1728000    7016.9746       185950         1603 
37200000    1.0630713   -5.4841636      1728000    7018.8608       186000         1603 
37210000   0.99801874   -5.4563792      1728000    7020.7458       186050         1604 
37220000    1.0190646   -5.4327788      1728000    7022.6287       186100         1604 
37230000   0.94401626   -5.3873483      1728000    7024.5126       186150         1605 
37240000    1.0210431   -5.4709831      1728000    7026.3959       186200         1605 
37250000   0.94741887   -5.3714362      1728000    7028.2836       186250         1605 
37260000    1.0303387   -5.4207101      1728000    7030.1617       186300         1605 
37270000    1.0384999   -5.4337195      1728000    7032.0476       186350         1605 
37280000   0.98275346    -5.539908      1728000    7033.9336       186400         1605 
37290000   0.96379425   -5.3740687      1728000    7035.8252       186450         1605 
37300000   0.96232543   -5.5330344      1728000     7037.722       186500         1605 
37310000   0.99929412    -5.403742      1728000    7039.6037       186550         1605 
37320000   0.97303393   -5.5018592      1728000    7041.4958       186600         1607 
37330000   0.99326339   -5.4049245      1728000    7043.3854       186650         1607 
37340000   0.98588253   -5.4441988      1728000    7045.2609       186700         1608 
37350000    1.0364026   -5.3251134      1728000    7047.1346       186750         1608 
37360000    1.0295889   -5.2663663      1728000    7049.0086       186800         1608 
37370000    1.0165957   -5.3950568      1728000     7050.874       186850         1608 
37380000   0.92856191   -5.3277254      1728000    7052.7447       186900         1608 
37390000   0.94549895   -5.3883458      1728000    7054.6219       186950         1608 
37400000    1.0256184    -5.451248      1728000    7056.5093       187000         1608 
37410000   0.98122586   -5.4441236      1728000    7058.3843       187050         1608 
37420000    1.0197977   -5.3826061      1728000    7060.2567       187100         1608 
37430000    1.0223617   -5.5399793      1728000     7062.141       187150         1609 
37440000    0.9022721   -5.4787448      1728000    7064.0316       187200         1609 
37450000    1.0153044   -5.5010362      1728000    7065.9229       187250         1610 
37460000   0.99919522   -5.2948913      1728000    7067.8168       187300         1610 
37470000   0.92613686   -5.3979601      1728000    7069.6958       187350         1611 
37480000    1.0251177   -5.4928931      1728000    7071.5679       187400         1611 
37490000    0.9792402   -5.4506315      1728000    7073.4398       187450         1611 
37500000    0.9136563   -5.3961669      1728000    7075.3219       187500         1611 
37510000    1.0347445   -5.4636941      1728000    7077.1939       187550         1611 
37520000    1.0041393   -5.4494125      1728000    7079.0725       187600         1611 
37530000   0.97509447   -5.3915487      1728000    7080.9406       187650         1612 
37540000    1.0071282   -5.3500104      1728000    7082.8115       187700         1613 
37550000    1.0181829   -5.3578153      1728000    7084.6886       187750         1613 
37560000   0.99761034   -5.3296887      1728000    7086.5468       187800         1613 
37570000   0.98437583   -5.4325352      1728000    7088.4058       187850         1613 
37580000    1.0254417   -5.4049917      1728000    7090.2686       187900         1613 
37590000    1.0548001   -5.4375393      1728000    7092.1327       187950         1613 
37600000     1.031981   -5.3185785      1728000    7094.0147       188000         1614 
37610000    1.0138255   -5.3366379      1728000    7095.8848       188050         1614 
37620000   0.98323272    -5.382478      1728000    7097.7658       188100         1614 
37630000     1.033995   -5.3386426      1728000    7099.6376       188150         1616 
37640000    1.0130989   -5.3935275      1728000    7101.5124       188200         1617 
37650000   0.99686855   -5.3897713      1728000    7103.3935       188250         1617 
37660000   0.96441888   -5.3680974      1728000    7105.2665       188300         1617 
37670000    1.0558488   -5.3982036      1728000    7107.1355       188350         1617 
37680000     1.038365   -5.4257808      1728000    7109.0267       188400         1617 
37690000   0.96312147   -5.3025365      1728000    7110.8987       188450         1617 
37700000    1.0374564   -5.4976959      1728000    7112.7805       188500         1617 
37710000     1.029055   -5.3807695      1728000    7114.6587       188550         1617 
37720000   0.93822444   -5.3551848      1728000    7116.5315       188600         1617 
37730000   0.96472128   -5.5183356      1728000    7118.4052       188650         1617 
37740000    1.0435092   -5.4382154      1728000    7120.2806       188700         1617 
37750000    1.0242736   -5.4353885      1728000    7122.1596       188750         1618 
37760000   0.97878337   -5.4221811      1728000    7124.0387       188800         1618 
37770000   0.97637215   -5.4669021      1728000    7125.9177       188850         1618 
37780000   0.98175135    -5.424934      1728000    7127.7968       188900         1618 
37790000   0.95795466    -5.332367      1728000    7129.6725       188950         1618 
37800000    0.9985968   -5.3585162      1728000    7131.5597       189000         1618 
37810000   0.95605846   -5.4097915      1728000    7133.4446       189050         1618 
37820000    1.0434787    -5.609669      1728000    7135.3267       189100         1618 
37830000   0.99703525   -5.3096277      1728000    7137.2049       189150         1618 
37840000    1.1265502   -5.4421494      1728000    7139.0871       189200         1618 
37850000    1.0715041    -5.448433      1728000    7140.9668       189250         1618 
37860000    1.0679451   -5.4257325      1728000    7142.8545       189300         1618 
37870000    1.0157897   -5.3957891      1728000    7144.7439       189350         1618 
37880000   0.99357401   -5.4344691      1728000    7146.6227       189400         1618 
37890000    1.0341404   -5.4133186      1728000    7148.5009       189450         1619 
37900000    1.0293514   -5.5075933      1728000    7150.3876       189500         1619 
37910000   0.98052362   -5.4312502      1728000    7152.2749       189550         1619 
37920000    1.0262217   -5.5236486      1728000    7154.1694       189600         1619 
37930000   0.95679671   -5.4307107      1728000     7156.065       189650         1619 
37940000    0.9967743   -5.3743197      1728000    7157.9437       189700         1620 
37950000    0.9566041   -5.4427462      1728000    7159.8403       189750         1620 
37960000   0.99742065   -5.2828309      1728000     7161.715       189800         1620 
37970000    1.0169904   -5.3967169      1728000    7163.6067       189850         1620 
37980000   0.92445578   -5.4671005      1728000    7165.4815       189900         1620 
37990000    0.9991591   -5.4328151      1728000    7167.3785       189950         1620 
38000000   0.99901296   -5.4854471      1728000    7169.3618       190000         1620 
38010000    1.0733308   -5.3986805      1728000    7171.2319       190050         1620 
38020000     1.062764   -5.4300061      1728000    7173.1227       190100         1620 
38030000   0.99119344   -5.4066205      1728000    7175.0057       190150         1620 
38040000    1.0329971   -5.4673503      1728000    7176.8865       190200         1620 
38050000    1.0763551   -5.4456617      1728000    7178.7729       190250         1620 
38060000     1.043254   -5.5240851      1728000    7180.6493       190300         1620 
38070000    1.0414056   -5.5463212      1728000    7182.5354       190350         1620 
38080000    1.0286083   -5.3708694      1728000    7184.4316       190400         1620 
38090000    1.0708862   -5.4732953      1728000    7186.3075       190450         1620 
38100000   0.99639298   -5.4763342      1728000    7188.1819       190500         1620 
38110000   0.99643986   -5.3852495      1728000    7190.0595       190550         1620 
38120000   0.98563604   -5.3492648      1728000    7191.9296       190600         1620 
38130000   0.98191749    -5.349837      1728000    7193.8187       190650         1620 
38140000   0.97793304   -5.3898102      1728000    7195.6985       190700         1620 
38150000   0.97431458    -5.559376      1728000    7197.5898       190750         1620 
38160000   0.98741607   -5.5809887      1728000    7199.4676       190800         1620 
38170000    1.0215341   -5.3453853      1728000    7201.3526       190850         1620 
38180000    1.0222179   -5.4691797      1728000    7203.2484       190900         1620 
38190000    1.0242473   -5.4405874      1728000    7205.1545       190950         1620 
38200000   0.96733969   -5.5791236      1728000    7207.0565       191000         1620 
38210000    1.0862877   -5.5807788      1728000    7208.9426       191050         1620 
38220000   0.99731099   -5.3765015      1728000    7210.8276       191100         1620 
38230000    1.0607333   -5.5500783      1728000     7212.715       191150         1620 
38240000    1.0899292   -5.5221504      1728000    7214.6037       191200         1620 
38250000   0.95309693   -5.4509824      1728000    7216.4808       191250         1620 
38260000   0.99429203   -5.3832736      1728000    7218.3587       191300         1620 
38270000   0.97999468   -5.3901227      1728000    7220.2414       191350         1620 
38280000    1.0157089   -5.3668732      1728000    7222.1245       191400         1620 
38290000   0.97375825   -5.5093009      1728000    7224.0027       191450         1620 
38300000    1.0207806   -5.5014283      1728000    7225.8928       191500         1620 
38310000   0.98181043   -5.3043706      1728000    7228.0433       191550         1620 
38320000    0.9876303   -5.4055841      1728000    7230.3739       191600         1620 
38330000    1.0292348   -5.3316669      1728000    7232.7614       191650         1620 
38340000   0.96628324   -5.4176239      1728000    7234.7894       191700         1620 
38350000    1.0041119   -5.4149665      1728000    7236.8441       191750         1620 
38360000    1.0107265   -5.4873007      1728000     7239.031       191800         1620 
38370000    1.0003146   -5.4373036      1728000    7241.0911       191850         1620 
38380000    1.0075231    -5.411065      1728000      7243.09       191900         1620 
38390000   0.94862048   -5.4650356      1728000    7245.0657       191950         1620 
38400000   0.99434055   -5.4788564      1728000    7249.2886       192000         1620 
38410000      1.02957   -5.4026068      1728000    7251.2265       192050         1620 
38420000   0.96606044   -5.3941943      1728000    7253.1707       192100         1620 
38430000   0.96966425   -5.4081102      1728000    7255.0952       192150         1620 
38440000     1.059458   -5.3875567      1728000    7257.0409       192200         1620 
38450000   0.98842268   -5.5400281      1728000    7258.9774       192250         1620 
38460000    1.0212348   -5.5307768      1728000    7260.9421       192300         1620 
38470000    1.1071412   -5.4305802      1728000    7262.9101       192350         1620 
38480000    1.0013289   -5.3880523      1728000    7264.8528       192400         1620 
38490000   0.99081254   -5.3845711      1728000    7266.8078       192450         1620 
38500000   0.95889435   -5.4699759      1728000    7268.7931       192500         1620 
38510000    1.0147422   -5.3760856      1728000    7270.6944       192550         1620 
38520000    0.9536202   -5.4720976      1728000    7272.6505       192600         1620 
38530000   0.98952708   -5.4064226      1728000    7274.6158       192650         1620 
38540000   0.95384691   -5.4234589      1728000    7276.5433       192700         1620 
38550000   0.93803639   -5.4264661      1728000    7278.4471       192750         1620 
38560000    1.0298194   -5.4330415      1728000     7280.372       192800         1620 
38570000   0.94002214   -5.4901766      1728000    7282.2945       192850         1620 
38580000    1.0546182   -5.3410796      1728000    7284.2733       192900         1620 
38590000   0.98939148    -5.367295      1728000    7286.1685       192950         1620 
38600000   0.97371823   -5.3678406      1728000    7288.1141       193000         1620 
38610000   0.99564104   -5.4215792      1728000    7290.0032       193050         1620 
38620000    1.0255137   -5.4235063      1728000    7291.9384       193100         1621 
38630000   0.96307414   -5.3507707      1728000    7293.8295       193150         1621 
38640000    0.9918793   -5.4470249      1728000    7295.7802       193200         1622 
38650000    1.0159772   -5.3711656      1728000    7297.6763       193250         1622 
38660000    1.0340519   -5.3349955      1728000     7299.612       193300         1622 
38670000   0.95221984   -5.4454867      1728000    7301.5537       193350         1623 
38680000   0.97433521   -5.4029862      1728000    7303.5114       193400         1623 
38690000    1.0005079    -5.529446      1728000    7305.4141       193450         1623 
38700000   0.96558963   -5.4690331      1728000    7307.3591       193500         1623 
38710000   0.96129909   -5.4368239      1728000    7309.2648       193550         1623 
38720000     1.030428   -5.5046823      1728000    7311.2062       193600         1623 
38730000   0.95401448   -5.3535182      1728000    7313.1622       193650         1623 
38740000   0.97069683   -5.4068946      1728000    7315.0857       193700         1623 
38750000    1.0686533   -5.4528776      1728000    7317.0507       193750         1623 
38760000   0.96506941   -5.4088493      1728000    7318.9738       193800         1623 
38770000   0.97625443   -5.1866028      1728000    7320.9183       193850         1623 
38780000   0.98973215   -5.5182827      1728000    7322.8702       193900         1623 
38790000    0.9692365   -5.2667156      1728000    7324.7818       193950         1623 
38800000    1.0136743   -5.4500635      1728000    7326.7419       194000         1625 
38810000   0.97079521   -5.3324046      1728000    7328.6561       194050         1625 
38820000   0.96248442    -5.360719      1728000    7330.5497       194100         1625 
38830000    1.0400303   -5.4123567      1728000    7332.4823       194150         1625 
38840000   0.98958895   -5.4170193      1728000    7334.4013       194200         1625 
38850000    1.0124344   -5.5192426      1728000    7336.3352       194250         1625 
38860000   0.97912171   -5.3511481      1728000    7338.2561       194300         1625 
38870000    1.0649055   -5.4115265      1728000    7340.2052       194350         1625 
38880000    1.0543457   -5.5165585      1728000     7342.116       194400         1625 
38890000    1.0252739    -5.497572      1728000    7344.0524       194450         1625 
38900000    1.0283304   -5.4157529      1728000    7345.9766       194500         1625 
38910000    1.0511787    -5.461519      1728000    7347.9583       194550         1625 
38920000   0.99180845   -5.3674716      1728000    7349.8946       194600         1625 
38930000    1.0321588   -5.3952754      1728000    7351.8155       194650         1625 
38940000   0.97954647   -5.3825296      1728000    7353.7413       194700         1625 
38950000    1.0480858   -5.3532511      1728000    7355.7248       194750         1625 
38960000    1.0175924   -5.4081804      1728000    7357.6874       194800         1625 
38970000    1.0074405   -5.3157591      1728000    7359.5965       194850         1625 
38980000   0.96882149   -5.4280291      1728000    7361.5365       194900         1625 
38990000    1.0259395   -5.4320222      1728000     7363.483       194950         1625 
39000000   0.96490543   -5.5705438      1728000    7365.4274       195000         1625 
39010000   0.92629305   -5.5084948      1728000    7367.3934       195050         1625 
39020000    1.0104701   -5.5245388      1728000    7369.3476       195100         1625 
39030000    1.0580593   -5.3990971      1728000    7371.2732       195150         1625 
39040000    1.0107553   -5.4538396      1728000    7373.1892       195200         1625 
39050000    1.0040089   -5.5000572      1728000    7375.1362       195250         1625 
39060000    0.9704722   -5.4532233      1728000    7377.0973       195300         1625 
39070000   0.95879177   -5.5520754      1728000    7378.9971       195350         1625 
39080000    1.0252985   -5.3744258      1728000    7380.8649       195400         1625 
39090000   0.99135438   -5.4333619      1728000    7382.7743       195450         1625 
39100000   0.99675928   -5.4821681      1728000    7384.6701       195500         1625 
39110000   0.98618913   -5.3309798      1728000    7386.5774       195550         1625 
39120000   0.99242802    -5.391478      1728000    7388.4606       195600         1625 
39130000    1.0447531   -5.4819177      1728000    7390.3483       195650         1625 
39140000   0.96826647     -5.34052      1728000    7392.2439       195700         1625 
39150000    1.0009029   -5.4003236      1728000    7394.1172       195750         1625 
39160000   0.90558812   -5.5008144      1728000     7395.998       195800         1625 
39170000   0.99090536   -5.4990123      1728000     7397.912       195850         1625 
39180000   0.96251395   -5.5151434      1728000    7399.7961       195900         1625 
39190000     1.034009   -5.3117856      1728000    7401.7092       195950         1625 
39200000    1.0239647   -5.4788223      1728000    7403.6053       196000         1625 
39210000    1.0172538   -5.3976657      1728000    7405.4773       196050         1625 
39220000    1.0394055   -5.4656147      1728000     7407.364       196100         1625 
39230000    1.0242627   -5.4169656      1728000    7409.2821       196150         1625 
39240000    1.0069171   -5.4969986      1728000    7411.1591       196200         1625 
39250000    1.0076719   -5.4642834      1728000    7413.0431       196250         1625 
39260000    1.0792182   -5.4072369      1728000    7414.9291       196300         1625 
39270000    1.0400344   -5.2759955      1728000    7416.8178       196350         1625 
39280000   0.94795347   -5.3630302      1728000    7418.6949       196400         1625 
39290000    1.0322335   -5.3833069      1728000    7420.5842       196450         1625 
39300000   0.92930241   -5.4876353      1728000    7422.4742       196500         1626 
39310000    1.0039285   -5.3350245      1728000    7424.3551       196550         1626 
39320000   0.97244077   -5.4457643      1728000    7426.2528       196600         1627 
39330000    1.0186559   -5.4270012      1728000    7428.1279       196650         1627 
39340000   0.97073097   -5.4483426      1728000    7430.0074       196700         1627 
39350000    1.0433062   -5.2942919      1728000    7431.8761       196750         1627 
39360000   0.98415035   -5.3628765      1728000    7433.7612       196800         1627 
39370000    1.0033708   -5.4253828      1728000     7435.633       196850         1627 
39380000   0.92869214   -5.3994352      1728000    7437.5531       196900         1627 
39390000     0.982542   -5.4135303      1728000     7439.446       196950         1628 
39400000    1.0074423   -5.3358698      1728000    7441.3761       197000         1628 
39410000    1.0159123   -5.4680835      1728000    7443.2557       197050         1628 
39420000   0.95447802   -5.3989846      1728000    7445.1402       197100         1629 
39430000    1.0604562   -5.3274342      1728000    7447.0388       197150         1629 
39440000   0.92455738   -5.4446567      1728000    7449.0248       197200         1629 
39450000    1.0077015   -5.4126997      1728000    7450.9343       197250         1629 
39460000   0.99637433   -5.3939252      1728000    7452.8901       197300         1629 
39470000   0.97604519   -5.4100514      1728000    7454.8475       197350         1629 
39480000   0.90952518   -5.2636066      1728000    7456.7542       197400         1630 
39490000    0.9854799   -5.4800227      1728000    7458.7269       197450         1630 
39500000    1.0113301   -5.4290774      1728000    7460.7048       197500         1630 
39510000   0.96175849   -5.3943628      1728000    7462.6339       197550         1630 
39520000   0.99671049   -5.4198048      1728000    7464.5422       197600         1630 
39530000   0.99643403    -5.495231      1728000    7466.4334       197650         1630 
39540000    1.0191758   -5.4357888      1728000    7468.3577       197700         1630 
39550000    0.9994747   -5.4708248      1728000    7470.3114       197750         1630 
39560000   0.98431702   -5.4345443      1728000    7472.4762       197800         1630 
39570000    1.0181429    -5.380092      1728000    7474.4872       197850         1631 
39580000   0.96414509   -5.3192253      1728000     7476.434       197900         1631 
39590000     1.008243   -5.3794616      1728000    7478.3521       197950         1631 
39600000   0.99054496   -5.4081682      1728000    7480.3779       198000         1631 
39610000    1.0055244   -5.3193574      1728000    7482.3544       198050         1631 
39620000   0.99174561   -5.4586991      1728000    7484.4087       198100         1631 
39630000   0.97912196   -5.4700766      1728000    7486.3899       198150         1631 
39640000    1.0356987    -5.426042      1728000    7488.3538       198200         1631 
39650000    1.0159385   -5.4699621      1728000     7490.299       198250         1631 
39660000   0.99893219   -5.3331269      1728000     7492.232       198300         1631 
39670000   0.96850234   -5.3131526      1728000     7494.218       198350         1631 
39680000    1.0380118   -5.3236782      1728000    7496.1579       198400         1631 
39690000   0.95922687   -5.2847866      1728000    7498.1778       198450         1633 
39700000    0.9883629   -5.4225601      1728000    7501.4385       198500         1633 
39710000    1.0193738   -5.3017998      1728000    7503.3749       198550         1633 
39720000    1.0054024   -5.4641793      1728000    7505.2509       198600         1633 
39730000   0.98069696   -5.3795309      1728000    7507.1291       198650         1634 
39740000    1.0375973   -5.4663485      1728000    7509.0059       198700         1634 
39750000   0.99183109   -5.4177563      1728000    7510.8901       198750         1634 
39760000   0.93919124   -5.5043499      1728000    7512.7721       198800         1634 
39770000    1.0342869   -5.3999331      1728000     7514.651       198850         1634 
39780000    0.9914976   -5.2978778      1728000    7516.5231       198900         1634 
39790000   0.98253243   -5.2902678      1728000     7518.397       198950         1634 
39800000     1.034786   -5.4239019      1728000    7520.2861       199000         1634 
39810000    1.0178132    -5.418062      1728000    7522.1731       199050         1634 
39820000    1.0038617   -5.3851376      1728000    7524.0698       199100         1634 
39830000   0.99949487    -5.525097      1728000     7525.995       199150         1634 
39840000    1.0466522   -5.4010243      1728000    7527.8991       199200         1634 
39850000    1.0177676   -5.4022807      1728000    7529.7969       199250         1634 
39860000    1.0299627   -5.3071213      1728000    7531.7081       199300         1634 
39870000    1.0199965   -5.3886384      1728000    7533.6481       199350         1634 
39880000   0.94950631   -5.4371512      1728000    7535.5751       199400         1634 
39890000    0.9354396   -5.4516342      1728000     7537.455       199450         1634 
39900000   0.96891967    -5.556325      1728000     7539.345       199500         1634 
39910000    1.0149399   -5.3963092      1728000    7541.2339       199550         1634 
39920000   0.97705649   -5.4015433      1728000    7543.1241       199600         1634 
39930000    1.0314661   -5.3744754      1728000     7545.009       199650         1634 
39940000    1.0170455   -5.4567339      1728000     7546.894       199700         1634 
39950000    1.0183539   -5.3830197      1728000    7548.7628       199750         1634 
39960000   0.98377048   -5.3015396      1728000    7550.6641       199800         1634 
39970000   0.99530147   -5.3132758      1728000     7552.536       199850         1634 
39980000   0.99112111   -5.3452596      1728000     7554.416       199900         1634 
39990000   0.99453184   -5.4892678      1728000     7556.301       199950         1635 
40000000   0.96516719   -5.4857553      1728000     7558.215       200000         1635 
40010000   0.95882223   -5.2878761      1728000     7560.086       200050         1635 
40020000   0.94073046   -5.3488969      1728000    7561.9481       200100         1635 
40030000   0.97849564   -5.4836253      1728000     7563.831       200150         1635 
40040000    1.0841602   -5.3675242      1728000     7565.726       200200         1635 
40050000    0.9553513    -5.312234      1728000      7567.61       200250         1635 
40060000    1.0144614   -5.4431532      1728000    7569.4919       200300         1635 
40070000    1.0269001   -5.3290727      1728000    7571.3848       200350         1635 
40080000    1.0170945   -5.4606687      1728000     7573.272       200400         1635 
40090000    1.0250433   -5.4882392      1728000     7575.182       200450         1636 
40100000   0.97506818   -5.4394729      1728000    7577.0738       200500         1636 
40110000    1.0272809   -5.3523155      1728000    7578.9509       200550         1636 
40120000   0.98792527    -5.349366      1728000      7580.83       200600         1636 
40130000   0.96082955   -5.2797803      1728000    7582.7047       200650         1636 
40140000   0.99638272   -5.3894502      1728000    7584.5789       200700         1636 
40150000    1.0270109   -5.4586762      1728000     7586.452       200750         1637 
40160000   0.98695086   -5.4820343      1728000    7588.3313       200800         1637 
40170000   0.95410162    -5.307818      1728000    7590.2185       200850         1638 
40180000    1.0193848   -5.3876143      1728000    7592.1049       200900         1638 
40190000     1.004238   -5.4288597      1728000     7593.987       200950         1638 
40200000   0.99023901   -5.3893887      1728000    7595.8789       201000         1638 
40210000    1.0264026   -5.4759767      1728000    7597.7599       201050         1639 
40220000    1.0225837   -5.3643112      1728000     7599.641       201100         1639 
40230000    1.0096623   -5.3242814      1728000    7601.5229       201150         1639 
40240000   0.99525775   -5.3637753      1728000    7603.4019       201200         1640 
40250000   0.98341262   -5.3971372      1728000    7605.2898       201250         1640 
40260000      1.01198   -5.5224808      1728000     7607.207       201300         1640 
40270000     1.013682   -5.3211921      1728000    7609.0849       201350         1641 
40280000   0.96994949   -5.2137863      1728000    7610.9729       201400         1641 
40290000    1.0050984   -5.3662197      1728000    7612.9418       201450         1642 
40300000   0.97740214   -5.4064932      1728000    7614.8569       201500         1642 
40310000   0.97890745   -5.5906965      1728000    7616.7609       201550         1642 
40320000    1.0701954    -5.546363      1728000    7618.6649       201600         1643 
40330000    1.0089704    -5.280215      1728000    7620.5607       201650         1643 
40340000    1.0489847   -5.5161452      1728000    7622.5669       201700         1643 
40350000    1.0211583   -5.3606877      1728000    7624.5287       201750         1643 
40360000    1.0110207   -5.4274267      1728000    7626.5322       201800         1643 
40370000     1.049955   -5.3893866      1728000    7628.6199       201850         1644 
40380000    1.0768258   -5.5162802      1728000    7630.5089       201900         1646 
40390000    1.0227477   -5.4225308      1728000    7632.4168       201950         1646 
40400000    0.9874893   -5.4528292      1728000    7634.4099       202000         1646 
40410000   0.99629047   -5.4628003      1728000    7636.3168       202050         1646 
40420000    1.0282861     -5.44426      1728000    7638.2028       202100         1646 
40430000    1.0376873   -5.4667033      1728000    7640.1009       202150         1647 
40440000   0.97858416    -5.333037      1728000    7641.9769       202200         1647 
40450000    1.0675299   -5.4658104      1728000    7643.8778       202250         1647 
40460000    1.0593041   -5.3948488      1728000    7645.7808       202300         1647 
40470000   0.98691493   -5.4656831      1728000    7647.7528       202350         1647 
40480000    1.0165617   -5.4245716      1728000    7649.6609       202400         1648 
40490000   0.98150307   -5.4372824      1728000    7651.5638       202450         1648 
40500000    0.9384016   -5.4857886      1728000    7653.6339       202500         1648 
40510000    1.0145317   -5.4075093      1728000    7655.5699       202550         1648 
40520000    1.0388751   -5.5344189      1728000    7657.4618       202600         1648 
40530000    1.0209324   -5.4244778      1728000    7659.3558       202650         1648 
40540000      1.05216   -5.4694543      1728000    7661.2449       202700         1648 
40550000   0.98515313    -5.507992      1728000    7663.1389       202750         1648 
40560000   0.97996385    -5.316891      1728000    7665.0359       202800         1648 
40570000   0.98464863   -5.5170424      1728000    7666.9268       202850         1648 
40580000   0.94652219   -5.3736575      1728000    7668.8268       202900         1648 
40590000   0.94188373   -5.2261567      1728000    7670.7218       202950         1648 
40600000   0.95802425     -5.48347      1728000    7672.6117       203000         1649 
40610000    1.0272301   -5.3270632      1728000    7674.5419       203050         1649 
40620000   0.98502592   -5.3716935      1728000    7676.7177       203100         1650 
40630000   0.97184365   -5.4187693      1728000    7678.7157       203150         1650 
40640000    1.0256389   -5.4600308      1728000    7680.6068       203200         1650 
40650000   0.97015786    -5.425179      1728000    7682.5066       203250         1650 
40660000    1.0241934   -5.4508862      1728000    7684.4478       203300         1650 
40670000   0.99199764   -5.4228566      1728000    7686.3538       203350         1650 
40680000    1.0007228   -5.4168336      1728000    7688.2538       203400         1650 
40690000   0.98532109   -5.5387612      1728000    7690.1477       203450         1650 
40700000    0.9719883   -5.3978139      1728000    7692.0855       203500         1650 
40710000   0.94207793   -5.4393226      1728000    7694.2233       203550         1651 
40720000   0.94001906   -5.3322873      1728000    7696.1723       203600         1651 
40730000   0.93771849    -5.401426      1728000    7698.0548       203650         1651 
40740000   0.98864725   -5.4866958      1728000    7699.9367       203700         1651 
40750000    1.0436956    -5.439105      1728000    7701.8266       203750         1651 
40760000   0.97729958   -5.3629779      1728000    7703.7286       203800         1651 
40770000    1.0577078   -5.5192402      1728000    7705.6578       203850         1651 
40780000     1.010463   -5.3123149      1728000    7707.5797       203900         1651 
40790000   0.97069211   -5.3754204      1728000    7709.4868       203950         1651 
40800000    1.0030347   -5.3917776      1728000    7711.4398       204000         1651 
40810000    1.0307429   -5.3022885      1728000    7713.3397       204050         1651 
40820000   0.98103652   -5.4011194      1728000    7715.2908       204100         1651 
40830000    0.9979783   -5.3592624      1728000    7717.2026       204150         1651 
40840000    1.0197549   -5.3553476      1728000    7719.1078       204200         1651 
40850000    1.0218869   -5.5174322      1728000    7721.0116       204250         1651 
40860000    1.0059273   -5.2353312      1728000    7722.9058       204300         1651 
40870000    1.0454517   -5.5701572      1728000    7724.8268       204350         1651 
40880000    1.0012452    -5.409637      1728000    7726.7258       204400         1651 
40890000   0.99823461    -5.404111      1728000    7728.6247       204450         1651 
40900000   0.94817672   -5.3012244      1728000    7730.5267       204500         1651 
40910000     1.086769   -5.4933812      1728000    7732.4166       204550         1651 
40920000    1.0234355   -5.4144387      1728000    7734.3088       204600         1651 
40930000   0.99778511   -5.2907688      1728000    7736.2015       204650         1651 
40940000     1.007001   -5.3766687      1728000    7738.1227       204700         1652 
40950000   0.97639237   -5.3843272      1728000    7740.0105       204750         1652 
40960000   0.96338027   -5.4983715      1728000    7741.8896       204800         1652 
40970000    1.0154121   -5.3946046      1728000    7743.8377       204850         1652 
40980000   0.99174566   -5.3058324      1728000    7745.7297       204900         1653 
40990000   0.95221423   -5.4671969      1728000    7747.6257       204950         1653 
41000000    1.0378259   -5.4475053      1728000    7749.5377       205000         1653 
41010000   0.99173938    -5.477528      1728000    7751.4425       205050         1653 
41020000   0.94812092   -5.3508274      1728000    7753.3537       205100         1653 
41030000    1.0589287    -5.438456      1728000    7755.2487       205150         1653 
41040000    1.0475729   -5.3107336      1728000    7757.1397       205200         1653 
41050000    1.0330885   -5.4316235      1728000    7759.0227       205250         1653 
41060000   0.94138837   -5.2365799      1728000    7760.9088       205300         1653 
41070000    1.0660498   -5.2659319      1728000    7762.8108       205350         1653 
41080000    1.0640572   -5.3084982      1728000    7764.7096       205400         1654 
41090000   0.97890337   -5.3261034      1728000    7766.6196       205450         1654 
41100000    1.0023008   -5.3699108      1728000    7768.5285       205500         1654 
41110000    1.0007545   -5.3164619      1728000    7770.4337       205550         1654 
41120000    1.0316229   -5.2976897      1728000    7772.3247       205600         1654 
41130000   0.94330535   -5.4918558      1728000    7774.2086       205650         1655 
41140000   0.96325247   -5.5445492      1728000    7776.0897       205700         1655 
41150000   0.96286431   -5.3523793      1728000    7777.9827       205750         1655 
41160000   0.98106082    -5.539452      1728000    7779.8707       205800         1655 
41170000   0.98621068   -5.3157766      1728000    7781.7556       205850         1655 
41180000    1.0286984   -5.3809837      1728000    7783.6746       205900         1655 
41190000   0.98741907    -5.523527      1728000    7785.5806       205950         1655 
41200000   0.99794029   -5.4111409      1728000    7787.5299       206000         1655 
41210000    1.0046792   -5.4749133      1728000    7789.5079       206050         1655 
41220000    0.9868828   -5.3028938      1728000    7791.5486       206100         1655 
41230000    1.0304307   -5.4748298      1728000    7793.5625       206150         1656 
41240000   0.97954987   -5.4141902      1728000     7795.565       206200         1656 
41250000   0.97972459   -5.3825828      1728000    7797.6385       206250         1656 
41260000     1.030309   -5.4149134      1728000    7799.9363       206300         1656 
41270000    1.1515668   -5.4822419      1728000    7801.9463       206350         1656 
41280000    1.0326448   -5.3622915      1728000    7803.9542       206400         1656 
41290000    1.0593003   -5.3991948      1728000    7805.9317       206450         1656 
41300000   0.99761199   -5.4463835      1728000    7807.9521       206500         1656 
41310000    1.0035635   -5.4302206      1728000    7809.9414       206550         1656 
41320000    1.0385592   -5.4708679      1728000    7811.9403       206600         1656 
41330000     1.026829   -5.3625648      1728000    7814.0623       206650         1656 
41340000    1.0958881   -5.3534331      1728000    7816.1792       206700         1656 
41350000   0.98679622   -5.4254191      1728000    7818.3865       206750         1656 
41360000    0.9707785   -5.4320388      1728000     7820.567       206800         1656 
41370000   0.98816103    -5.457859      1728000     7822.781       206850         1656 
41380000   0.99027495   -5.5266926      1728000    7824.7362       206900         1656 
41390000    1.0373579   -5.3428635      1728000    7826.6434       206950         1656 
41400000    1.0399363   -5.3239391      1728000    7828.6089       207000         1656 
41410000    1.0241355    -5.449997      1728000    7830.5665       207050         1656 
41420000     1.110042    -5.455192      1728000    7832.5051       207100         1656 
41430000    1.0055744   -5.6256803      1728000    7834.4203       207150         1656 
41440000    1.0024776   -5.4615371      1728000    7836.3499       207200         1656 
41450000    1.0230556   -5.2662827      1728000    7838.3672       207250         1656 
41460000   0.97045547   -5.3767435      1728000    7840.4215       207300         1656 
41470000   0.98423636   -5.2988502      1728000    7842.3145       207350         1656 
41480000    1.0020153   -5.3746767      1728000    7844.2145       207400         1656 
41490000   0.99737895   -5.3469757      1728000    7846.1196       207450         1656 
41500000   0.99293996   -5.4701832      1728000     7848.036       207500         1656 
41510000   0.99499721     -5.54893      1728000    7849.9796       207550         1656 
41520000   0.97803846   -5.4572506      1728000    7851.8972       207600         1657 
41530000    1.0064969    -5.286823      1728000    7853.7916       207650         1657 
41540000    1.0191941   -5.4984725      1728000    7855.6806       207700         1657 
41550000     1.033436    -5.317462      1728000    7857.5912       207750         1657 
41560000     1.019701   -5.4977841      1728000    7859.4825       207800         1657 
41570000   0.97840512   -5.2137707      1728000    7861.3919       207850         1657 
41580000     1.010394    -5.368275      1728000    7863.3204       207900         1657 
41590000     1.065294   -5.3744979      1728000    7865.2481       207950         1657 
41600000    1.0703202   -5.3769773      1728000    7867.2842       208000         1657 
41610000   0.94438108   -5.4275996      1728000    7869.3308       208050         1657 
41620000   0.96324022   -5.4147365      1728000    7871.3753       208100         1658 
41630000    1.0183486    -5.355002      1728000    7873.3631       208150         1659 
41640000   0.95245683   -5.4258476      1728000    7875.5076       208200         1659 
41650000   0.94445579   -5.3872035      1728000    7877.4804       208250         1659 
41660000    1.0642135   -5.3279607      1728000    7879.3814       208300         1659 
41670000    0.9858891   -5.3956127      1728000     7881.267       208350         1659 
41680000   0.97242395   -5.3962304      1728000    7883.1725       208400         1659 
41690000   0.97417132   -5.3559579      1728000    7885.0893       208450         1659 
41700000    1.0134782   -5.4806984      1728000    7887.0865       208500         1659 
41710000    1.0146396   -5.4251538      1728000     7889.005       208550         1659 
41720000    1.0393095   -5.3109585      1728000    7891.0689       208600         1660 
41730000    1.0112206   -5.3977286      1728000    7893.1071       208650         1660 
41740000   0.99364508   -5.2754209      1728000    7895.0744       208700         1660 
41750000    0.9461261   -5.2779247      1728000    7897.1374       208750         1661 
41760000   0.99134492   -5.3252246      1728000    7899.2079       208800         1662 
41770000   0.96453025   -5.4714409      1728000    7901.2818       208850         1662 
41780000   0.95444922   -5.4415295      1728000    7903.3377       208900         1662 
41790000   0.99907127   -5.3402058      1728000     7905.407       208950         1662 
41800000   0.99940662   -5.4560316      1728000    7907.4684       209000         1662 
41810000   0.97183429   -5.4555614      1728000    7909.5301       209050         1662 
41820000   0.98610746   -5.4000141      1728000    7911.5431       209100         1662 
41830000    1.0111192   -5.4173495      1728000    7913.6275       209150         1662 
41840000     1.036436   -5.4819714      1728000    7915.6663       209200         1662 
41850000   0.99454858    -5.461318      1728000    7917.7525       209250         1662 
41860000   0.96521811    -5.406789      1728000    7919.8112       209300         1662 
41870000    1.0134607   -5.3613003      1728000    7921.8863       209350         1662 
41880000    1.0027786   -5.4210215      1728000     7923.952       209400         1662 
41890000   0.99462955   -5.2467906      1728000     7925.991       209450         1662 
41900000   0.93857206   -5.3983926      1728000     7928.034       209500         1662 
41910000     0.996334   -5.3766371      1728000    7930.0367       209550         1662 
41920000    1.0106137   -5.4768923      1728000    7932.0454       209600         1662 
41930000   0.97285611   -5.3731886      1728000    7933.9566       209650         1662 
41940000   0.90848902   -5.4354857      1728000    7935.9976       209700         1662 
41950000    1.0225009   -5.3559722      1728000    7938.0325       209750         1662 
41960000   0.99336631    -5.334132      1728000    7940.0542       209800         1662 
41970000    1.0106512   -5.3712011      1728000    7942.0489       209850         1662 
41980000    1.0121134   -5.3556481      1728000    7943.9677       209900         1663 
41990000   0.99006416    -5.394467      1728000    7945.9137       209950         1663 
42000000   0.97516827   -5.3096409      1728000    7947.8514       210000         1663 
42010000    1.0138326   -5.3695758      1728000    7949.8192       210050         1663 
42020000   0.97463522   -5.4410026      1728000     7951.769       210100         1663 
42030000   0.98668841    -5.388322      1728000    7953.6993       210150         1663 
42040000    1.0166684   -5.2479983      1728000    7955.6146       210200         1663 
42050000   0.94942756   -5.5186316      1728000    7957.5147       210250         1664 
42060000    1.0315671   -5.4030681      1728000    7959.4873       210300         1664 
42070000   0.95433561   -5.4412314      1728000    7961.4239       210350         1664 
42080000    1.0209163   -5.3587746      1728000    7963.3769       210400         1664 
42090000   0.96982195   -5.3436366      1728000    7965.2951       210450         1664 
42100000   0.96276112   -5.3953864      1728000    7967.2098       210500         1665 
42110000    1.0493081    -5.384595      1728000    7969.1207       210550         1665 
42120000    1.0855341   -5.4175966      1728000    7971.0299       210600         1666 
42130000   0.99566431   -5.2963947      1728000    7972.9441       210650         1666 
42140000   0.92266653   -5.3550595      1728000    7974.8408       210700         1666 
42150000    1.0190868   -5.4065856      1728000    7976.7416       210750         1666 
42160000   0.96287338   -5.4442568      1728000    7978.7715       210800         1667 
42170000    0.9940029    -5.382429      1728000     7980.728       210850         1667 
42180000   0.98461459   -5.4079944      1728000    7982.6853       210900         1667 
42190000   0.96558877   -5.3739708      1728000      7984.61       210950         1667 
42200000    1.0695523   -5.2507629      1728000    7986.5649       211000         1667 
42210000    1.0228353    -5.354945      1728000    7988.5419       211050         1667 
42220000    1.0514094   -5.3982711      1728000    7990.4728       211100         1667 
42230000    1.0470695   -5.3333582      1728000       7992.4       211150         1667 
42240000    1.0286997   -5.3740273      1728000    7994.3174       211200         1668 
42250000   0.96032851   -5.4591197      1728000    7996.2503       211250         1668 
42260000   0.99053149   -5.3481566      1728000    7998.1902       211300         1668 
42270000    1.0106422   -5.4374985      1728000    8000.1208       211350         1668 
42280000   0.97437174     -5.43548      1728000    8002.0769       211400         1668 
42290000    1.0604783   -5.3734622      1728000    8003.9887       211450         1668 
42300000    1.0377117     -5.31703      1728000    8005.9052       211500         1668 
42310000    1.0038207   -5.3096847      1728000    8007.7958       211550         1668 
42320000    1.0246051   -5.4580028      1728000    8009.6929       211600         1668 
42330000    0.9567059   -5.3649104      1728000    8011.5844       211650         1668 
42340000    1.0336219   -5.4779684      1728000    8013.4951       211700         1668 
42350000   0.98556838   -5.3651033      1728000    8015.4125       211750         1668 
42360000    1.0275477   -5.2937377      1728000     8017.321       211800         1668 
42370000   0.97632174   -5.3012923      1728000    8019.2251       211850         1668 
42380000   0.93849852   -5.3407305      1728000    8021.1409       211900         1668 
42390000    1.0151498   -5.3422215      1728000    8023.0752       211950         1668 
42400000    1.0273053   -5.4275467      1728000    8025.0343       212000         1668 
42410000    1.0263849   -5.5028026      1728000     8027.023       212050         1668 
42420000    1.0371773   -5.4021236      1728000    8028.9559       212100         1668 
42430000   0.97809186   -5.4706635      1728000     8031.052       212150         1668 
42440000   0.95477292   -5.4133979      1728000    8033.1323       212200         1668 
42450000     1.029324   -5.3111259      1728000    8035.1893       212250         1668 
42460000    0.9565996   -5.3339746      1728000    8037.2288       212300         1669 
42470000   0.95732015   -5.4373626      1728000    8039.2735       212350         1669 
42480000   0.99079956   -5.4186604      1728000      8041.27       212400         1669 
42490000    1.0234008   -5.4172781      1728000    8043.3355       212450         1669 
42500000   0.95084977   -5.3018299      1728000    8045.4201       212500         1669 
42510000    1.0268343   -5.5345568      1728000     8047.381       212550         1669 
42520000   0.99977264   -5.4649863      1728000    8049.4432       212600         1669 
42530000   0.98391587    -5.333353      1728000    8051.4961       212650         1669 
42540000    1.0048045   -5.4645699      1728000    8053.5443       212700         1669 
42550000   0.98960147   -5.3173695      1728000     8055.583       212750         1669 
42560000   0.95454647   -5.4528066      1728000    8057.6408       212800         1669 
42570000   0.95462021   -5.3914319      1728000    8059.7144       212850         1669 
42580000   0.90471936   -5.3301879      1728000    8061.7781       212900         1669 
42590000    1.0042401   -5.4134646      1728000    8063.8389       212950         1669 
42600000    1.0118105   -5.4744592      1728000    8065.8371       213000         1669 
42610000    1.0631797   -5.2878237      1728000    8067.8924       213050         1669 
42620000   0.98652259   -5.3544121      1728000    8069.9969       213100         1670 
42630000    1.0150448   -5.3446949      1728000    8072.2124       213150         1671 
42640000   0.96171717   -5.5058901      1728000    8074.2249       213200         1671 
42650000    1.0346624   -5.3434775      1728000    8076.2366       213250         1671 
42660000   0.96040957   -5.4384001      1728000    8078.3114       213300         1671 
42670000    0.9597566    -5.303949      1728000    8080.3249       213350         1671 
42680000   0.99911924   -5.4298819      1728000    8082.3565       213400         1671 
42690000   0.98796845    -5.460396      1728000    8084.4201       213450         1671 
42700000     1.038667   -5.4061548      1728000    8086.3901       213500         1671 
42710000    1.0324992   -5.4951216      1728000    8088.3358       213550         1672 
42720000    1.0013355   -5.3871142      1728000    8090.2855       213600         1673 
42730000    1.0439395   -5.2509136      1728000    8092.2318       213650         1673 
42740000   0.97922014   -5.4321973      1728000    8094.3407       213700         1673 
42750000     1.012094   -5.4855614      1728000     8096.377       213750         1673 
42760000    1.0580682   -5.4964266      1728000    8098.5784       213800         1673 
42770000   0.99568296   -5.3665095      1728000    8100.7252       213850         1674 
42780000     1.033713   -5.4248409      1728000    8102.8789       213900         1674 
42790000   0.95394156   -5.4555057      1728000    8104.9611       213950         1674 
42800000     1.053542   -5.3299812      1728000    8107.0289       214000         1674 
42810000   0.98815075   -5.3593276      1728000    8108.9874       214050         1674 
42820000     1.074568    -5.478968      1728000    8111.0171       214100         1674 
42830000    1.0767989   -5.4122577      1728000    8113.0411       214150         1674 
42840000   0.98512945   -5.3526522      1728000    8115.0613       214200         1674 
42850000   0.99855471   -5.3324731      1728000    8117.0731       214250         1674 
42860000   0.98444334   -5.3733538      1728000    8119.0746       214300         1674 
42870000   0.98016125   -5.1954105      1728000    8121.0808       214350         1674 
42880000    1.0440518   -5.5725573      1728000     8123.104       214400         1674 
42890000    1.0209139    -5.412526      1728000    8125.1293       214450         1674 
42900000    1.0066659   -5.4096989      1728000    8127.1723       214500         1674 
42910000   0.93859205   -5.3417564      1728000    8129.2307       214550         1674 
42920000    1.0517365   -5.4366444      1728000    8131.2173       214600         1674 
42930000    1.0170389   -5.3536522      1728000    8133.2505       214650         1674 
42940000   0.90969492    -5.378164      1728000    8135.2285       214700         1674 
42950000   0.96744941    -5.382905      1728000     8137.265       214750         1674 
42960000    1.0001554    -5.466444      1728000    8139.2548       214800         1675 
42970000   0.97707572   -5.3514852      1728000    8141.2784       214850         1675 
42980000     0.939723   -5.5219826      1728000    8143.3194       214900         1675 
42990000     1.052676   -5.3846502      1728000    8145.3523       214950         1675 
43000000    1.0301854   -5.3897026      1728000     8147.379       215000         1675 
43010000    1.0084214   -5.4459566      1728000    8149.4085       215050         1675 
43020000   0.98099274   -5.4745569      1728000     8151.393       215100         1675 
43030000    1.0047839   -5.4729343      1728000     8153.401       215150         1675 
43040000   0.95755185   -5.5095025      1728000    8155.3837       215200         1675 
43050000    1.0251956   -5.3624698      1728000    8157.4118       215250         1675 
43060000    1.0864121   -5.4990043      1728000    8159.3964       215300         1676 
43070000    1.0101945   -5.4182372      1728000    8161.3759       215350         1676 
43080000   0.98585359   -5.3525711      1728000    8163.3944       215400         1676 
43090000   0.97626919   -5.4321137      1728000    8165.4261       215450         1676 
43100000    1.0272108   -5.3146627      1728000      8167.45       215500         1676 
43110000    1.0352916   -5.3741573      1728000    8169.4594       215550         1676 
43120000   0.96951353   -5.3385338      1728000    8171.4557       215600         1676 
43130000   0.98512791   -5.3971649      1728000    8173.4711       215650         1676 
43140000    1.0750842    -5.478541      1728000    8175.5256       215700         1676 
43150000   0.98453482   -5.4051316      1728000    8177.4995       215750         1676 
43160000   0.98099621   -5.4048969      1728000    8179.5122       215800         1676 
43170000    1.0045449   -5.3985521      1728000    8181.5492       215850         1676 
43180000    1.0321859   -5.5020106      1728000    8183.5667       215900         1676 
43190000    1.0044813   -5.4685079      1728000    8185.5593       215950         1676 
43200000    1.0040953   -5.4076829      1728000    8187.5918       216000         1676 
43210000    1.0075814   -5.4407756      1728000    8189.6342       216050         1676 
43220000     1.014768   -5.3888748      1728000    8191.6628       216100         1676 
43230000   0.94840185   -5.4611999      1728000    8193.6852       216150         1676 
43240000   0.97709424    -5.354859      1728000    8195.7513       216200         1677 
43250000    1.0191522    -5.330759      1728000    8197.7971       216250         1677 
43260000    1.0705009   -5.4246827      1728000    8199.8369       216300         1677 
43270000   0.95352133   -5.3276603      1728000     8201.875       216350         1677 
43280000    1.0428178   -5.4071113      1728000    8203.9275       216400         1677 
43290000    1.0286154   -5.4141876      1728000    8205.9116       216450         1677 
43300000   0.97860472   -5.4419867      1728000    8207.9375       216500         1677 
43310000    1.0116323   -5.4455115      1728000    8209.9504       216550         1677 
43320000   0.95653304     -5.47197      1728000    8212.0133       216600         1677 
43330000    1.0061713   -5.4738344      1728000    8214.1114       216650         1677 
43340000    1.0071777   -5.4405628      1728000    8216.2263       216700         1677 
43350000    1.0317208   -5.4197708      1728000    8218.3011       216750         1677 
43360000   0.97834301   -5.3302697      1728000    8220.3441       216800         1677 
43370000    1.0276274   -5.3300504      1728000    8222.4275       216850         1677 
43380000   0.97761642   -5.5323529      1728000    8224.4955       216900         1677 
43390000    1.0306087   -5.4874544      1728000    8226.5264       216950         1677 
43400000    1.0358137   -5.3169048      1728000    8228.5819       217000         1677 
43410000    1.0296195    -5.452551      1728000    8230.6478       217050         1677 
43420000    1.0364474   -5.3989215      1728000    8232.6797       217100         1677 
43430000    1.0454425    -5.400087      1728000    8234.6935       217150         1677 
43440000   0.96767748   -5.4168975      1728000    8236.7295       217200         1677 
43450000    0.9640888   -5.4053311      1728000    8238.7518       217250         1677 
43460000   0.96343048   -5.5044667      1728000    8240.7969       217300         1677 
43470000    1.0503575   -5.3933236      1728000    8242.8509       217350         1677 
43480000   0.99993138    -5.345001      1728000    8244.8876       217400         1677 
43490000    1.0458062   -5.4692731      1728000    8246.9137       217450         1677 
43500000   0.97644017   -5.3590006      1728000     8249.006       217500         1677 
43510000   0.95191328   -5.3876273      1728000    8251.0478       217550         1677 
43520000    1.0404365    -5.479309      1728000    8253.0774       217600         1677 
43530000   0.97890842   -5.3886395      1728000    8255.0858       217650         1677 
43540000   0.96061792   -5.4787536      1728000    8257.1297       217700         1677 
43550000    1.0173286    -5.442491      1728000    8259.1678       217750         1677 
43560000    1.0366144   -5.3155792      1728000    8261.1889       217800         1677 
43570000    1.0299756   -5.4319078      1728000    8263.1979       217850         1677 
43580000    1.0286616   -5.4528893      1728000    8265.2478       217900         1677 
43590000    0.9601438    -5.378126      1728000    8267.2683       217950         1677 
43600000     1.051326   -5.5702354      1728000    8269.3246       218000         1677 
43610000    1.0050801   -5.3496521      1728000    8271.3576       218050         1677 
43620000   0.91953248    -5.519006      1728000    8273.4264       218100         1677 
43630000   0.96390392   -5.3867113      1728000    8275.4563       218150         1677 
43640000    1.0231793   -5.3948359      1728000    8277.5148       218200         1677 
43650000     1.023379   -5.3052806      1728000    8279.6045       218250         1677 
43660000    1.0012917   -5.4897156      1728000    8281.6906       218300         1677 
43670000    0.9583423   -5.5148665      1728000    8283.7118       218350         1677 
43680000   0.90436888   -5.4538451      1728000    8285.7411       218400         1677 
43690000   0.98480048   -5.4319378      1728000    8287.7471       218450         1677 
43700000   0.96998321   -5.5034529      1728000    8289.7781       218500         1677 
43710000    1.0408304   -5.3811373      1728000    8291.8075       218550         1677 
43720000    1.0560666    -5.402167      1728000    8293.8769       218600         1677 
43730000    1.0209109    -5.436452      1728000    8295.9155       218650         1677 
43740000   0.98404873   -5.3889494      1728000    8297.9438       218700         1677 
43750000   0.96348546    -5.318659      1728000    8299.9469       218750         1677 
43760000    1.0019227   -5.4040229      1728000    8301.9919       218800         1677 
43770000   0.99594961   -5.3578154      1728000     8304.023       218850         1677 
43780000    0.9980302   -5.3617491      1728000    8306.0702       218900         1677 
43790000   0.98083644   -5.5423506      1728000    8308.0652       218950         1677 
43800000    1.0169854   -5.3968402      1728000     8310.113       219000         1677 
43810000     1.032079   -5.4198602      1728000    8312.0929       219050         1677 
43820000    1.0439116   -5.3987708      1728000    8314.1179       219100         1677 
43830000    1.0184101   -5.3620737      1728000    8316.1599       219150         1677 
43840000    1.0155889   -5.4674555      1728000    8318.2005       219200         1677 
43850000      1.06456   -5.4433831      1728000    8320.2338       219250         1678 
43860000    1.0092741   -5.4866365      1728000    8322.2636       219300         1678 
43870000   0.94719163   -5.4566471      1728000    8324.3019       219350         1678 
43880000   0.96608144   -5.3445019      1728000    8326.3161       219400         1678 
43890000   0.97623792   -5.2749938      1728000     8328.333       219450         1678 
43900000    1.0107689   -5.2600053      1728000     8330.394       219500         1678 
43910000    1.0107566   -5.4335746      1728000    8332.3834       219550         1678 
43920000     1.036039   -5.4196999      1728000    8334.4072       219600         1679 
43930000    1.0351506   -5.5440646      1728000    8336.3846       219650         1679 
43940000   0.96679534   -5.4643611      1728000    8338.4199       219700         1679 
43950000   0.99627231   -5.4668401      1728000    8340.4688       219750         1679 
43960000   0.99211889    -5.421161      1728000     8342.466       219800         1681 
43970000   0.99265207   -5.3073967      1728000    8344.4878       219850         1681 
43980000   0.93932655   -5.4791219      1728000    8346.4947       219900         1681 
43990000    1.0375412   -5.4847234      1728000    8348.5161       219950         1683 
44000000   0.98381661   -5.4148422      1728000     8350.536       220000         1683 
44010000    1.0116043   -5.4724977      1728000    8352.5367       220050         1683 
44020000    1.0672893    -5.347301      1728000     8354.556       220100         1683 
44030000   0.95321614   -5.4280128      1728000     8356.566       220150         1684 
44040000    1.0335362   -5.4905976      1728000    8358.5673       220200         1685 
44050000   0.99169106   -5.4240233      1728000    8360.5697       220250         1685 
44060000   0.99444034   -5.3817311      1728000    8362.6076       220300         1685 
44070000   0.93350229   -5.4602414      1728000    8364.6252       220350         1685 
44080000    1.0615836   -5.4339055      1728000    8366.6746       220400         1685 
44090000    1.0514908   -5.5557502      1728000    8368.7239       220450         1685 
44100000      1.00068   -5.5035621      1728000    8370.7643       220500         1685 
44110000   0.96669939   -5.4639222      1728000      8372.78       220550         1686 
44120000   0.97246093   -5.3834193      1728000    8374.8275       220600         1686 
44130000   0.99923474   -5.3253746      1728000     8376.856       220650         1686 
44140000   0.95569165   -5.5135692      1728000    8378.8857       220700         1686 
44150000   0.98463511   -5.4723123      1728000    8380.9044       220750         1686 
44160000    1.0552495   -5.4720806      1728000    8382.9139       220800         1686 
44170000   0.99669608   -5.4020819      1728000    8384.9039       220850         1686 
44180000    1.0036834   -5.3913766      1728000    8386.8777       220900         1686 
44190000    1.0043302   -5.3215216      1728000    8388.8888       220950         1686 
44200000   0.98746513   -5.5545308      1728000    8390.9066       221000         1686 
44210000    1.0101524   -5.3058317      1728000    8392.9901       221050         1686 
44220000   0.98471809   -5.3979948      1728000    8395.0171       221100         1687 
44230000    1.0039506   -5.3626534      1728000    8397.0251       221150         1687 
44240000    1.0471834   -5.4125932      1728000    8399.0254       221200         1687 
44250000    1.0372208   -5.3503206      1728000     8401.033       221250         1687 
44260000   0.94806608   -5.5293672      1728000    8403.0074       221300         1687 
44270000   0.96279561   -5.4304358      1728000    8405.0545       221350         1687 
44280000    1.0178185   -5.3667284      1728000     8407.083       221400         1687 
44290000   0.96461505   -5.4183842      1728000    8409.1295       221450         1687 
44300000   0.96653206     -5.35232      1728000    8411.1368       221500         1687 
44310000    1.0126122   -5.4047084      1728000    8413.1028       221550         1687 
44320000    1.0364048   -5.3117488      1728000    8415.1027       221600         1687 
44330000   0.99496289   -5.4448464      1728000    8417.0731       221650         1687 
44340000     1.018836   -5.2789604      1728000    8419.0591       221700         1687 
44350000   0.98464096    -5.481872      1728000    8421.0211       221750         1687 
44360000   0.97990124   -5.3538248      1728000    8423.0413       221800         1687 
44370000    0.9677846   -5.3636809      1728000    8425.0583       221850         1687 
44380000    1.0148144   -5.4188266      1728000    8427.0353       221900         1687 
44390000   0.91784881    -5.499373      1728000    8429.0674       221950         1688 
44400000     1.015996   -5.5017439      1728000    8431.1616       222000         1688 
44410000   0.99115049   -5.4329039      1728000    8433.1911       222050         1688 
44420000   0.94727666     -5.47145      1728000    8435.2784       222100         1688 
44430000    1.0152313   -5.4671992      1728000    8437.2861       222150         1688 
44440000   0.98892145   -5.3959507      1728000    8439.3093       222200         1688 
44450000    1.0766651   -5.4423982      1728000    8441.3211       222250         1688 
44460000    1.0112924   -5.4924902      1728000    8443.3704       222300         1688 
44470000    1.0328658   -5.3756234      1728000    8445.3943       222350         1688 
44480000    1.0427021   -5.4704603      1728000    8447.3855       222400         1690 
44490000    1.0296459   -5.4952889      1728000    8449.4064       222450         1690 
44500000    1.0732828   -5.3388131      1728000    8451.4323       222500         1690 
44510000    1.0039211   -5.4207363      1728000    8453.4267       222550         1691 
44520000    1.0705192   -5.4083309      1728000    8455.4134       222600         1691 
44530000   0.94603696    -5.321425      1728000    8457.4185       222650         1691 
44540000   0.96534143   -5.3821593      1728000    8459.4305       222700         1692 
44550000    1.0009238   -5.2981107      1728000    8461.4388       222750         1692 
44560000    1.0345025   -5.3815021      1728000    8463.4327       222800         1693 
44570000    1.0193441   -5.3911868      1728000    8465.4004       222850         1693 
44580000   0.95625046   -5.3958692      1728000    8467.3891       222900         1693 
44590000   0.99472117   -5.3030362      1728000     8469.374       222950         1693 
44600000    1.0351914   -5.4375043      1728000    8471.3807       223000         1693 
44610000   0.97615155   -5.4135084      1728000    8473.3824       223050         1693 
44620000    1.0750746   -5.4446543      1728000     8475.399       223100         1693 
44630000    1.0035305   -5.3271799      1728000    8477.3715       223150         1693 
44640000   0.99548112   -5.3950258      1728000    8479.3836       223200         1693 
44650000   0.97908821    -5.520769      1728000    8481.4145       223250         1693 
44660000    0.9818767   -5.4918474      1728000    8483.4378       223300         1694 
44670000   0.91796944     -5.20647      1728000    8485.4237       223350         1694 
44680000   0.94798005   -5.4120207      1728000    8487.4342       223400         1694 
44690000    1.0095116   -5.4599782      1728000    8489.4172       223450         1695 
44700000   0.96541116   -5.4532193      1728000    8491.4235       223500         1695 
44710000    1.0358695   -5.4713032      1728000    8493.4375       223550         1696 
44720000    1.0025077    -5.334553      1728000    8495.4375       223600         1697 
44730000   0.98471725   -5.5780539      1728000    8497.4601       223650         1697 
44740000    1.0174723   -5.3641711      1728000    8499.4899       223700         1697 
44750000     1.002346   -5.4269673      1728000    8501.4676       223750         1697 
44760000    1.0875994   -5.5535256      1728000    8503.5036       223800         1697 
44770000    1.0063454   -5.2480522      1728000    8505.5505       223850         1697 
44780000    1.0206481     -5.34702      1728000    8507.6013       223900         1698 
44790000   0.96064152    -5.384733      1728000    8509.6608       223950         1698 
44800000   0.93950913   -5.4299373      1728000    8511.7144       224000         1698 
44810000   0.96211783   -5.4783017      1728000    8513.7811       224050         1698 
44820000    1.0190946   -5.4087709      1728000    8515.8623       224100         1698 
44830000    1.0315311   -5.4514605      1728000    8517.9235       224150         1698 
44840000   0.97318408   -5.2506426      1728000    8520.0203       224200         1698 
44850000   0.99324964    -5.371842      1728000    8522.0467       224250         1698 
44860000   0.99826849   -5.4569543      1728000     8524.071       224300         1698 
44870000   0.97412565   -5.4929867      1728000    8526.0813       224350         1698 
44880000    0.9944924   -5.3874149      1728000    8528.0972       224400         1699 
44890000   0.99968449     -5.47531      1728000    8530.1213       224450         1699 
44900000    1.0027109   -5.4593574      1728000    8532.1161       224500         1699 
44910000   0.97769278   -5.3552968      1728000    8534.1051       224550         1699 
44920000    1.0033292    -5.403732      1728000    8536.1107       224600         1699 
44930000    0.9735628   -5.4993218      1728000    8538.1323       224650         1699 
44940000   0.94884318   -5.3752028      1728000    8540.1284       224700         1699 
44950000   0.97696462   -5.3177444      1728000    8542.1188       224750         1699 
44960000    1.0318784   -5.4996496      1728000    8544.1493       224800         1699 
44970000    1.0468048   -5.5127366      1728000    8546.1268       224850         1699 
44980000    1.0473234   -5.3608255      1728000    8548.0879       224900         1699 
44990000   0.95333237   -5.4560816      1728000    8550.1043       224950         1699 
45000000    1.0480095    -5.450025      1728000    8552.1091       225000         1699 
45010000    1.0135065   -5.3226801      1728000    8554.1185       225050         1700 
45020000    1.0374973   -5.3399989      1728000    8556.1429       225100         1700 
45030000   0.94522349   -5.4536586      1728000    8558.1656       225150         1700 
45040000   0.93695801   -5.3031071      1728000    8560.1893       225200         1701 
45050000    0.9997375   -5.3766483      1728000    8562.1869       225250         1701 
45060000    1.0123152   -5.3943991      1728000     8564.169       225300         1701 
45070000    1.0528662   -5.3624948      1728000    8566.1556       225350         1701 
45080000    1.0907886   -5.2711643      1728000    8568.1312       225400         1703 
45090000    1.0298466   -5.3462153      1728000    8570.1027       225450         1703 
45100000   0.99415846   -5.3588071      1728000    8572.1148       225500         1703 
45110000   0.96257544   -5.4137014      1728000    8574.0966       225550         1704 
45120000   0.94573964   -5.3864566      1728000      8576.07       225600         1704 
45130000    1.0200264   -5.4084372      1728000     8578.103       225650         1704 
45140000    1.0175714   -5.4516992      1728000    8580.1047       225700         1705 
45150000   0.95225637   -5.4090122      1728000    8582.0991       225750         1705 
45160000    1.0554141    -5.422096      1728000    8584.0762       225800         1706 
45170000   0.99630633   -5.3608712      1728000    8586.1016       225850         1707 
45180000    1.0467134   -5.3780473      1728000    8588.0978       225900         1708 
45190000   0.94428254    -5.388705      1728000     8590.064       225950         1708 
45200000    1.0160472   -5.4063964      1728000    8592.0714       226000         1708 
45210000    0.9820865   -5.4577697      1728000    8594.0877       226050         1708 
45220000    1.0204815   -5.3748259      1728000    8596.0739       226100         1709 
45230000    1.0782191   -5.5357203      1728000    8598.0772       226150         1710 
45240000    1.0240143   -5.4592862      1728000    8600.0965       226200         1710 
45250000   0.99187999    -5.387879      1728000    8602.1495       226250         1710 
45260000   0.98728293   -5.3801905      1728000    8604.1693       226300         1711 
45270000   0.94303212   -5.3172657      1728000    8606.1803       226350         1711 
45280000   0.99077532   -5.3999766      1728000    8608.2001       226400         1711 
45290000    1.0317673   -5.3415797      1728000    8610.2001       226450         1711 
45300000    1.0262352   -5.5549771      1728000     8612.215       226500         1711 
45310000   0.97643307    -5.529769      1728000    8614.2544       226550         1711 
45320000    1.0101231   -5.5211919      1728000    8616.2585       226600         1711 
45330000   0.93860877   -5.4691549      1728000     8618.278       226650         1711 
45340000    0.9964107   -5.4325263      1728000    8620.2593       226700         1711 
45350000    1.0452061    -5.415052      1728000    8622.2825       226750         1712 
45360000   0.98031425   -5.5029549      1728000    8624.2901       226800         1712 
45370000   0.97477974   -5.4551429      1728000    8626.2771       226850         1712 
45380000   0.94089078   -5.3480842      1728000    8628.2901       226900         1712 
45390000   0.99754608   -5.4110121      1728000    8630.2782       226950         1712 
45400000    1.0171659   -5.5596566      1728000    8632.3116       227000         1712 
45410000    1.0299228     -5.50967      1728000    8634.3564       227050         1713 
45420000   0.99794896   -5.3718325      1728000    8636.3853       227100         1713 
45430000     0.984609    -5.396755      1728000    8638.4264       227150         1713 
45440000    1.0383838    -5.500876      1728000    8640.4463       227200         1713 
45450000    1.0117144   -5.3436835      1728000     8642.484       227250         1713 
45460000   0.97700434   -5.3604074      1728000    8644.4672       227300         1713 
45470000    1.0085828   -5.3659468      1728000    8646.5165       227350         1714 
45480000    1.0493635   -5.4610576      1728000    8648.5391       227400         1714 
45490000    1.0938134   -5.5289139      1728000    8650.6039       227450         1714 
45500000    1.0158905   -5.4287602      1728000      8652.64       227500         1714 
45510000   0.96814962   -5.4614439      1728000    8654.6902       227550         1714 
45520000   0.94402808   -5.3778347      1728000    8656.7224       227600         1714 
45530000   0.98083999   -5.4304538      1728000    8658.7424       227650         1714 
45540000    1.0716808   -5.4819183      1728000    8660.7743       227700         1714 
45550000   0.99663435    -5.412883      1728000    8662.7911       227750         1714 
45560000   0.99877049   -5.4868648      1728000    8664.8274       227800         1714 
45570000   0.99311527   -5.4694653      1728000    8666.8127       227850         1714 
45580000   0.98440452   -5.4876219      1728000    8668.8276       227900         1714 
45590000    1.0113277   -5.3738826      1728000    8670.8449       227950         1714 
45600000    1.0172813   -5.3433784      1728000    8672.8633       228000         1715 
45610000   0.98156011   -5.4012857      1728000     8674.867       228050         1715 
45620000   0.97831959   -5.3425432      1728000    8676.8862       228100         1715 
45630000    1.0356171   -5.4998804      1728000    8678.9075       228150         1715 
45640000      1.00272   -5.4476261      1728000    8680.8938       228200         1715 
45650000   0.99756444    -5.380419      1728000    8682.8959       228250         1715 
45660000    1.0067073   -5.3189808      1728000    8684.8696       228300         1715 
45670000    1.0342809   -5.4018109      1728000    8686.8632       228350         1715 
45680000    1.0232921   -5.4316057      1728000    8688.8981       228400         1715 
45690000   0.96858219   -5.4449648      1728000     8690.911       228450         1716 
45700000   0.94437724   -5.3057655      1728000    8692.9287       228500         1716 
45710000   0.94103862   -5.5284816      1728000    8694.9207       228550         1718 
45720000   0.99929783   -5.3478552      1728000    8696.9241       228600         1718 
45730000    0.9691726   -5.3844389      1728000    8698.9581       228650         1718 
45740000    1.0059638    -5.358058      1728000    8700.9749       228700         1718 
45750000   0.96582949   -5.3284294      1728000    8702.9812       228750         1718 
45760000    1.0512036   -5.3892046      1728000    8705.0161       228800         1718 
45770000    1.0707021   -5.3856742      1728000     8707.025       228850         1718 
45780000    1.0608284   -5.4929726      1728000    8709.0122       228900         1718 
45790000   0.94048998   -5.3269536      1728000    8711.0062       228950         1718 
45800000   0.98055358   -5.4053358      1728000    8712.9851       229000         1718 
45810000    1.0402161   -5.3487139      1728000    8714.9658       229050         1719 
45820000   0.97967478   -5.3200496      1728000    8716.9466       229100         1719 
45830000    1.0077396   -5.4588704      1728000    8718.9451       229150         1719 
45840000    1.0119339   -5.5229605      1728000    8720.9318       229200         1721 
45850000    1.0517925   -5.3944713      1728000    8722.9288       229250         1722 
45860000   0.99677903    -5.392528      1728000    8724.9052       229300         1722 
45870000    1.0192244   -5.4676934      1728000    8726.8774       229350         1722 
45880000   0.98615615   -5.2440131      1728000    8728.8802       229400         1722 
45890000    1.0296827   -5.3525245      1728000    8730.8536       229450         1722 
45900000   0.93788877   -5.4393436      1728000    8732.9488       229500         1722 
45910000   0.94351925   -5.3430165      1728000      8735.15       229550         1722 
45920000   0.99121767   -5.3768449      1728000    8737.2443       229600         1722 
45930000    1.0738651   -5.2934612      1728000    8739.3091       229650         1722 
45940000    1.0199572   -5.2972363      1728000    8741.3167       229700         1722 
45950000   0.97940991   -5.3769254      1728000    8743.3107       229750         1722 
45960000    0.9963715   -5.4482724      1728000    8745.3201       229800         1722 
45970000    1.0041492   -5.3761019      1728000    8747.3222       229850         1722 
45980000   0.94862958   -5.3823504      1728000    8749.3307       229900         1722 
45990000   0.96113521   -5.3554567      1728000    8751.3204       229950         1722 
46000000     1.010026   -5.4524266      1728000     8753.366       230000         1722 
46010000    1.0739466   -5.3409909      1728000    8755.3898       230050         1722 
46020000   0.95933133   -5.4532836      1728000    8757.4261       230100         1722 
46030000   0.98551262   -5.4382218      1728000    8759.4583       230150         1722 
46040000    1.0035401   -5.3271034      1728000    8761.4772       230200         1722 
46050000   0.97892525   -5.3542466      1728000    8763.5125       230250         1722 
46060000    1.0092986   -5.4513313      1728000    8765.5348       230300         1722 
46070000   0.96557035   -5.4296031      1728000    8767.5205       230350         1722 
46080000    1.0001587   -5.4096767      1728000    8769.5082       230400         1722 
46090000    1.0668252   -5.5324751      1728000    8771.5204       230450         1722 
46100000   0.96392633   -5.3632083      1728000    8773.5139       230500         1722 
46110000    1.0012432   -5.4445204      1728000       8775.5       230550         1722 
46120000   0.98382979   -5.4055329      1728000    8777.4804       230600         1722 
46130000   0.92634663   -5.4181681      1728000    8779.5019       230650         1722 
46140000    1.0670309   -5.2932798      1728000    8781.5265       230700         1722 
46150000    1.0272667   -5.4438381      1728000     8783.548       230750         1722 
46160000   0.98142679   -5.4763604      1728000    8785.5639       230800         1722 
46170000    1.0712073   -5.3504069      1728000    8787.5818       230850         1722 
46180000   0.91397852   -5.4745839      1728000    8789.6432       230900         1722 
46190000   0.98864019   -5.5192749      1728000    8791.6642       230950         1722 
46200000    1.0190248   -5.3678113      1728000     8793.724       231000         1722 
46210000    1.0244214   -5.4422127      1728000    8795.7402       231050         1724 
46220000   0.99020139   -5.3944426      1728000     8797.784       231100         1724 
46230000     1.029991     -5.32531      1728000    8799.8207       231150         1724 
46240000    1.0223468   -5.4644054      1728000    8801.8139       231200         1724 
46250000   0.93561637   -5.4342782      1728000     8803.784       231250         1724 
46260000    1.0102235   -5.3049841      1728000    8805.7707       231300         1724 
46270000   0.97436248    -5.328955      1728000    8807.7788       231350         1724 
46280000   0.99120124   -5.3923585      1728000    8809.7607       231400         1724 
46290000    1.0049149   -5.2873168      1728000    8811.7493       231450         1725 
46300000   0.92626849   -5.3241162      1728000    8813.7293       231500         1725 
46310000    1.0204591   -5.2803643      1728000    8815.6877       231550         1725 
46320000    1.0278428   -5.3365697      1728000    8817.6742       231600         1725 
46330000   0.99501146   -5.4353232      1728000    8819.6457       231650         1725 
46340000   0.90223312   -5.2487352      1728000     8821.619       231700         1725 
46350000    1.0005472   -5.4287712      1728000    8823.6152       231750         1725 
46360000   0.96821666   -5.4084647      1728000    8825.5971       231800         1725 
46370000    1.0464965   -5.4255292      1728000    8827.5627       231850         1725 
46380000   0.99184503   -5.4333585      1728000    8829.5472       231900         1725 
46390000    1.0366405   -5.3741655      1728000    8831.5302       231950         1725 
46400000   0.94379163   -5.4668078      1728000    8833.5261       232000         1725 
46410000   0.98708517   -5.3949486      1728000    8835.5381       232050         1725 
46420000     1.055512   -5.4207051      1728000    8837.5149       232100         1726 
46430000   0.98671154   -5.3631412      1728000    8839.4848       232150         1726 
46440000   0.98747878   -5.3652667      1728000    8841.4593       232200         1727 
46450000   0.97651644   -5.2780997      1728000     8843.446       232250         1727 
46460000   0.94628287   -5.4285215      1728000    8845.4194       232300         1727 
46470000    1.0199841   -5.3631417      1728000    8847.4373       232350         1727 
46480000    1.0423313   -5.4145432      1728000    8849.4447       232400         1727 
46490000    1.0076153   -5.4182565      1728000    8851.4642       232450         1727 
46500000   0.99679435    -5.315727      1728000    8853.4719       232500         1727 
46510000    1.0298721   -5.4278494      1728000    8855.4762       232550         1727 
46520000   0.95965612   -5.4016328      1728000    8857.4659       232600         1727 
46530000   0.92891028   -5.3290472      1728000     8859.483       232650         1727 
46540000   0.97830754   -5.3438194      1728000    8861.4932       232700         1727 
46550000    1.0003523   -5.4445676      1728000    8863.5048       232750         1727 
46560000   0.99029805   -5.3279393      1728000    8865.5262       232800         1727 
46570000    1.0895897   -5.5060239      1728000    8867.5193       232850         1727 
46580000   0.94362899   -5.3458989      1728000     8869.517       232900         1728 
46590000    1.0318096   -5.3841522      1728000    8871.5029       232950         1728 
46600000    1.0046088    -5.481215      1728000    8873.5299       233000         1728 
46610000   0.96429813   -5.3453701      1728000    8875.5691       233050         1728 
46620000    1.0514634   -5.3615056      1728000    8877.5757       233100         1728 
46630000   0.99729882   -5.4102343      1728000    8879.5599       233150         1728 
46640000   0.97415061    -5.309007      1728000    8881.5647       233200         1728 
46650000   0.97510567   -5.3745627      1728000    8883.5461       233250         1730 
46660000    1.0774062   -5.4534413      1728000    8885.5797       233300         1731 
46670000    1.0624936    -5.325037      1728000    8887.5885       233350         1732 
46680000    1.0293252   -5.3220452      1728000    8889.5649       233400         1732 
46690000    1.0072827   -5.4368067      1728000    8891.5596       233450         1732 
46700000    1.0261229    -5.271952      1728000    8893.6031       233500         1733 
46710000   0.93922701   -5.4871748      1728000    8895.5882       233550         1733 
46720000   0.98470377   -5.2416855      1728000    8897.6203       233600         1734 
46730000    1.0283054   -5.3412066      1728000    8899.6427       233650         1735 
46740000    0.9748874   -5.3673192      1728000    8901.6151       233700         1735 
46750000    1.0143401   -5.4111163      1728000    8903.5878       233750         1736 
46760000   0.98452938   -5.4625287      1728000    8905.5678       233800         1736 
46770000   0.99511867   -5.4631425      1728000    8907.5272       233850         1736 
46780000    1.0567951   -5.2359514      1728000    8909.5215       233900         1736 
46790000    1.0305414   -5.4608702      1728000    8911.5271       233950         1737 
46800000    1.0001657   -5.4730381      1728000     8913.555       234000         1737 
46810000   0.93780634   -5.4051118      1728000    8915.5694       234050         1737 
46820000    1.0408212     -5.44532      1728000    8917.5737       234100         1737 
46830000    1.0360846   -5.4119448      1728000    8919.5862       234150         1737 
46840000   0.96426278   -5.4250964      1728000    8921.6005       234200         1737 
46850000    1.0489055   -5.3749774      1728000    8923.5958       234250         1738 
46860000     0.996035   -5.4201724      1728000     8925.548       234300         1738 
46870000    1.0496773   -5.3924744      1728000    8927.5613       234350         1738 
46880000    0.9819415   -5.3615818      1728000    8929.5034       234400         1738 
46890000   0.99684875   -5.2401325      1728000    8931.5017       234450         1738 
46900000   0.99745777   -5.2773021      1728000     8933.515       234500         1738 
46910000   0.96265429   -5.4092288      1728000    8935.4938       234550         1738 
46920000    1.0059025    -5.322664      1728000    8937.4997       234600         1738 
46930000     1.015251   -5.2343606      1728000    8939.5056       234650         1738 
46940000   0.96963884   -5.4351319      1728000    8941.5504       234700         1738 
46950000    1.0169844    -5.483455      1728000    8943.5677       234750         1738 
46960000   0.96276736   -5.4190493      1728000    8945.5878       234800         1738 
46970000     1.009598   -5.3234359      1728000    8947.6162       234850         1738 
46980000    1.0828749   -5.3226801      1728000    8949.6327       234900         1738 
46990000    1.0370224     -5.37974      1728000    8951.6236       234950         1740 
47000000     1.009981   -5.3247607      1728000     8953.668       235000         1740 
47010000   0.97207598   -5.2368983      1728000    8955.6719       235050         1740 
47020000    1.0237818   -5.3533878      1728000    8957.6681       235100         1741 
47030000   0.95168984    -5.385955      1728000    8959.6508       235150         1741 
47040000    1.0106818   -5.3041282      1728000    8961.6864       235200         1741 
47050000   0.99435616   -5.4107492      1728000    8963.7015       235250         1742 
47060000    1.0089332   -5.4410217      1728000    8965.6895       235300         1742 
47070000   0.96011017   -5.3293925      1728000    8967.7288       235350         1742 
47080000    1.1123419   -5.2029559      1728000    8969.7797       235400         1742 
47090000    1.0462339   -5.3216109      1728000    8971.8166       235450         1742 
47100000     1.002545   -5.2527402      1728000    8973.8606       235500         1742 
47110000    1.0824144   -5.3965531      1728000    8975.9005       235550         1742 
47120000    1.0059936   -5.4100822      1728000    8977.8968       235600         1742 
47130000   0.99552558   -5.4155299      1728000    8979.8681       235650         1743 
47140000    1.0171103   -5.3730399      1728000    8981.8423       235700         1745 
47150000   0.95430937   -5.4055984      1728000    8983.8631       235750         1745 
47160000   0.90293272   -5.3786346      1728000    8985.8225       235800         1745 
47170000   0.93325458   -5.2454686      1728000    8987.8218       235850         1745 
47180000    1.0255373   -5.3657475      1728000    8989.8409       235900         1745 
47190000     1.004045   -5.3863601      1728000    8991.8498       235950         1747 
47200000    1.0073611   -5.4552018      1728000    8993.8578       236000         1747 
47210000   0.98480183   -5.2606628      1728000    8995.8432       236050         1748 
47220000   0.98412224   -5.3566515      1728000    8997.8418       236100         1748 
47230000   0.97057321   -5.4461982      1728000    8999.8345       236150         1748 
47240000     0.997634   -5.3123366      1728000    9001.8529       236200         1748 
47250000   0.95385349   -5.3483371      1728000    9003.8568       236250         1748 
47260000    0.9808279    -5.421235      1728000    9005.8928       236300         1748 
47270000   0.97519983   -5.3373381      1728000     9007.894       236350         1749 
47280000      1.00038   -5.3354814      1728000    9009.8876       236400         1749 
47290000    1.0696871   -5.3559919      1728000    9011.8812       236450         1749 
47300000   0.98334122   -5.3934062      1728000     9013.909       236500         1751 
47310000    1.0497809   -5.4849651      1728000    9015.9306       236550         1751 
47320000    1.0479742   -5.3845317      1728000    9017.9124       236600         1751 
47330000   0.92494306   -5.3887843      1728000    9019.9297       236650         1751 
47340000    1.0024135   -5.5407838      1728000    9021.9176       236700         1751 
47350000   0.96064388    -5.439459      1728000     9023.939       236750         1751 
47360000    1.0362859   -5.3720733      1728000    9025.9174       236800         1751 
47370000    1.0105732   -5.3446714      1728000    9027.9373       236850         1751 
47380000   0.98069827   -5.4580336      1728000    9029.9155       236900         1751 
47390000    1.0210524   -5.3471466      1728000    9031.9279       236950         1752 
47400000    0.9593449   -5.3195934      1728000    9033.9357       237000         1752 
47410000    1.0292513   -5.3887661      1728000    9035.9274       237050         1752 
47420000    1.0375384    -5.376544      1728000    9037.9494       237100         1752 
47430000   0.94184947   -5.4249413      1728000    9039.9518       237150         1752 
47440000   0.93447899   -5.3913242      1728000    9041.9771       237200         1752 
47450000    1.0575267   -5.5555284      1728000    9043.9778       237250         1752 
47460000    1.0357233   -5.4141562      1728000    9046.0059       237300         1752 
47470000    1.0389346   -5.4265572      1728000    9048.0402       237350         1752 
47480000   0.97219296   -5.3998789      1728000    9050.0316       237400         1752 
47490000   0.94228941   -5.4062059      1728000    9052.0781       237450         1752 
47500000    1.0183885   -5.4781509      1728000    9054.1267       237500         1752 
47510000    1.0474062   -5.3546476      1728000    9056.1827       237550         1752 
47520000   0.99236716   -5.4203524      1728000    9058.1867       237600         1752 
47530000    0.9674833   -5.4360146      1728000    9060.2516       237650         1752 
47540000     1.047817   -5.2849035      1728000    9062.2819       237700         1752 
47550000   0.99089118   -5.4202726      1728000    9064.3019       237750         1753 
47560000   0.95173401   -5.4153156      1728000    9066.2834       237800         1753 
47570000     1.037237   -5.4176285      1728000     9068.308       237850         1753 
47580000    1.0087797   -5.3160339      1728000    9070.3177       237900         1753 
47590000   0.95835441    -5.448295      1728000    9072.3531       237950         1753 
47600000   0.96661837   -5.3233102      1728000    9074.4268       238000         1753 
47610000    1.0164682    -5.468597      1728000    9076.4713       238050         1753 
47620000    1.0716089   -5.2929896      1728000    9078.4762       238100         1753 
47630000   0.97790087   -5.3384953      1728000    9080.4737       238150         1753 
47640000    1.0133295    -5.368763      1728000    9082.4953       238200         1753 
47650000   0.99658122   -5.4188099      1728000    9084.5524       238250         1753 
47660000   0.97898497   -5.3854828      1728000    9086.5643       238300         1753 
47670000     1.072682   -5.2630758      1728000    9088.6273       238350         1753 
47680000    1.0261817   -5.4549087      1728000    9090.6406       238400         1753 
47690000    1.0187107     -5.40406      1728000    9092.6695       238450         1753 
47700000    1.0338957   -5.2511881      1728000    9094.7414       238500         1753 
47710000    1.0543373   -5.3842039      1728000    9096.7586       238550         1753 
47720000    0.9936402   -5.4791754      1728000    9098.7798       238600         1753 
47730000   0.98362451   -5.3856801      1728000    9100.8137       238650         1754 
47740000    1.0718694   -5.4137792      1728000    9102.8609       238700         1755 
47750000   0.97671076   -5.2915304      1728000    9104.8989       238750         1755 
47760000    1.0292736   -5.3385538      1728000     9106.921       238800         1755 
47770000   0.97706215   -5.3856575      1728000    9108.9085       238850         1755 
47780000   0.98153329   -5.4162119      1728000    9110.8916       238900         1755 
47790000    1.0773264   -5.3768187      1728000    9112.9245       238950         1755 
47800000   0.99098309   -5.4320633      1728000    9114.9823       239000         1755 
47810000   0.99962563   -5.4655032      1728000    9117.0176       239050         1755 
47820000    1.0195175   -5.3382171      1728000    9119.0346       239100         1755 
47830000   0.99034773   -5.4458708      1728000    9121.0587       239150         1755 
47840000   0.97446963   -5.3283886      1728000    9123.1379       239200         1755 
47850000   0.97949614   -5.3415477      1728000    9125.1936       239250         1755 
47860000   0.95313103    -5.383336      1728000    9127.2844       239300         1755 
47870000   0.96424262   -5.4164943      1728000    9129.3315       239350         1755 
47880000   0.93417416   -5.3348964      1728000    9131.3865       239400         1755 
47890000   0.95499756   -5.3695102      1728000    9133.3565       239450         1755 
47900000    1.0404073   -5.4897966      1728000    9135.3549       239500         1755 
47910000   0.98395361   -5.4597488      1728000    9137.4176       239550         1755 
47920000    1.0328006   -5.3841312      1728000    9139.4647       239600         1755 
47930000   0.97784179   -5.3055102      1728000    9141.5015       239650         1755 
47940000   0.97946653   -5.4739116      1728000    9143.5557       239700         1755 
47950000    1.0031992   -5.4004775      1728000    9145.5734       239750         1755 
47960000    1.0063968   -5.3030271      1728000    9147.6018       239800         1755 
47970000    1.0536999   -5.4467983      1728000    9149.6489       239850         1755 
47980000   0.99249433   -5.4249766      1728000    9151.7143       239900         1755 
47990000    1.0320177   -5.2827295      1728000    9153.7497       239950         1755 
48000000   0.97106671   -5.3552009      1728000    9155.7692       240000         1755 
48010000   0.96417152    -5.414421      1728000    9157.8147       240050         1755 
48020000    1.0225809   -5.3776426      1728000    9159.8659       240100         1756 
48030000   0.97446567   -5.3329087      1728000     9161.882       240150         1756 
48040000    1.0447181   -5.2691886      1728000    9163.9294       240200         1757 
48050000    1.0310858   -5.3328455      1728000    9165.9137       240250         1757 
48060000    1.0074172   -5.4259299      1728000    9167.9192       240300         1757 
48070000    1.0596979   -5.3720764      1728000    9169.9523       240350         1757 
48080000    1.0156033   -5.2893797      1728000    9171.9153       240400         1757 
48090000   0.97796136   -5.3802068      1728000    9173.9034       240450         1757 
48100000    1.0552648   -5.3972411      1728000    9175.9088       240500         1757 
48110000    1.0814906    -5.439677      1728000    9177.9355       240550         1757 
48120000    1.0165284   -5.3697223      1728000    9179.9609       240600         1757 
48130000   0.97549121   -5.3712146      1728000    9182.0001       240650         1757 
48140000    1.0540335   -5.4478225      1728000    9184.0225       240700         1757 
48150000   0.95821092   -5.3413692      1728000    9186.0864       240750         1757 
48160000   0.95612799   -5.4185294      1728000    9188.0916       240800         1757 
48170000    1.0068123   -5.4688595      1728000    9190.0853       240850         1757 
48180000   0.97232642   -5.3638737      1728000    9192.0846       240900         1759 
48190000   0.98834429   -5.5742551      1728000    9194.1441       240950         1759 
48200000   0.97841193   -5.2609936      1728000    9196.1928       241000         1759 
48210000   0.98173381   -5.4391856      1728000    9198.2182       241050         1759 
48220000   0.97539488   -5.3613858      1728000    9200.2726       241100         1760 
48230000   0.99530363   -5.3694086      1728000    9202.3141       241150         1762 
48240000   0.97272101   -5.3411186      1728000    9204.3199       241200         1762 
48250000   0.96838497    -5.356185      1728000    9206.3432       241250         1762 
48260000    1.0327844   -5.3911146      1728000    9208.3581       241300         1764 
48270000    1.0339724   -5.3247302      1728000    9210.4003       241350         1764 
48280000    1.0605972   -5.3348339      1728000     9212.444       241400         1764 
48290000   0.94395481   -5.3740345      1728000     9214.447       241450         1764 
48300000   0.95592092   -5.3730526      1728000    9216.4435       241500         1765 
48310000   0.99485978   -5.5985819      1728000      9218.46       241550         1765 
48320000   0.98101145   -5.4548878      1728000    9220.4579       241600         1765 
48330000    1.0103597   -5.4669517      1728000    9222.4557       241650         1765 
48340000   0.92004183   -5.4068648      1728000    9224.4842       241700         1765 
48350000    1.0136092   -5.2833033      1728000    9226.5091       241750         1766 
48360000   0.99934169   -5.3891496      1728000    9228.5412       241800         1766 
48370000    1.0246081   -5.4355851      1728000    9230.5064       241850         1766 
48380000   0.99849746   -5.4213652      1728000    9232.4666       241900         1766 
48390000   0.97424786     -5.32395      1728000    9234.4653       241950         1766 
48400000    1.0314038   -5.2885213      1728000    9236.4298       242000         1766 
48410000    1.0358545    -5.362088      1728000    9238.4022       242050         1766 
48420000    1.0517734   -5.3646931      1728000    9240.4047       242100         1766 
48430000    1.0673817   -5.4527403      1728000    9242.4094       242150         1767 
48440000    1.0550128   -5.3886077      1728000     9244.453       242200         1767 
48450000    1.0074246   -5.3750116      1728000    9246.4874       242250         1767 
48460000    1.0690534   -5.4548361      1728000    9248.5206       242300         1767 
48470000   0.95472365   -5.4088806      1728000    9250.5569       242350         1767 
48480000    1.0383515   -5.4508973      1728000     9252.595       242400         1768 
48490000     1.026888   -5.2699312      1728000    9254.6719       242450         1768 
48500000    1.0134685   -5.2777082      1728000    9256.7143       242500         1768 
48510000   0.98346757   -5.4082458      1728000    9258.7945       242550         1768 
48520000   0.98091641   -5.3196893      1728000    9260.8295       242600         1768 
48530000    1.0228729   -5.3162265      1728000    9262.8626       242650         1768 
48540000    1.0094677   -5.4816158      1728000    9264.8937       242700         1768 
48550000    1.0038845   -5.4963818      1728000    9266.8699       242750         1768 
48560000   0.96431192   -5.3851272      1728000    9268.8506       242800         1768 
48570000    1.0066243   -5.4168403      1728000    9270.8258       242850         1768 
48580000    1.0295375   -5.3337663      1728000    9272.7982       242900         1768 
48590000    1.0193992   -5.2574274      1728000    9274.7576       242950         1768 
48600000    1.0307747   -5.4562632      1728000    9276.7404       243000         1768 
48610000    1.0714956   -5.3493313      1728000    9278.7713       243050         1768 
48620000   0.89455523   -5.3703554      1728000    9280.7688       243100         1768 
48630000    1.0399852   -5.3477988      1728000    9282.7546       243150         1768 
48640000   0.98156515   -5.3495738      1728000    9284.7766       243200         1768 
48650000   0.95844006   -5.3315946      1728000    9286.8102       243250         1769 
48660000     1.005135   -5.3254882      1728000    9288.8031       243300         1769 
48670000     1.015357   -5.2865191      1728000    9290.7962       243350         1769 
48680000     1.006959    -5.245448      1728000    9292.7664       243400         1770 
48690000   0.95373951   -5.5451708      1728000    9294.7512       243450         1770 
48700000   0.96806774   -5.3226893      1728000      9296.73       243500         1770 
48710000    1.0058921   -5.4291284      1728000     9298.737       243550         1770 
48720000   0.98069346   -5.2959766      1728000    9300.7612       243600         1770 
48730000     1.035933   -5.3916564      1728000     9302.764       243650         1770 
48740000    1.0514579   -5.5247031      1728000    9304.7817       243700         1770 
48750000    1.0068516   -5.3364373      1728000    9306.8201       243750         1771 
48760000   0.99801735   -5.3745962      1728000     9308.852       243800         1771 
48770000    1.0367797   -5.4113116      1728000    9310.8554       243850         1771 
48780000   0.92797979   -5.4768935      1728000    9312.9063       243900         1771 
48790000    1.0481465   -5.3618708      1728000     9314.928       243950         1771 
48800000   0.99723229   -5.2353944      1728000    9316.9482       244000         1771 
48810000    1.0428191   -5.4255369      1728000    9319.0207       244050         1771 
48820000     1.000877   -5.4349036      1728000     9321.014       244100         1772 
48830000    1.0206277   -5.4099824      1728000    9323.0071       244150         1772 
48840000   0.99712607   -5.3743985      1728000    9325.0126       244200         1772 
48850000    1.0554336   -5.3124213      1728000    9327.0052       244250         1773 
48860000    1.0270503   -5.4568801      1728000    9329.0149       244300         1773 
48870000   0.99886613   -5.3398109      1728000    9331.0064       244350         1775 
48880000    1.0314308   -5.3051949      1728000    9333.0821       244400         1775 
48890000    1.0285401   -5.3117684      1728000    9335.2911       244450         1776 
48900000     1.028219   -5.4570615      1728000    9337.4293       244500         1778 
48910000   0.95939107   -5.4150233      1728000    9339.5811       244550         1778 
48920000   0.99229678   -5.3283467      1728000    9341.6295       244600         1778 
48930000   0.97754224   -5.3824392      1728000    9343.6305       244650         1778 
48940000   0.98615055   -5.3303515      1728000    9345.6046       244700         1778 
48950000    1.1098949   -5.4520411      1728000    9347.7215       244750         1778 
48960000    1.0009153   -5.2563267      1728000    9349.8392       244800         1778 
48970000    1.0311658   -5.4269614      1728000    9351.9199       244850         1779 
48980000    1.0166907    -5.356609      1728000    9353.9919       244900         1779 
48990000   0.97578236   -5.5287414      1728000    9356.0301       244950         1779 
49000000    1.0038877   -5.2573547      1728000    9358.0584       245000         1779 
49010000   0.97769809   -5.4488735      1728000    9360.0546       245050         1780 
49020000   0.95270402   -5.3341361      1728000    9362.0726       245100         1780 
49030000   0.99666403   -5.1861748      1728000    9364.1566       245150         1780 
49040000    1.0984239   -5.4043467      1728000    9366.1436       245200         1780 
49050000   0.99395952    -5.569773      1728000    9368.1579       245250         1780 
49060000    1.0190152   -5.4473509      1728000    9370.1615       245300         1780 
49070000     1.028592   -5.3689343      1728000     9372.178       245350         1780 
49080000    1.0465625   -5.3936015      1728000    9374.2313       245400         1781 
49090000   0.95955423   -5.4430687      1728000    9376.2636       245450         1781 
49100000   0.97278637   -5.4229494      1728000    9378.3081       245500         1782 
49110000    1.0185749    -5.292661      1728000    9380.3003       245550         1782 
49120000    1.0203377   -5.3322335      1728000    9382.3181       245600         1783 
49130000   0.98378266   -5.3796317      1728000    9384.3493       245650         1783 
49140000    1.0011291   -5.4049599      1728000    9386.3585       245700         1783 
49150000    1.0103115   -5.4801237      1728000    9388.3879       245750         1783 
49160000   0.97171546   -5.3870892      1728000     9390.417       245800         1783 
49170000   0.98896583   -5.3930196      1728000    9392.4328       245850         1783 
49180000    1.0067386   -5.3616179      1728000    9394.4613       245900         1783 
49190000    1.0473865   -5.3647753      1728000     9396.504       245950         1783 
49200000   0.94152306   -5.4260379      1728000    9398.5125       246000         1783 
49210000    1.0083394   -5.4210533      1728000    9400.5235       246050         1784 
49220000    1.0201653   -5.5015589      1728000    9402.5281       246100         1784 
49230000    1.0569744    -5.504762      1728000    9404.5178       246150         1784 
49240000   0.95984871    -5.462892      1728000    9406.4995       246200         1784 
49250000   0.93640989   -5.4591397      1728000    9408.4758       246250         1784 
49260000    1.0099409      -5.4395      1728000    9410.4521       246300         1784 
49270000   0.98045011   -5.3382216      1728000    9412.4128       246350         1784 
49280000    1.0896082   -5.4067707      1728000    9414.3834       246400         1784 
49290000    1.0086153   -5.4747622      1728000    9416.3665       246450         1784 
49300000   0.97663469   -5.4543674      1728000    9418.3759       246500         1784 
49310000     1.021173   -5.3022172      1728000    9420.3827       246550         1784 
49320000    1.0010377   -5.3800842      1728000    9422.4382       246600         1784 
49330000    1.0059683   -5.4222447      1728000      9424.47       246650         1784 
49340000    1.0217037     -5.56013      1728000    9426.5244       246700         1784 
49350000    1.0732755    -5.409844      1728000    9428.5754       246750         1784 
49360000   0.98575991   -5.5161983      1728000    9430.6281       246800         1784 
49370000    1.0079567    -5.426488      1728000    9432.6681       246850         1784 
49380000   0.99740499    -5.512211      1728000    9434.7065       246900         1784 
49390000   0.97603462   -5.4724339      1728000    9436.7162       246950         1784 
49400000   0.98770015    -5.335092      1728000    9438.7711       247000         1784 
49410000    1.0165495    -5.487236      1728000    9440.8459       247050         1784 
49420000    1.0404051   -5.3979436      1728000    9442.9331       247100         1784 
49430000    1.0141797   -5.3132181      1728000    9444.9793       247150         1784 
49440000    1.0306957   -5.3776546      1728000     9447.025       247200         1784 
49450000   0.95641122   -5.4706015      1728000     9449.103       247250         1784 
49460000   0.95167803    -5.359711      1728000     9451.167       247300         1784 
49470000    1.0865238   -5.4643984      1728000    9453.2172       247350         1784 
49480000   0.97292251   -5.3166843      1728000    9455.2839       247400         1784 
49490000    1.0576893   -5.3581556      1728000    9457.3248       247450         1784 
49500000   0.98234243   -5.3369966      1728000    9459.3984       247500         1784 
49510000    1.0284172   -5.3188056      1728000    9461.4606       247550         1784 
49520000    1.0159016   -5.3960532      1728000    9463.4989       247600         1784 
49530000    0.9796594   -5.3906754      1728000    9465.5618       247650         1784 
49540000    1.0373118   -5.3943887      1728000    9467.6102       247700         1784 
49550000    1.0394126   -5.4813761      1728000    9469.7159       247750         1784 
49560000   0.96842065   -5.4156671      1728000    9471.8079       247800         1784 
49570000    1.0207763   -5.3113983      1728000    9473.8898       247850         1784 
49580000   0.95696071   -5.5008734      1728000    9475.9285       247900         1784 
49590000   0.98425181   -5.3428152      1728000    9477.9847       247950         1784 
49600000    1.0590499   -5.3443247      1728000    9480.0276       248000         1784 
49610000    1.0437577   -5.4615112      1728000    9482.0463       248050         1784 
49620000    1.0319234   -5.4202241      1728000    9484.0984       248100         1784 
49630000    1.0473904   -5.4722617      1728000    9486.1254       248150         1784 
49640000   0.97443001   -5.3500674      1728000    9488.2017       248200         1784 
49650000    1.0442845   -5.4500582      1728000    9490.3338       248250         1784 
49660000    1.0146486   -5.4110344      1728000    9492.4244       248300         1784 
49670000    1.0391839   -5.4252276      1728000     9494.509       248350         1784 
49680000     1.014892   -5.3822102      1728000    9496.5716       248400         1784 
49690000     1.013896   -5.5084467      1728000    9498.6369       248450         1784 
49700000    1.0279092   -5.4775964      1728000    9500.7472       248500         1784 
49710000   0.95439693   -5.4552113      1728000    9502.8104       248550         1784 
49720000   0.99227829   -5.4014781      1728000    9504.8664       248600         1784 
49730000    0.9855887    -5.382058      1728000    9506.9498       248650         1784 
49740000    1.0163493   -5.3854509      1728000     9509.049       248700         1784 
49750000   0.97643318    -5.274615      1728000    9511.1341       248750         1784 
49760000    1.0416596   -5.2963688      1728000    9513.2123       248800         1784 
49770000   0.94816244   -5.4364633      1728000    9515.2612       248850         1785 
49780000     1.055358   -5.4680262      1728000    9517.3061       248900         1785 
49790000   0.97982073   -5.3993008      1728000    9519.3416       248950         1786 
49800000    0.9613698   -5.4624729      1728000    9521.3547       249000         1786 
49810000    1.0669668   -5.4406236      1728000    9523.4093       249050         1786 
49820000   0.97060426   -5.4036339      1728000    9525.5368       249100         1786 
49830000   0.97863721    -5.382894      1728000    9527.6589       249150         1786 
49840000    1.0429923   -5.3371188      1728000    9529.7057       249200         1786 
49850000   0.93780209   -5.2663643      1728000    9531.7073       249250         1786 
49860000    1.0153498   -5.4600989      1728000     9533.747       249300         1786 
49870000    1.0356167   -5.4617161      1728000    9535.8176       249350         1786 
49880000   0.98919504    -5.490403      1728000    9537.8991       249400         1786 
49890000    1.0422484   -5.4726461      1728000    9539.9428       249450         1786 
49900000    1.0329064   -5.3821294      1728000    9542.0217       249500         1786 
49910000   0.95214276   -5.3658059      1728000    9544.1049       249550         1786 
49920000    1.0819275   -5.3567163      1728000    9546.1477       249600         1786 
49930000    1.0136162    -5.540693      1728000    9548.2007       249650         1786 
49940000   0.98239473   -5.5009879      1728000    9550.2564       249700         1786 
49950000    1.0037499   -5.3505138      1728000    9552.3027       249750         1786 
49960000   0.98587866   -5.4159909      1728000    9554.3828       249800         1786 
49970000   0.97564373   -5.4934032      1728000    9556.4613       249850         1786 
49980000    1.0161935   -5.3690856      1728000    9558.5879       249900         1786 
49990000    1.0061464    -5.336435      1728000    9560.6649       249950         1786 
50000000    1.0916458   -5.5668604      1728000     9562.762       250000         1786 
Loop time of 9562.76 on 1 procs for 50000000 steps with 500 atoms

Performance: 4517522.357 tau/day, 5228.614 timesteps/s
99.5% CPU use with 1 MPI tasks x 1 OpenMP threads

MPI task timing breakdown:
Section |  min time  |  avg time  |  max time  |%varavg| %total
---------------------------------------------------------------
Pair    | 5156.1     | 5156.1     | 5156.1     |   0.0 | 53.92
Bond    | 1067.3     | 1067.3     | 1067.3     |   0.0 | 11.16
Neigh   | 1490.3     | 1490.3     | 1490.3     |   0.0 | 15.58
Comm    | 33.02      | 33.02      | 33.02      |   0.0 |  0.35
Output  | 15.947     | 15.947     | 15.947     |   0.0 |  0.17
Modify  | 1741.2     | 1741.2     | 1741.2     |   0.0 | 18.21
Other   |            | 58.98      |            |       |  0.62

Nlocal:    500 ave 500 max 500 min
Histogram: 1 0 0 0 0 0 0 0 0 0
Nghost:    0 ave 0 max 0 min
Histogram: 1 0 0 0 0 0 0 0 0 0
Neighs:    16661 ave 16661 max 16661 min
Histogram: 1 0 0 0 0 0 0 0 0 0

Total # of neighbors = 16661
Ave neighs/atom = 33.322
Ave special neighs/atom = 5.976
Neighbor list builds = 2394496
Dangerous builds = 0

################
## ULOOP    ####
################
clear
OMP_NUM_THREADS environment is not set. Defaulting to 1 thread. (../comm.cpp:87)
  using 1 OpenMP thread(s) per MPI task
variable rname delete
variable simname delete
variable folder delete
variable seed delete
variable E delete
variable RW delete
variable SimOutType delete
variable SimInType delete
variable jn delete
variable jf delete

next jbn
Increment via next: value 2 on partition 0
jump SELF #last line!!!

### If e.g. I run this on 10 partitions of 1 processor,
### and initialise the variable with 'uloop N'
### it will run 10 simulations with 'jobnumber' taking
### values 1-10. Then when a particular simulation finishes, the
### script will be run again with the next value of jobnumber,
### until N simulations have been run.
## SO ULOOP IS "SERIAL" BUT FOR SURE 10x1 PROCs ARE ALWAYS BUSY
Total wall time: 2:39:33
