LAMMPS (1 Feb 2019)
OMP_NUM_THREADS environment is not set. Defaulting to 1 thread. (../comm.cpp:87)
  using 1 OpenMP thread(s) per MPI task
####################################
####	ULOOP			####
####################################
variable jbn uloop 1  # run n simulations
variable startfrom equal 0
variable jn equal ${jbn}+${startfrom}
variable jn equal 1+${startfrom}
variable jn equal 1+0
print ${jn}
print 1
1
variable seed equal (${jn}+4)*51-2*${jbn}
variable seed equal (1+4)*51-2*${jbn}
variable seed equal (1+4)*51-2*1
variable seedr equal (${jn}+2)*22
variable seedr equal (1+2)*22

#
variable N equal 2000
timestep 0.01
variable Dt equal 100000
variable Temp equal 1.0
variable Norm equal 0.88585294441338
if "${jn} <= 2" then "variable E equal 1.3"
variable E equal 1.3
if "${jn} > 2 && ${jn} <= 4" then "variable E equal 1.5"
if "${jn} > 4 && ${jn} <= 6" then "variable E equal 2.0"
if "${jn} > 6 && ${jn} <= 8" then "variable E equal 2.5"
if "${jn} > 8 && ${jn} <= 10" then "variable E equal 3.0"
if "${jn} > 10 && ${jn} <= 12" then "variable E equal 3.5"
if "${jn} > 12 && ${jn} <= 14" then "variable E equal 4.0"
if "${jn} > 14 && ${jn} <= 16" then "variable E equal 4.5"
if "${jn} > 16 && ${jn} <= 18" then "variable E equal 5.0"

#
####################################
####	DEFINTIONS 	########
####################################
#
variable N equal 500
variable folder index RW_Dt${Dt}_E${E}
variable folder index RW_Dt100000_E${E}
variable folder index RW_Dt100000_E1.3
shell mkdir ${folder}
shell mkdir RW_Dt100000_E1.3
variable SimOutType index RW${jn}Dt${Dt}E${E}
variable SimOutType index RW1Dt${Dt}E${E}
variable SimOutType index RW1Dt100000E${E}
variable SimOutType index RW1Dt100000E1.3
variable rname index INIT/Poly.N${N}.dat
variable rname index INIT/Poly.N500.dat
variable simname index Poly.N${N}.${SimOutType}
variable simname index Poly.N500.${SimOutType}
variable simname index Poly.N500.RW1Dt100000E1.3
#
units lj
atom_style angle
boundary        p p p
neighbor 1.3 bin
neigh_modify every 5 delay 5 check yes
#
restart 1000000 ${folder}/Restart.neutr.${simname}.
restart 1000000 RW_Dt100000_E1.3/Restart.neutr.${simname}.
restart 1000000 RW_Dt100000_E1.3/Restart.neutr.Poly.N500.RW1Dt100000E1.3.
print ${rname}
print INIT/Poly.N500.dat
INIT/Poly.N500.dat
read_data ${rname}
read_data INIT/Poly.N500.dat
  orthogonal box = (-50 -50 -50) to (50 50 50)
  1 by 1 by 1 MPI processor grid
  reading atoms ...
  500 atoms
  scanning bonds ...
  1 = max bonds/atom
  scanning angles ...
  1 = max angles/atom
  reading bonds ...
  499 bonds
  reading angles ...
  498 angles
  2 = max # of 1-2 neighbors
  2 = max # of 1-3 neighbors
  4 = max # of 1-4 neighbors
  6 = max # of special neighbors

####################################
####	GROUPS	             #######
####################################
group blue type 1
500 atoms in group blue
group red type 2
0 atoms in group red
group grey type 3
0 atoms in group grey

change_box all x final -60 60 y final -60 60 z final -60 60 boundary f f f units box
  orthogonal box = (-60 -50 -50) to (60 50 50)
  orthogonal box = (-60 -60 -50) to (60 60 50)
  orthogonal box = (-60 -60 -60) to (60 60 60)

####################################
####	ANGLE	             #######
####################################
angle_style   cosine
angle_coeff  1 3.0  #20 sigma for realistic DNA (1 bead = 2.5 nm)

####################################
####	PAIRS	             #######
####################################
pair_style  soft 2.5
pair_modify     shift yes
pair_coeff      * * 20 1.12246152962189

variable prefactor equal ramp(0,50)
fix pushapart all adapt 1 pair soft a * * v_prefactor

####################################
####	FENE	             #######
####################################
bond_style   fene
special_bonds fene#<=== I M P O R T A N T (new command)
  2 = max # of 1-2 neighbors
  6 = max # of special neighbors
bond_coeff   1  30.0   1.6  1.0  1.0

####################################
####	FIXES	             #######
####################################
fix 1 all   nve
fix 2 all  langevin   1.0 1.0   1.0   ${seed}
fix 2 all  langevin   1.0 1.0   1.0   253

####################################
####	WALL	             #######
####################################
fix WALL all wall/lj126 xhi EDGE 1.0 1.0 1.122462048 xlo EDGE 1.0 1.0 1.122462048 yhi EDGE 1.0 1.0 1.122462048 ylo EDGE 1.0 1.0 1.122462048 zhi EDGE 1.0 1.0 1.122462048 zlo EDGE 1.0 1.0 1.122462048 units box

####################################
####	RESET TIME             #######
####################################
reset_timestep 0

####################################
####	SWAP - ATOMS         #######
####################################
##HERE I USE fix atom/swap to attempt an atom swap between types
## In theory, I don't need to do a loop as the fix does it every
## N timesteps
##FIRST Dt IS NOT SWAPPING ANYWAY!
group Polymer type 1 2 3
500 atoms in group Polymer
fix Aswap Polymer atom/swap ${Dt} ${N} ${seed} ${Temp} semi-grand yes types 1 2 3 mu 0.0 0.0 0.0
fix Aswap Polymer atom/swap 100000 ${N} ${seed} ${Temp} semi-grand yes types 1 2 3 mu 0.0 0.0 0.0
fix Aswap Polymer atom/swap 100000 500 ${seed} ${Temp} semi-grand yes types 1 2 3 mu 0.0 0.0 0.0
fix Aswap Polymer atom/swap 100000 500 253 ${Temp} semi-grand yes types 1 2 3 mu 0.0 0.0 0.0
fix Aswap Polymer atom/swap 100000 500 253 1 semi-grand yes types 1 2 3 mu 0.0 0.0 0.0
variable Swaps equal f_Aswap[2]/1.0
variable Attempts equal f_Aswap[1]/1.0

####################################
####    THERMO AND INTEGRATION
####################################
timestep 0.01
thermo 10000
thermo_style   custom   step  temp  epair vol cpu v_Attempts v_Swaps

####################################
####	EQUILIBRATION        #######
####################################
#THIS IS TO TEST
#PUT LARGER NUMBER WHEN DOING ACTUAL SIMULATIONS
run 100000
Neighbor list info ...
  update every 5 steps, delay 5 steps, check yes
  max neighbors/atom: 2000, page size: 100000
  master list distance cutoff = 2.42246
  ghost atom cutoff = 2.42246
  binsize = 1.21123, bins = 100 100 100
  1 neighbor lists, perpetual/occasional/extra = 1 0 0
  (1) pair soft, perpetual
      attributes: half, newton on
      pair build: half/bin/newton
      stencil: half/bin/3d/newton
      bin: standard
Per MPI rank memory allocation (min/avg/max) = 9.234 | 9.234 | 9.234 Mbytes
Step Temp E_pair Volume CPU v_Attempts v_Swaps 
       0            0            0      1728000            0            0            0 
   10000    1.0294079 0.0064934185      1728000     1.180871          500          500 
   20000    0.9987672   0.01265543      1728000    2.2045979          500          500 
   30000    1.0377049 0.0053002516      1728000    3.2138898          500          500 
   40000   0.96298537   0.00420477      1728000    4.1778889          500          500 
   50000   0.95514074 4.5880284e-05      1728000    5.1284449          500          500 
   60000   0.97827728 4.9670865e-05      1728000    6.1017709          500          500 
   70000   0.96772811 0.00068691548      1728000    7.0618229          500          500 
   80000    1.0272917 0.0015087736      1728000    7.9881868          500          500 
   90000    1.0539828 0.0015163033      1728000     8.945904          500          500 
  100000   0.98519253 0.0023363482      1728000    9.8698449          500          500 
Loop time of 9.87184 on 1 procs for 100000 steps with 500 atoms

Performance: 8752166.091 tau/day, 10129.822 timesteps/s
99.7% CPU use with 1 MPI tasks x 1 OpenMP threads

MPI task timing breakdown:
Section |  min time  |  avg time  |  max time  |%varavg| %total
---------------------------------------------------------------
Pair    | 0.65251    | 0.65251    | 0.65251    |   0.0 |  6.61
Bond    | 2.7302     | 2.7302     | 2.7302     |   0.0 | 27.66
Neigh   | 3.2095     | 3.2095     | 3.2095     |   0.0 | 32.51
Comm    | 0.14573    | 0.14573    | 0.14573    |   0.0 |  1.48
Output  | 0.020964   | 0.020964   | 0.020964   |   0.0 |  0.21
Modify  | 2.9699     | 2.9699     | 2.9699     |   0.0 | 30.08
Other   |            | 0.143      |            |       |  1.45

Nlocal:    500 ave 500 max 500 min
Histogram: 1 0 0 0 0 0 0 0 0 0
Nghost:    0 ave 0 max 0 min
Histogram: 1 0 0 0 0 0 0 0 0 0
Neighs:    847 ave 847 max 847 min
Histogram: 1 0 0 0 0 0 0 0 0 0

Total # of neighbors = 847
Ave neighs/atom = 1.694
Ave special neighs/atom = 1.996
Neighbor list builds = 4475
Dangerous builds = 0


unfix pushapart
unfix Aswap
reset_timestep 0

#######################################################
####	PAIRS -- REPULSIVE + REDS FERROMAGN 	#######
#######################################################
#ENERGYSCALE
variable Et equal ${E}/${Norm}
variable Et equal 1.3/${Norm}
variable Et equal 1.3/0.88585294441338

pair_style  lj/cut 1.8
pair_modify     shift yes
pair_coeff      * *  1.0 1.0 1.12246152962189

pair_coeff      1 1  ${Et} 1.0 1.8
pair_coeff      1 1  1.46751219623802 1.0 1.8
pair_coeff      1 2  1.0 1.0 1.12246152962189
pair_coeff      1 3  1.0 1.0 1.12246152962189

pair_coeff      2 2  ${Et} 1.0 1.8
pair_coeff      2 2  1.46751219623802 1.0 1.8
pair_coeff      2 3  1.0 1.0 1.12246152962189

pair_coeff      3 3  1.0 1.0 1.12246152962189
#######################################################


########################
## PER PRIMI VICINI   ##
########################
bond_style harmonic
special_bonds lj 1 1 1
  2 = max # of 1-2 neighbors
  2 = max # of 1-3 neighbors
  4 = max # of 1-4 neighbors
  6 = max # of special neighbors
bond_coeff 1 200 1.12246
#bond_style fene
#special_bonds fene
#bond_coeff 1 30 1.6 1.0 1.0

########################
## RECOLOR #############
########################
group Polymer type 1 2 3
500 atoms in group Polymer
variable smooth equal 10
variable dtsmooth equal ${Dt}/${smooth}
variable dtsmooth equal 100000/${smooth}
variable dtsmooth equal 100000/10
variable Nsmooth equal ${N}/${smooth}
variable Nsmooth equal 500/${smooth}
variable Nsmooth equal 500/10
fix Aswap Polymer atom/swap ${dtsmooth} ${Nsmooth} ${seedr} ${Temp} semi-grand yes types 1 2 3 mu 0.0 0.0 0.0
fix Aswap Polymer atom/swap 10000 ${Nsmooth} ${seedr} ${Temp} semi-grand yes types 1 2 3 mu 0.0 0.0 0.0
fix Aswap Polymer atom/swap 10000 50 ${seedr} ${Temp} semi-grand yes types 1 2 3 mu 0.0 0.0 0.0
fix Aswap Polymer atom/swap 10000 50 66 ${Temp} semi-grand yes types 1 2 3 mu 0.0 0.0 0.0
fix Aswap Polymer atom/swap 10000 50 66 1 semi-grand yes types 1 2 3 mu 0.0 0.0 0.0
variable Swaps equal f_Aswap[2]/1.0
variable Attempts equal f_Aswap[1]/1.0

####################################
####    DUMPS                 #######
####################################
##VMD
#dump 1 all custom 1000 ${folder}/${simname}.lammpstrj id mol type x y z
#dump_modify  1   format "%d %d %d %.5f %.5f %.5f"

##DAT
dump 2 all custom 100000 ${folder}/${simname}.* id type x y z ix iy iz
dump 2 all custom 100000 RW_Dt100000_E1.3/${simname}.* id type x y z ix iy iz
dump 2 all custom 100000 RW_Dt100000_E1.3/Poly.N500.RW1Dt100000E1.3.* id type x y z ix iy iz
#dump_modify   2   format "%d %d %.5f %.5f %.5f %d %d %d"

##CFG
#dump 3 all cfg 1000 ${folder}/CFG/${simname}.tot.*.cfg mass type xs ys zs id mol type
#dump_modify 3 element N C O Ca Xe

##XYZ
dump 4 all xyz 100000 XYZ_${simname}.xyz
dump 4 all xyz 100000 XYZ_Poly.N500.RW1Dt100000E1.3.xyz
dump_modify 4 element C O N Xe

###########################
thermo 10000
thermo_style   custom   step  temp  epair vol cpu v_Attempts v_Swaps
run 50000000
Neighbor list info ...
  update every 5 steps, delay 5 steps, check yes
  max neighbors/atom: 2000, page size: 100000
  master list distance cutoff = 3.1
  ghost atom cutoff = 3.1
  binsize = 1.55, bins = 78 78 78
  1 neighbor lists, perpetual/occasional/extra = 1 0 0
  (1) pair lj/cut, perpetual
      attributes: half, newton on
      pair build: half/bin/newton
      stencil: half/bin/3d/newton
      bin: standard
Per MPI rank memory allocation (min/avg/max) = 9.566 | 9.566 | 9.566 Mbytes
Step Temp E_pair Volume CPU v_Attempts v_Swaps 
       0   0.98519253     2.198734      1728000            0            0            0 
   10000    1.0157102  -0.53198923      1728000   0.92110205           50           40 
   20000    0.9582274   -0.5466142      1728000    1.8541141          100           77 
   30000   0.99421807  -0.67944232      1728000    2.8124049          150          103 
   40000   0.90502405  -0.71448743      1728000     3.774776          200          131 
   50000    1.0453831  -0.72402736      1728000    4.7740431          250          162 
   60000    1.0248143  -0.71118922      1728000    5.7680719          300          186 
   70000     1.045809  -0.97398313      1728000      6.78933          350          211 
   80000    1.0278733   -1.1273025      1728000     7.898876          400          231 
   90000   0.97448153   -1.1214936      1728000    9.0258529          450          254 
  100000    1.0240108   -1.2004311      1728000    10.130958          500          280 
  110000    1.0480367   -1.2118862      1728000    11.278754          550          300 
  120000    1.0254812   -1.3717067      1728000    12.400147          600          327 
  130000   0.94387018   -1.5458041      1728000    13.603004          650          348 
  140000   0.94573199   -1.6364926      1728000    14.842784          700          365 
  150000   0.94378694   -1.6570247      1728000    16.082129          750          383 
  160000    1.0483258   -1.8483461      1728000    17.401922          800          401 
  170000   0.96010332   -1.6996192      1728000    18.736134          850          412 
  180000   0.94746764    -1.896612      1728000    20.050887          900          426 
  190000    1.0121716   -1.8831541      1728000    21.410734          950          445 
  200000       1.0488   -1.8183787      1728000    22.773063         1000          462 
  210000   0.98460847   -1.6968886      1728000    24.079858         1050          477 
  220000    1.0228371   -1.8812692      1728000     25.41035         1100          492 
  230000   0.97843803   -1.9223978      1728000    26.723914         1150          505 
  240000    1.0035235   -2.1632861      1728000    28.073059         1200          521 
  250000   0.97721716   -1.9591982      1728000    29.470824         1250          535 
  260000   0.93140656    -2.057679      1728000    30.877325         1300          550 
  270000   0.99075924   -2.1609296      1728000    32.288187         1350          560 
  280000   0.96926918   -2.1874278      1728000    33.684063         1400          573 
  290000    1.0541578   -2.3205956      1728000    35.098975         1450          585 
  300000    1.0128884   -2.2090116      1728000    36.568259         1500          595 
  310000   0.98976483   -2.3678954      1728000    38.003979         1550          609 
  320000   0.97209481   -2.3584961      1728000    39.464218         1600          617 
  330000    0.9561459   -2.3506753      1728000    40.925021         1650          627 
  340000     1.032179   -2.5045055      1728000    42.438705         1700          639 
  350000   0.98036396   -2.3370023      1728000    44.009974         1750          646 
  360000    1.1081141   -2.7381678      1728000    45.572081         1800          653 
  370000    1.0343683   -2.5455432      1728000    47.210106         1850          661 
  380000    1.0449931   -2.7421467      1728000    48.909961         1900          666 
  390000   0.95803164   -2.7296318      1728000    50.568045         1950          677 
  400000   0.97537729   -2.6782696      1728000    52.301221         2000          690 
  410000   0.94240883   -2.8000576      1728000    53.963077         2050          696 
  420000    1.0473159   -2.8100853      1728000    55.589561         2100          703 
  430000   0.96041572   -2.8943657      1728000    57.229007         2150          709 
  440000     1.038286    -3.010498      1728000    58.913888         2200          714 
  450000    1.0778004   -3.0154095      1728000    60.632359         2250          719 
  460000   0.95476371   -3.1549337      1728000    62.368821         2300          721 
  470000    1.0531563   -3.0232936      1728000    64.076394         2350          726 
  480000    1.0086663   -2.9828027      1728000    65.773602         2400          729 
  490000   0.94942341   -2.8803191      1728000    67.478121         2450          736 
  500000   0.99231015   -2.9339054      1728000    69.211057         2500          742 
  510000    1.0118427   -3.0277275      1728000    70.868888         2550          752 
  520000   0.97814227   -3.2033776      1728000    72.570115         2600          758 
  530000    0.9939091   -2.9980881      1728000    74.283173         2650          761 
  540000   0.98351694   -3.0654257      1728000    76.037075         2700          769 
  550000   0.96789998   -3.0865715      1728000    77.788111         2750          774 
  560000    1.0070205   -3.2597892      1728000    79.547077         2800          777 
  570000     1.022322   -3.1087955      1728000    81.289383         2850          780 
  580000   0.99108042    -3.171273      1728000    83.000108         2900          785 
  590000   0.95354268   -3.1247288      1728000    84.728757         2950          793 
  600000    1.0099374   -3.1443763      1728000    86.525782         3000          799 
  610000   0.98768689   -3.2585533      1728000    88.245272         3050          806 
  620000   0.96243862   -3.3114134      1728000    89.972826         3100          813 
  630000     1.010928   -3.3467221      1728000    91.773382         3150          818 
  640000    1.0325437   -3.3032214      1728000    93.488204         3200          821 
  650000   0.98280197   -3.3821458      1728000    95.236452         3250          826 
  660000   0.96650104   -3.4596865      1728000    97.003788         3300          832 
  670000     1.063344   -3.4105411      1728000    98.758212         3350          837 
  680000   0.99010038    -3.325869      1728000    100.52188         3400          843 
  690000   0.95709703   -3.4817907      1728000    102.33205         3450          852 
  700000   0.93518384   -3.5939404      1728000    104.14657         3500          855 
  710000    1.0050464   -3.6271474      1728000    105.96274         3550          858 
  720000   0.97486872   -3.4858554      1728000    107.81384         3600          860 
  730000    1.0611206   -3.6035925      1728000    109.69495         3650          862 
  740000   0.96695325   -3.6841379      1728000    111.59512         3700          866 
  750000   0.97291851   -3.5835873      1728000    113.46284         3750          870 
  760000   0.98030373   -3.6460419      1728000    115.32825         3800          874 
  770000    1.0712024   -3.5910427      1728000    117.17149         3850          878 
  780000   0.98928832   -3.8040416      1728000    119.05064         3900          880 
  790000   0.99905329   -3.6250357      1728000    120.92242         3950          883 
  800000   0.97410836   -3.7353787      1728000    122.78918         4000          887 
  810000   0.97322366    -3.727017      1728000    124.62045         4050          893 
  820000   0.99330432    -3.588628      1728000    126.52026         4100          894 
  830000   0.92944536   -3.7682006      1728000    128.38404         4150          895 
  840000     1.014194   -3.7211331      1728000    130.24424         4200          898 
  850000    0.9483795   -3.7968013      1728000    132.09557         4250          901 
  860000    1.0185526   -3.7654858      1728000    133.93051         4300          902 
  870000   0.96199202   -3.7427735      1728000    135.86588         4350          904 
  880000    1.0561663   -3.6568931      1728000    137.71505         4400          907 
  890000    1.0188115    -3.755693      1728000    139.57082         4450          910 
  900000    1.0316173   -3.7687998      1728000    141.46337         4500          913 
  910000   0.98991914   -3.8492378      1728000    143.31253         4550          914 
  920000   0.99327125    -3.619037      1728000    145.18018         4600          916 
  930000    1.0076592   -3.7216995      1728000    147.00362         4650          919 
  940000    1.0072126   -3.6973797      1728000    148.84723         4700          921 
  950000   0.99012174   -3.7184354      1728000    150.74534         4750          924 
  960000    1.0618897   -3.6655756      1728000    152.58646         4800          926 
  970000   0.99892994   -3.8253401      1728000    154.47188         4850          931 
  980000    0.9178502   -3.6105916      1728000    156.31204         4900          936 
  990000    1.0306015   -3.7975124      1728000    158.16848         4950          936 
 1000000    1.0386856   -3.6748031      1728000    160.04001         5000          942 
 1010000    1.0203398   -3.8420447      1728000     161.9184         5050          943 
 1020000   0.94063883   -3.7701073      1728000     163.8124         5100          945 
 1030000   0.97596145   -3.6398614      1728000    165.62428         5150          946 
 1040000   0.98661465   -3.6405352      1728000    167.50025         5200          949 
 1050000   0.98118766   -3.6652374      1728000    169.35006         5250          953 
 1060000   0.96585638   -3.7369045      1728000     171.2412         5300          954 
 1070000     1.000532   -3.5590805      1728000    173.08529         5350          957 
 1080000   0.99057264   -3.7263332      1728000    174.93747         5400          961 
 1090000   0.95808616   -3.8500633      1728000    176.75521         5450          964 
 1100000    1.0271159   -3.8099429      1728000    178.58815         5500          966 
 1110000   0.96242285   -3.8933853      1728000    180.44323         5550          969 
 1120000   0.97651411   -3.7914422      1728000    182.31978         5600          970 
 1130000    0.9712073    -3.799768      1728000    184.14662         5650          973 
 1140000    1.0312893   -3.7517457      1728000    185.99623         5700          974 
 1150000   0.94161657    -3.898791      1728000    187.93022         5750          979 
 1160000    1.0547141   -3.9250077      1728000    189.83293         5800          984 
 1170000    1.0368399   -3.8279816      1728000    191.71661         5850          985 
 1180000    1.0124022   -3.9530047      1728000    193.58675         5900          986 
 1190000    1.0045606   -3.8487097      1728000     195.4878         5950          989 
 1200000    1.0568685   -4.0181285      1728000    197.40534         6000          990 
 1210000    1.0575009   -4.0054781      1728000    199.31097         6050          993 
 1220000   0.97536271   -3.8748748      1728000    201.19411         6100          995 
 1230000   0.99608114   -3.8575268      1728000    203.06345         6150          999 
 1240000    1.0033907   -3.8804116      1728000    204.97631         6200         1001 
 1250000   0.94639289   -3.7760258      1728000    206.87821         6250         1002 
 1260000     1.013157   -3.8892949      1728000    208.77623         6300         1005 
 1270000    0.9800383    -4.003919      1728000    210.67922         6350         1007 
 1280000   0.98749393    -3.851088      1728000    212.57024         6400         1008 
 1290000    1.0337111   -3.8145749      1728000    214.48528         6450         1008 
 1300000    1.0372201   -3.9475913      1728000     216.4163         6500         1009 
 1310000    1.0375724   -3.9193769      1728000    218.33555         6550         1011 
 1320000    1.0953262   -3.8934366      1728000    220.21457         6600         1012 
 1330000    0.9983563   -3.8671829      1728000     222.1259         6650         1015 
 1340000   0.98279896   -3.9214895      1728000    224.03624         6700         1017 
 1350000   0.94257757   -3.9324651      1728000    225.98072         6750         1019 
 1360000    0.9921575   -3.8941366      1728000    227.91069         6800         1019 
 1370000    1.0188711   -3.8949096      1728000     229.8484         6850         1022 
 1380000   0.97519471   -3.8952983      1728000    231.74376         6900         1022 
 1390000    1.0824442   -3.9754691      1728000    233.63016         6950         1024 
 1400000     1.049034   -3.8411474      1728000    235.52629         7000         1024 
 1410000    1.0943488   -3.9976493      1728000    237.49638         7050         1026 
 1420000   0.97754876   -3.9703407      1728000    239.45632         7100         1031 
 1430000    1.0084972   -3.9252204      1728000    241.35548         7150         1032 
 1440000    1.0662124   -3.9443148      1728000    243.23046         7200         1033 
 1450000    1.0423145   -3.9250119      1728000    245.10164         7250         1039 
 1460000    1.0081364   -3.9443735      1728000    247.02307         7300         1040 
 1470000   0.98465383   -3.8832421      1728000    248.94787         7350         1042 
 1480000   0.99728222   -3.9245935      1728000    250.88501         7400         1043 
 1490000   0.93087757   -3.9709879      1728000    252.78266         7450         1045 
 1500000   0.96688812   -3.9822863      1728000    254.73468         7500         1047 
 1510000    1.0145782   -3.9399851      1728000    256.64614         7550         1048 
 1520000     1.040123   -4.0051677      1728000    258.59497         7600         1051 
 1530000    1.0363829   -3.9342498      1728000    260.47432         7650         1051 
 1540000   0.96225088    -4.070127      1728000    262.36837         7700         1053 
 1550000   0.96214298   -3.9190356      1728000    264.30061         7750         1054 
 1560000    1.0168322   -3.8582702      1728000    266.17438         7800         1054 
 1570000   0.99298769   -3.8930854      1728000    268.08918         7850         1055 
 1580000   0.98739883   -4.0305644      1728000    269.99637         7900         1057 
 1590000   0.96703752    -3.997835      1728000    271.92935         7950         1060 
 1600000    1.0379087   -3.9312576      1728000    273.81209         8000         1062 
 1610000    1.0427094   -3.9056267      1728000    275.71593         8050         1063 
 1620000   0.98473471   -4.0256158      1728000    277.61514         8100         1067 
 1630000    0.9410564   -4.0663437      1728000    279.53109         8150         1068 
 1640000    1.0070853   -3.9711649      1728000    281.48932         8200         1070 
 1650000    0.9500677    -4.034074      1728000    283.45944         8250         1071 
 1660000    0.9811453   -3.9518778      1728000    285.40898         8300         1073 
 1670000   0.97525621   -3.9709248      1728000    287.32038         8350         1075 
 1680000   0.95945344   -4.0318756      1728000    289.24368         8400         1077 
 1690000   0.98461712   -3.7978759      1728000    291.12544         8450         1079 
 1700000    1.0426647   -4.0349201      1728000    293.09315         8500         1080 
 1710000    1.0107403   -3.9192008      1728000    295.01941         8550         1080 
 1720000    1.0383075     -3.89614      1728000    296.93238         8600         1084 
 1730000    1.0605406   -4.0420811      1728000    298.84958         8650         1084 
 1740000    1.0174206   -4.1797519      1728000    300.80405         8700         1087 
 1750000    1.0606942   -4.0295923      1728000    302.77292         8750         1087 
 1760000    0.9997826   -3.9368276      1728000    304.74937         8800         1088 
 1770000   0.98643484   -4.0942398      1728000    306.70516         8850         1089 
 1780000   0.98819321   -4.1290102      1728000    308.62945         8900         1091 
 1790000     1.034265   -3.9782536      1728000    310.55922         8950         1091 
 1800000    1.0442431   -4.0932217      1728000     312.4703         9000         1092 
 1810000    1.0119287   -4.0359446      1728000    314.42145         9050         1092 
 1820000   0.98552323   -4.1218088      1728000    316.40045         9100         1092 
 1830000   0.95318879   -3.9832075      1728000    318.39544         9150         1093 
 1840000   0.96592379   -3.9896045      1728000    320.32995         9200         1095 
 1850000   0.97976515   -4.0335145      1728000    322.29359         9250         1095 
 1860000    1.0205232   -3.8971673      1728000    324.27958         9300         1096 
 1870000   0.96305796   -3.9856462      1728000    326.26945         9350         1101 
 1880000   0.96938493   -4.0348512      1728000    328.18184         9400         1104 
 1890000    1.0232305   -4.0426411      1728000    330.10302         9450         1105 
 1900000   0.98744489   -4.0397526      1728000    332.04263         9500         1105 
 1910000    0.9858532   -4.0680639      1728000    333.93613         9550         1106 
 1920000    1.0691577   -3.9870651      1728000    335.90668         9600         1107 
 1930000   0.99660493   -4.0939545      1728000    337.84092         9650         1107 
 1940000   0.97961652   -4.0381947      1728000     339.7908         9700         1109 
 1950000   0.97269747   -4.0244619      1728000    341.78167         9750         1110 
 1960000    1.0093483   -4.0402706      1728000    343.69639         9800         1112 
 1970000   0.97561039   -4.0185641      1728000    345.68267         9850         1113 
 1980000   0.97787522   -4.0071359      1728000    347.58343         9900         1114 
 1990000    1.0631098   -4.0321155      1728000    349.51545         9950         1115 
 2000000    1.0211149   -4.0208321      1728000    351.50035        10000         1116 
 2010000   0.97160803   -4.1095408      1728000    353.41939        10050         1116 
 2020000    1.1089604   -3.9783639      1728000    355.34342        10100         1118 
 2030000    1.0558562   -4.0367119      1728000     357.4016        10150         1121 
 2040000    1.0014079   -4.0847552      1728000    359.37257        10200         1122 
 2050000     1.043184   -3.9570982      1728000    361.31736        10250         1124 
 2060000    1.0114564   -4.0997835      1728000    363.29333        10300         1125 
 2070000    1.0305797   -4.0787372      1728000    365.20419        10350         1125 
 2080000    1.0427876   -4.1341871      1728000    367.16768        10400         1127 
 2090000   0.95593056   -4.0787315      1728000    369.15742        10450         1128 
 2100000    1.0450078   -4.1116299      1728000    371.18121        10500         1128 
 2110000     0.930253   -4.0569587      1728000    373.15779        10550         1131 
 2120000   0.99741461   -4.0296244      1728000    375.17573        10600         1131 
 2130000   0.97117741   -4.1807136      1728000    377.12316        10650         1132 
 2140000   0.94182174   -4.0225037      1728000    379.04149        10700         1132 
 2150000    0.9758814   -4.0476808      1728000    381.00043        10750         1133 
 2160000    0.9769974   -3.9791335      1728000    382.91253        10800         1133 
 2170000   0.97596836   -4.0225891      1728000    384.86349        10850         1134 
 2180000   0.99617639   -4.0854291      1728000    386.78476        10900         1136 
 2190000    1.0194153   -4.1113202      1728000    388.68942        10950         1138 
 2200000   0.96769955   -4.0637858      1728000    390.57152        11000         1139 
 2210000   0.96238886   -4.0629991      1728000    392.43233        11050         1140 
 2220000    1.0391631   -4.0597644      1728000    394.36985        11100         1140 
 2230000   0.98770978   -3.9747548      1728000    396.32045        11150         1142 
 2240000    1.0110869   -4.1167584      1728000    398.23978        11200         1144 
 2250000    1.0301572   -4.0023964      1728000    400.22051        11250         1145 
 2260000    1.0418603   -4.0240665      1728000    402.15717        11300         1145 
 2270000   0.97984801   -4.1509762      1728000    404.07473        11350         1146 
 2280000    1.0068622   -4.0049263      1728000     405.9414        11400         1150 
 2290000    0.9533048   -4.1545163      1728000    407.81449        11450         1151 
 2300000   0.95273559   -3.9973523      1728000    409.72482        11500         1152 
 2310000   0.94620815   -3.9871922      1728000    411.62799        11550         1153 
 2320000     1.033641   -4.1187268      1728000    413.52504        11600         1153 
 2330000    1.0011543   -3.9402665      1728000    415.43889        11650         1155 
 2340000   0.99763392   -4.0536571      1728000    417.36849        11700         1156 
 2350000   0.98079221   -3.9588817      1728000    419.27783        11750         1157 
 2360000    1.0470186   -3.9134683      1728000     421.1971        11800         1158 
 2370000    1.0198277   -4.0827017      1728000    423.11357        11850         1158 
 2380000     0.971014    -4.026428      1728000    425.06576        11900         1159 
 2390000    1.0485259   -3.9782653      1728000    427.00923        11950         1159 
 2400000   0.93978129   -4.1301295      1728000    428.92938        12000         1160 
 2410000    0.9885246   -4.1119892      1728000    430.86055        12050         1162 
 2420000    1.0595592   -4.0017421      1728000    432.82876        12100         1164 
 2430000   0.96559543   -4.0353063      1728000    434.74741        12150         1166 
 2440000   0.98147519   -4.2163035      1728000     436.7215        12200         1171 
 2450000   0.93943236    -3.954812      1728000    438.63291        12250         1172 
 2460000     0.987707    -4.182167      1728000    440.55457        12300         1174 
 2470000    1.0161822   -4.0709404      1728000     442.5145        12350         1175 
 2480000    1.0269743   -4.0711829      1728000    444.43408        12400         1176 
 2490000   0.98035432   -3.9675463      1728000    446.35117        12450         1177 
 2500000    1.0134655   -4.0066062      1728000    448.30128        12500         1179 
 2510000   0.96817703   -3.9330262      1728000    450.21449        12550         1181 
 2520000    1.0434855   -4.2523032      1728000    452.15561        12600         1181 
 2530000   0.94411512   -3.9732321      1728000    454.04761        12650         1183 
 2540000    1.0336784   -4.0935793      1728000    455.95986        12700         1186 
 2550000   0.99263894   -4.0392485      1728000    457.93157        12750         1187 
 2560000   0.99255221   -4.0281476      1728000    459.86702        12800         1189 
 2570000    1.0183082   -3.9784688      1728000    461.79156        12850         1189 
 2580000   0.96712367    -4.079322      1728000    463.73527        12900         1190 
 2590000     1.052739   -4.0086081      1728000    465.65807        12950         1195 
 2600000     1.039472    -4.108373      1728000     467.5796        13000         1196 
 2610000     0.997927   -4.1146965      1728000    469.54366        13050         1197 
 2620000    0.9467559   -4.1157636      1728000    471.49806        13100         1197 
 2630000   0.98900222   -4.0880834      1728000    473.43389        13150         1197 
 2640000   0.98672972   -4.1235132      1728000    475.36481        13200         1197 
 2650000   0.95893363   -4.1013323      1728000    477.26139        13250         1202 
 2660000    1.0406452   -3.8996511      1728000    479.21666        13300         1204 
 2670000   0.97455419    -4.154133      1728000    481.12667        13350         1206 
 2680000   0.99365962   -4.0780822      1728000     483.0736        13400         1207 
 2690000    1.0317706   -3.9043376      1728000    485.01144        13450         1208 
 2700000   0.98995372   -4.0667991      1728000    486.97828        13500         1209 
 2710000    0.9593907   -3.9339122      1728000    488.93592        13550         1210 
 2720000    1.0147418   -4.1084566      1728000    490.85201        13600         1212 
 2730000    1.0524866   -4.0252534      1728000    492.76666        13650         1213 
 2740000    1.0131303   -4.0719986      1728000    494.73736        13700         1217 
 2750000   0.99383925   -4.1148978      1728000    496.72543        13750         1217 
 2760000    1.0141951   -3.9341891      1728000    498.68354        13800         1217 
 2770000   0.97047547   -4.1027413      1728000    500.68035        13850         1218 
 2780000    0.9819618   -4.0901976      1728000    502.63446        13900         1221 
 2790000    1.0479119   -4.1072638      1728000    504.58669        13950         1223 
 2800000   0.95381467   -4.1270816      1728000    506.59961        14000         1228 
 2810000    1.0364337   -4.0238071      1728000    508.56195        14050         1228 
 2820000   0.94231244   -4.0043344      1728000    510.52862        14100         1230 
 2830000    1.0360418   -4.0483924      1728000     512.4546        14150         1232 
 2840000    1.0021484   -3.9833167      1728000    514.38035        14200         1235 
 2850000    1.0151279   -4.0695081      1728000    516.33679        14250         1238 
 2860000    1.0255463   -4.1350459      1728000    518.27757        14300         1238 
 2870000    1.0549229   -4.0835723      1728000     520.2414        14350         1240 
 2880000   0.99995629   -4.1223154      1728000    522.21061        14400         1241 
 2890000   0.97425488   -4.1454713      1728000    524.17987        14450         1242 
 2900000    1.0091653   -4.0219845      1728000    526.15159        14500         1244 
 2910000    1.0181161   -4.2080042      1728000    528.08847        14550         1246 
 2920000    1.0036861   -4.1211324      1728000    530.04136        14600         1246 
 2930000   0.98324659   -4.1073314      1728000    531.99765        14650         1247 
 2940000   0.97219311   -4.0828248      1728000    533.97265        14700         1247 
 2950000     1.011253   -3.8822848      1728000    535.91284        14750         1247 
 2960000   0.99446261   -4.0976399      1728000    537.86458        14800         1248 
 2970000    0.9587515   -4.1187602      1728000    539.79133        14850         1250 
 2980000    1.0259475    -4.021394      1728000    541.72979        14900         1252 
 2990000   0.97590226   -4.0734069      1728000    543.70085        14950         1256 
 3000000    1.0519043   -4.0964776      1728000    545.67617        15000         1256 
 3010000   0.98056105   -4.3028406      1728000    547.67333        15050         1256 
 3020000    0.9363855   -4.0594616      1728000    549.61865        15100         1257 
 3030000   0.96730137   -4.1466243      1728000    551.60111        15150         1257 
 3040000    1.0214154   -4.1877115      1728000    553.58318        15200         1257 
 3050000   0.96886754    -4.161885      1728000    555.52687        15250         1257 
 3060000    1.0322177   -4.1048182      1728000     557.4762        15300         1258 
 3070000   0.97318422   -4.1260923      1728000    559.47229        15350         1258 
 3080000    1.0608709   -4.2098546      1728000    561.46133        15400         1258 
 3090000   0.95431877    -4.118397      1728000    563.52874        15450         1259 
 3100000    1.0405242    -4.186857      1728000    565.47749        15500         1261 
 3110000   0.99917324    -4.119626      1728000    567.39031        15550         1261 
 3120000   0.96078775   -4.1830991      1728000    569.36444        15600         1262 
 3130000    1.0047655   -4.0728949      1728000    571.33072        15650         1262 
 3140000   0.99163197    -4.083386      1728000    573.26619        15700         1262 
 3150000   0.99281329   -4.2541718      1728000    575.23494        15750         1262 
 3160000    1.1017446   -4.0066948      1728000    577.20296        15800         1266 
 3170000    1.0100983   -4.1115165      1728000    579.17224        15850         1267 
 3180000   0.96019826   -4.1433591      1728000    581.14776        15900         1269 
 3190000    0.9742937   -4.1277278      1728000    583.12377        15950         1270 
 3200000    1.0066849   -4.1048351      1728000    585.10889        16000         1270 
 3210000    1.0483938   -4.1123479      1728000    587.05055        16050         1270 
 3220000   0.96511744   -4.1705724      1728000    588.98845        16100         1270 
 3230000   0.97740386    -4.178898      1728000    590.93064        16150         1272 
 3240000   0.99773971   -4.1031267      1728000    592.88953        16200         1272 
 3250000   0.99655853   -4.0161054      1728000     594.8277        16250         1272 
 3260000     1.034817   -4.1754299      1728000    596.81976        16300         1274 
 3270000   0.95143369   -4.0362057      1728000    598.81733        16350         1277 
 3280000    1.0270479   -4.1183178      1728000    600.77775        16400         1279 
 3290000   0.97504649   -4.1588244      1728000    602.66691        16450         1279 
 3300000    0.9771551   -4.1518041      1728000    604.62244        16500         1280 
 3310000   0.93484056   -4.0873379      1728000     606.6507        16550         1280 
 3320000    1.0809414   -4.1374077      1728000    608.63164        16600         1280 
 3330000     0.987022    -4.250929      1728000    610.54597        16650         1280 
 3340000    1.0073484   -4.1448158      1728000    612.42974        16700         1280 
 3350000   0.98208657   -4.1269807      1728000    614.32069        16750         1281 
 3360000    1.0657439   -4.1846134      1728000    616.24378        16800         1284 
 3370000   0.97376987   -4.1094367      1728000    618.17373        16850         1284 
 3380000    1.0889038   -4.1186592      1728000     620.0717        16900         1284 
 3390000    1.0078316   -4.1281205      1728000    621.98075        16950         1285 
 3400000    1.0411321   -4.0833032      1728000    623.88296        17000         1285 
 3410000   0.97895867   -4.0831621      1728000    625.79667        17050         1286 
 3420000     1.019844   -4.2264334      1728000    627.68926        17100         1286 
 3430000     1.015143   -4.1756066      1728000     629.5914        17150         1286 
 3440000    0.9427361   -4.1008374      1728000    631.56279        17200         1286 
 3450000    1.0199839   -4.2391987      1728000    633.49911        17250         1286 
 3460000   0.93230585   -4.2178639      1728000    635.50275        17300         1288 
 3470000     1.001327   -4.1410355      1728000    637.47041        17350         1288 
 3480000     1.010633   -4.2835069      1728000    639.42902        17400         1290 
 3490000   0.97901072   -4.1500324      1728000    641.41715        17450         1292 
 3500000    1.0200212   -4.1799913      1728000    643.38074        17500         1292 
 3510000   0.97005172   -4.1729652      1728000    645.39009        17550         1293 
 3520000    0.9984737   -4.1336185      1728000    647.32846        17600         1293 
 3530000   0.95528699   -4.1511754      1728000    649.32571        17650         1293 
 3540000    1.0481727   -4.2102043      1728000    651.31197        17700         1294 
 3550000    1.0041608   -4.1890647      1728000    653.30087        17750         1294 
 3560000    1.0200123   -4.0919451      1728000    655.27668        17800         1294 
 3570000   0.97630165   -4.2389724      1728000    657.27583        17850         1296 
 3580000     1.003957   -4.1197514      1728000    659.23373        17900         1296 
 3590000   0.95945725   -4.0465504      1728000    661.18373        17950         1297 
 3600000   0.94874809   -4.1414541      1728000    663.16176        18000         1298 
 3610000   0.95881367   -4.2212244      1728000    665.27945        18050         1298 
 3620000   0.96616788   -4.1854968      1728000    667.36128        18100         1298 
 3630000    1.0144208   -4.0830464      1728000    669.42559        18150         1299 
 3640000    1.0066571   -3.9928832      1728000    671.41555        18200         1303 
 3650000    1.0315879    -4.181817      1728000    673.35692        18250         1308 
 3660000   0.99309546   -4.0207001      1728000    675.36149        18300         1310 
 3670000    0.9679207   -4.1747122      1728000    677.34076        18350         1311 
 3680000   0.98561683   -4.2123116      1728000     679.3321        18400         1312 
 3690000   0.97409761   -4.0459311      1728000     681.3024        18450         1314 
 3700000   0.96651686   -3.9057762      1728000    683.29311        18500         1315 
 3710000    1.0147859   -4.0902216      1728000    685.32171        18550         1317 
 3720000    1.0021066   -4.1042757      1728000    687.29268        18600         1317 
 3730000    1.0474961   -4.1958958      1728000    689.29192        18650         1317 
 3740000    0.9589149   -4.1504984      1728000    691.26549        18700         1317 
 3750000    1.0700968   -4.1301878      1728000    693.19803        18750         1317 
 3760000    1.0633388   -3.9526217      1728000    695.15977        18800         1318 
 3770000   0.96559668   -3.9729888      1728000    697.10582        18850         1318 
 3780000   0.97828442   -3.9794824      1728000    699.03672        18900         1318 
 3790000   0.97689176   -4.0150377      1728000    700.97584        18950         1319 
 3800000   0.98145512   -4.0144133      1728000    702.91898        19000         1320 
 3810000    1.0112837   -4.1142296      1728000    704.87292        19050         1323 
 3820000    1.0061451   -4.1359884      1728000    706.79794        19100         1324 
 3830000   0.99289737   -3.9885677      1728000    708.75685        19150         1325 
 3840000   0.96936846   -4.1641015      1728000    710.67712        19200         1326 
 3850000   0.99255071   -4.1185921      1728000    712.59354        19250         1327 
 3860000   0.98498968   -4.2485108      1728000    714.53137        19300         1328 
 3870000    1.0315061   -4.0972128      1728000    716.49067        19350         1329 
 3880000    1.0668261   -4.0659104      1728000     718.4341        19400         1329 
 3890000    1.0184931   -3.9914798      1728000    720.42005        19450         1332 
 3900000    1.0031688   -4.1750676      1728000    722.42694        19500         1334 
 3910000    1.0539336   -4.2101481      1728000    724.40082        19550         1335 
 3920000   0.95489783   -4.1303425      1728000    726.39808        19600         1336 
 3930000    1.0257231   -3.9467241      1728000     728.2985        19650         1338 
 3940000    1.0358639   -4.1522624      1728000    730.22956        19700         1339 
 3950000    0.9457783   -4.1459678      1728000    732.21386        19750         1340 
 3960000   0.99618719   -4.1323635      1728000    734.14197        19800         1342 
 3970000   0.99072201    -4.198636      1728000    736.05275        19850         1343 
 3980000    1.0384529   -4.0773075      1728000     737.9799        19900         1344 
 3990000   0.93359462   -4.1248047      1728000    739.87507        19950         1344 
 4000000   0.99003366   -4.0649968      1728000    741.83706        20000         1347 
 4010000   0.98453164   -4.1764164      1728000    743.74681        20050         1347 
 4020000    1.0043448   -4.2358851      1728000    745.70849        20100         1348 
 4030000   0.95702752   -4.1531769      1728000    747.66969        20150         1350 
 4040000    1.0531109   -4.0800618      1728000    749.59356        20200         1352 
 4050000   0.99704515   -4.1068465      1728000    751.56483        20250         1352 
 4060000    1.0067363   -4.1183352      1728000    753.48705        20300         1352 
 4070000    1.0206321   -4.0999542      1728000     755.4158        20350         1354 
 4080000   0.95076089   -4.0734036      1728000    757.36588        20400         1356 
 4090000    1.0320484   -4.1782822      1728000    759.31471        20450         1358 
 4100000   0.99476191   -4.0776952      1728000    761.25782        20500         1359 
 4110000    1.0321263   -4.0974358      1728000    763.17082        20550         1360 
 4120000    1.0405034   -4.1109132      1728000    765.15586        20600         1360 
 4130000   0.96743415   -4.0622743      1728000    767.05905        20650         1362 
 4140000   0.98255722   -4.0562136      1728000    769.04299        20700         1365 
 4150000    1.0430521    -4.044986      1728000     770.9408        20750         1368 
 4160000    0.9825201   -4.1098839      1728000    772.90747        20800         1368 
 4170000   0.99506028   -4.2890699      1728000     774.8463        20850         1369 
 4180000   0.99563261   -4.0860264      1728000    776.79314        20900         1369 
 4190000     1.024027   -4.0023126      1728000      778.688        20950         1370 
 4200000    1.1096238   -4.0108504      1728000    780.63695        21000         1371 
 4210000    1.0370064   -4.0071054      1728000    782.57212        21050         1375 
 4220000   0.98410585   -4.0808911      1728000    784.49086        21100         1376 
 4230000   0.99229908   -4.0679681      1728000    786.46213        21150         1376 
 4240000    1.0693024   -3.9972498      1728000    788.39592        21200         1379 
 4250000    1.0714164   -4.0520853      1728000    790.37186        21250         1380 
 4260000   0.95797485   -4.1185895      1728000     792.2934        21300         1382 
 4270000   0.99760211     -4.18746      1728000    794.24188        21350         1384 
 4280000    1.0470452   -4.1093021      1728000    796.20091        21400         1387 
 4290000   0.99468715   -4.0582148      1728000    798.13064        21450         1388 
 4300000   0.88657319   -4.2311837      1728000    800.07137        21500         1389 
 4310000   0.93691524   -4.1580037      1728000    802.02689        21550         1389 
 4320000   0.96957599   -4.2427959      1728000    803.94018        21600         1391 
 4330000   0.94029374   -4.1283939      1728000     805.8478        21650         1391 
 4340000   0.95960942    -4.141536      1728000    807.80582        21700         1393 
 4350000    1.0032946   -4.1167495      1728000    809.75374        21750         1393 
 4360000    1.0311698   -4.0997046      1728000    811.65789        21800         1395 
 4370000   0.98848928     -4.02346      1728000    813.59293        21850         1397 
 4380000    1.0354723   -4.0889723      1728000    815.48292        21900         1398 
 4390000   0.96317173   -4.2018163      1728000    817.43288        21950         1401 
 4400000    1.0183621   -4.1859345      1728000    819.38772        22000         1404 
 4410000   0.97746866   -4.0379881      1728000    821.35995        22050         1405 
 4420000   0.98507488   -4.0798937      1728000    823.32242        22100         1405 
 4430000   0.98849183   -4.1506183      1728000    825.24888        22150         1405 
 4440000     1.013255   -4.1621514      1728000    827.21209        22200         1407 
 4450000    1.0326815   -4.1015186      1728000    829.13592        22250         1407 
 4460000    0.9515071    -4.033932      1728000    831.08666        22300         1408 
 4470000   0.94170247   -4.0448955      1728000    832.99292        22350         1410 
 4480000    1.0148251   -4.1400246      1728000    834.97497        22400         1411 
 4490000   0.98244679   -4.0547736      1728000    836.91971        22450         1413 
 4500000   0.96588343    -4.154393      1728000      838.819        22500         1413 
 4510000   0.97951094   -4.1129347      1728000    840.73398        22550         1416 
 4520000    0.9945338   -4.0186052      1728000      842.621        22600         1417 
 4530000   0.97401521   -4.1145576      1728000    844.59055        22650         1417 
 4540000   0.99637028   -3.9864238      1728000    846.54199        22700         1420 
 4550000   0.98125591   -4.2187511      1728000    848.44272        22750         1420 
 4560000     1.012347   -4.1284828      1728000    850.38396        22800         1421 
 4570000   0.97425525   -4.1057069      1728000    852.31069        22850         1422 
 4580000     1.037934   -4.1253816      1728000    854.26595        22900         1422 
 4590000    1.0464666   -4.1963464      1728000    856.17903        22950         1423 
 4600000    1.0204504   -4.1190411      1728000    858.14664        23000         1424 
 4610000   0.94211292   -4.1559678      1728000    860.11712        23050         1425 
 4620000    1.0185359   -4.0954491      1728000    862.04193        23100         1427 
 4630000   0.97333099   -4.0510444      1728000    863.98395        23150         1427 
 4640000   0.93234064   -4.2220085      1728000    865.92305        23200         1428 
 4650000    0.9666144   -4.1560772      1728000    867.81797        23250         1429 
 4660000   0.99838506    -4.171949      1728000    869.79476        23300         1429 
 4670000    1.0199145   -4.1800304      1728000    871.75701        23350         1432 
 4680000    1.0489627   -4.0851464      1728000    873.68897        23400         1432 
 4690000   0.95413925   -4.1479235      1728000    875.60623        23450         1433 
 4700000    1.0037119   -4.1766424      1728000    877.60431        23500         1435 
 4710000   0.97651507   -4.0813842      1728000    879.55602        23550         1435 
 4720000   0.98498822   -3.9934223      1728000    881.49403        23600         1435 
 4730000    1.0275986   -4.0586089      1728000    883.40914        23650         1435 
 4740000   0.93533329   -4.1748083      1728000    885.33795        23700         1435 
 4750000   0.97455128    -4.225517      1728000    887.32503        23750         1435 
 4760000   0.98709697   -4.1004144      1728000    889.27767        23800         1435 
 4770000   0.97431779   -3.9804936      1728000    891.19133        23850         1438 
 4780000    1.0174044   -4.1517682      1728000    893.13091        23900         1439 
 4790000   0.99276228   -4.2149769      1728000    895.04115        23950         1440 
 4800000    1.0154511   -4.1069616      1728000    896.96622        24000         1442 
 4810000   0.97557174   -4.1536528      1728000    898.88595        24050         1442 
 4820000   0.96642751   -4.1216643      1728000    900.79131        24100         1443 
 4830000    1.0022978   -4.2319345      1728000     902.7705        24150         1444 
 4840000   0.97889319   -4.1281633      1728000     904.7238        24200         1444 
 4850000    1.0393966   -3.9409935      1728000    906.66609        24250         1446 
 4860000   0.92978573   -4.0141565      1728000    908.66891        24300         1447 
 4870000   0.94859757   -4.0623623      1728000    910.71977        24350         1448 
 4880000    1.0044418   -4.0440519      1728000    912.67376        24400         1449 
 4890000   0.99606619   -4.1489269      1728000    914.64868        24450         1449 
 4900000    1.0456645   -4.2350083      1728000    916.56456        24500         1449 
 4910000   0.99180973   -3.9837114      1728000    918.50108        24550         1449 
 4920000   0.99190265   -4.0792819      1728000    920.42209        24600         1451 
 4930000    0.9220884   -4.1330317      1728000    922.36805        24650         1452 
 4940000    1.0014708   -4.0919373      1728000    924.25506        24700         1453 
 4950000    1.0599654   -4.1986821      1728000    926.14305        24750         1453 
 4960000   0.99167898   -4.0633694      1728000    928.08096        24800         1456 
 4970000    1.0000829    -4.148919      1728000    930.01017        24850         1457 
 4980000   0.99748193   -4.0452066      1728000    931.95402        24900         1458 
 4990000   0.95323577   -4.1025282      1728000    933.89113        24950         1459 
 5000000   0.99995146   -4.1053396      1728000    935.83779        25000         1459 
 5010000   0.96280541   -4.0655421      1728000    937.77899        25050         1460 
 5020000    1.0413372   -4.0556766      1728000    939.69294        25100         1462 
 5030000   0.99784052   -4.0802175      1728000    941.60644        25150         1463 
 5040000    1.0424917   -4.1453463      1728000    943.56316        25200         1467 
 5050000    1.0106981   -4.2524361      1728000    945.51377        25250         1467 
 5060000    1.0002071   -4.1224704      1728000    947.42209        25300         1467 
 5070000   0.99745973   -3.9951396      1728000    949.37608        25350         1467 
 5080000    1.0346633   -3.9483143      1728000    951.28829        25400         1468 
 5090000    1.0392953   -4.1589639      1728000    953.24526        25450         1469 
 5100000   0.97793064    -4.208323      1728000    955.20469        25500         1469 
 5110000   0.96958234    -4.153899      1728000    957.18683        25550         1470 
 5120000   0.96876839   -4.0064131      1728000    959.14732        25600         1471 
 5130000    1.0373938   -4.0838246      1728000    961.10904        25650         1472 
 5140000   0.95098109   -4.1797063      1728000    963.04618        25700         1475 
 5150000    1.0266125   -4.0935138      1728000    964.97082        25750         1477 
 5160000    1.0574399   -4.0262441      1728000    966.92297        25800         1478 
 5170000    1.0584065   -3.9926243      1728000    968.86982        25850         1479 
 5180000    1.0277358   -4.1092876      1728000    970.82019        25900         1479 
 5190000   0.94609173   -4.0346323      1728000    972.77058        25950         1482 
 5200000    1.0329792    -4.170673      1728000     974.6943        26000         1483 
 5210000   0.98674486   -4.1669889      1728000    976.63989        26050         1484 
 5220000    1.0210502    -3.963288      1728000    978.58619        26100         1485 
 5230000   0.93957765   -3.9863854      1728000    980.53654        26150         1485 
 5240000    1.0295908   -4.1070306      1728000    982.51015        26200         1485 
 5250000   0.99814017   -4.1296678      1728000    984.45724        26250         1486 
 5260000   0.98879543   -4.0526319      1728000    986.45704        26300         1488 
 5270000    0.9510799   -4.0803978      1728000    988.43925        26350         1490 
 5280000    1.0688995   -4.1261891      1728000    990.40094        26400         1490 
 5290000    1.0237621   -3.9259553      1728000    992.33714        26450         1493 
 5300000    1.0357764   -4.1385857      1728000    994.27909        26500         1495 
 5310000   0.96982189   -4.1438204      1728000    996.23007        26550         1498 
 5320000    1.0102448   -3.9772851      1728000    998.18133        26600         1500 
 5330000    1.0326706   -4.0908774      1728000    1000.1239        26650         1500 
 5340000   0.99510296   -4.1834142      1728000    1002.0511        26700         1502 
 5350000    1.0168374   -4.0313876      1728000    1004.0018        26750         1502 
 5360000    1.0053951   -4.0760026      1728000    1005.9702        26800         1503 
 5370000    1.0377416   -4.1724175      1728000    1007.9344        26850         1504 
 5380000    1.0195585   -4.0347976      1728000    1009.9159        26900         1504 
 5390000   0.91459632   -4.1179615      1728000    1011.8991        26950         1505 
 5400000    1.0073034   -4.0822896      1728000    1013.8432        27000         1506 
 5410000   0.91908603    -4.199737      1728000    1015.7941        27050         1506 
 5420000    1.0285807   -4.0968723      1728000    1017.7272        27100         1506 
 5430000    1.0028766   -4.0033663      1728000      1019.66        27150         1509 
 5440000   0.99180758   -4.2013466      1728000    1021.6211        27200         1509 
 5450000   0.96687216   -4.0854735      1728000    1023.5352        27250         1510 
 5460000    1.0491784   -4.1139181      1728000     1025.485        27300         1512 
 5470000   0.99861684   -3.9097358      1728000    1027.4608        27350         1513 
 5480000   0.98553564   -4.0540633      1728000    1029.3825        27400         1516 
 5490000    1.0387192   -4.0376762      1728000    1031.3411        27450         1516 
 5500000   0.96319958   -4.1741916      1728000     1033.292        27500         1517 
 5510000     1.040074   -4.2311721      1728000    1035.2513        27550         1518 
 5520000    1.0279181   -4.1302249      1728000    1037.1849        27600         1519 
 5530000   0.93167968    -4.181008      1728000    1039.1082        27650         1521 
 5540000    1.0322272   -4.0507578      1728000    1041.0946        27700         1522 
 5550000   0.94641026   -3.9669517      1728000    1043.0371        27750         1523 
 5560000    1.0211757   -4.0704692      1728000    1044.9684        27800         1525 
 5570000    1.0516384    -4.175086      1728000    1046.8922        27850         1529 
 5580000   0.99891896   -4.0447245      1728000      1048.86        27900         1529 
 5590000    1.0543709   -4.1226394      1728000    1050.8263        27950         1530 
 5600000    1.0098745   -4.0416752      1728000    1052.7702        28000         1531 
 5610000   0.98148499    -4.148378      1728000    1054.6919        28050         1532 
 5620000   0.93933313   -4.0942648      1728000    1056.6441        28100         1533 
 5630000   0.95700102   -4.1430495      1728000    1058.6068        28150         1534 
 5640000    1.0431131   -4.1509961      1728000    1060.5212        28200         1535 
 5650000   0.99133608   -4.1290355      1728000    1062.4435        28250         1535 
 5660000    1.0299879   -4.0429333      1728000    1064.3971        28300         1538 
 5670000   0.97664822   -4.1411848      1728000     1066.345        28350         1539 
 5680000    1.0412733   -4.1241046      1728000    1068.3254        28400         1540 
 5690000    1.0193484   -4.2023785      1728000    1070.2992        28450         1542 
 5700000    1.0121937   -4.0045027      1728000    1072.2772        28500         1543 
 5710000   0.98558444   -4.0851049      1728000    1074.1934        28550         1544 
 5720000   0.97158551   -4.1179852      1728000    1076.1543        28600         1546 
 5730000   0.97241945   -4.1250888      1728000    1078.0641        28650         1547 
 5740000   0.98432308   -4.2021615      1728000    1080.0266        28700         1550 
 5750000   0.95229176   -4.0347176      1728000    1081.9963        28750         1557 
 5760000    1.0373055   -4.1343255      1728000    1083.8952        28800         1559 
 5770000   0.94029332   -4.0958262      1728000    1085.8772        28850         1560 
 5780000   0.95738486   -4.1412958      1728000    1087.8552        28900         1561 
 5790000    1.0196084   -4.1155723      1728000    1089.8291        28950         1562 
 5800000   0.99998605   -4.1175335      1728000    1091.8128        29000         1563 
 5810000    1.0523639   -4.1283657      1728000    1093.7752        29050         1566 
 5820000    1.0403541    -4.027422      1728000    1095.7312        29100         1566 
 5830000    0.9738221   -4.1398989      1728000    1097.6781        29150         1568 
 5840000   0.97910977   -4.1744559      1728000    1099.6412        29200         1569 
 5850000   0.97794359   -4.0802043      1728000    1101.6055        29250         1572 
 5860000    1.0652037   -4.0878352      1728000    1103.5842        29300         1572 
 5870000    1.0082792   -4.1142706      1728000    1105.5253        29350         1574 
 5880000    1.0219852   -4.1621286      1728000    1107.4655        29400         1574 
 5890000    0.9727413    -4.163907      1728000    1109.3904        29450         1575 
 5900000   0.97107831   -4.1503819      1728000    1111.3888        29500         1575 
 5910000    1.0200532   -4.1870994      1728000    1113.3243        29550         1576 
 5920000    1.0065562    -4.121915      1728000    1115.2162        29600         1576 
 5930000    1.0139328   -4.0803985      1728000    1117.1208        29650         1576 
 5940000    1.0440461   -4.1323756      1728000    1119.0053        29700         1578 
 5950000   0.98155801   -4.1361429      1728000    1120.9662        29750         1580 
 5960000   0.99667545   -3.9942991      1728000    1122.8982        29800         1582 
 5970000    1.0288971   -4.0512926      1728000    1124.7971        29850         1582 
 5980000    1.0062423   -4.0435562      1728000    1126.7256        29900         1585 
 5990000    1.0423443   -4.0297993      1728000    1128.6331        29950         1590 
 6000000    1.0613754   -4.0565646      1728000    1130.5916        30000         1593 
 6010000   0.97040229   -4.1116263      1728000    1132.5451        30050         1594 
 6020000   0.92781252   -4.0762828      1728000    1134.5235        30100         1596 
 6030000   0.99264284    -4.099362      1728000    1136.4703        30150         1598 
 6040000    1.0075831   -4.1957733      1728000    1138.4601        30200         1603 
 6050000   0.98683898   -4.0917553      1728000    1140.4284        30250         1603 
 6060000    1.0249845   -4.0541531      1728000     1142.377        30300         1603 
 6070000    1.0901392   -4.1141353      1728000    1144.3742        30350         1603 
 6080000    0.9677063   -4.2126442      1728000    1146.3031        30400         1605 
 6090000    1.0762317   -4.0920118      1728000    1148.2363        30450         1606 
 6100000   0.97257786   -4.0620626      1728000     1150.253        30500         1607 
 6110000   0.97585723   -4.1105696      1728000    1152.2648        30550         1607 
 6120000    1.0077717    -4.189155      1728000    1154.1913        30600         1607 
 6130000    1.0227696    -4.085126      1728000    1156.1042        30650         1608 
 6140000   0.95990621   -4.1134592      1728000     1158.018        30700         1613 
 6150000   0.98508678   -4.0565789      1728000    1159.9492        30750         1614 
 6160000     1.047105   -4.0168305      1728000    1161.8698        30800         1618 
 6170000   0.99278222   -4.1897693      1728000    1163.7955        30850         1618 
 6180000    1.0002986   -3.9508602      1728000    1165.6968        30900         1618 
 6190000   0.99495038   -4.0621052      1728000    1167.6244        30950         1620 
 6200000    1.0134098   -4.1288435      1728000    1169.5662        31000         1620 
 6210000   0.98011088   -4.1544882      1728000    1171.5303        31050         1621 
 6220000    1.0341398   -4.0941577      1728000    1173.4243        31100         1624 
 6230000   0.99363146   -4.1224674      1728000    1175.3733        31150         1625 
 6240000   0.99057323    -4.025042      1728000    1177.3332        31200         1626 
 6250000   0.98756868    -4.082289      1728000    1179.2811        31250         1628 
 6260000    1.0193187   -4.0806078      1728000    1181.2184        31300         1629 
 6270000   0.94002548   -4.0308045      1728000    1183.1299        31350         1630 
 6280000   0.96429266   -4.0161404      1728000     1185.027        31400         1630 
 6290000    1.0370295   -4.1077104      1728000    1186.9544        31450         1634 
 6300000   0.98259501    -4.037996      1728000    1188.9008        31500         1639 
 6310000   0.98273263   -3.9514855      1728000    1190.8394        31550         1642 
 6320000   0.99557971   -4.1776328      1728000    1192.7845        31600         1644 
 6330000   0.94521653   -4.1936305      1728000    1194.7113        31650         1646 
 6340000   0.98389711   -4.0066282      1728000    1196.6761        31700         1646 
 6350000   0.98007793   -4.0965631      1728000    1198.6186        31750         1646 
 6360000   0.97701679   -4.1347149      1728000    1200.5592        31800         1648 
 6370000   0.98638773   -4.1385162      1728000    1202.5194        31850         1650 
 6380000    1.0373201    -4.284472      1728000    1204.4424        31900         1651 
 6390000   0.91490323   -4.1256161      1728000    1206.4171        31950         1651 
 6400000   0.97322986   -4.0868388      1728000    1208.3635        32000         1651 
 6410000    1.1069584   -4.1066437      1728000    1210.3514        32050         1654 
 6420000    1.0524078   -4.1966792      1728000    1212.2543        32100         1656 
 6430000   0.98169815   -4.0363348      1728000    1214.1933        32150         1657 
 6440000    1.0620106   -4.0816369      1728000    1216.1202        32200         1658 
 6450000   0.98937555   -4.0774491      1728000    1218.0424        32250         1658 
 6460000    1.0093575   -4.0102222      1728000    1219.9985        32300         1659 
 6470000     1.016644   -4.1015122      1728000    1221.9335        32350         1661 
 6480000    1.0210498   -4.0535661      1728000    1223.8414        32400         1664 
 6490000   0.98950013   -4.0761459      1728000    1225.7377        32450         1667 
 6500000    1.0022183   -4.1236557      1728000    1227.6532        32500         1667 
 6510000    1.0337473   -4.0085581      1728000    1229.5836        32550         1667 
 6520000   0.95167478   -4.1312086      1728000    1231.5142        32600         1669 
 6530000   0.98711762   -4.0885841      1728000    1233.4018        32650         1673 
 6540000   0.93161845   -4.2338304      1728000    1235.3786        32700         1674 
 6550000      1.00191   -3.9571894      1728000    1237.3014        32750         1675 
 6560000   0.99746747   -4.0785129      1728000    1239.2682        32800         1676 
 6570000    0.9644629   -4.1454122      1728000    1241.2443        32850         1676 
 6580000    1.0262642   -4.3064563      1728000    1243.2302        32900         1676 
 6590000   0.96153471   -4.1912234      1728000    1245.1914        32950         1680 
 6600000   0.96220405    -4.186032      1728000    1247.1502        33000         1681 
 6610000    0.9701935   -4.0786584      1728000    1249.0747        33050         1683 
 6620000    1.0452194   -4.2115513      1728000      1251.04        33100         1683 
 6630000    1.0446321   -4.2527704      1728000    1253.0127        33150         1685 
 6640000   0.96926367   -4.1625133      1728000     1255.034        33200         1685 
 6650000    1.0369608   -4.2092893      1728000    1257.0813        33250         1686 
 6660000    1.0725265   -4.1615176      1728000    1259.0983        33300         1686 
 6670000    1.0105245   -4.1129246      1728000    1261.0574        33350         1687 
 6680000   0.95157689   -4.0864634      1728000    1263.0144        33400         1688 
 6690000    1.0139765   -4.0387415      1728000    1264.9244        33450         1691 
 6700000    1.0608539   -4.1186603      1728000    1266.8754        33500         1692 
 6710000   0.98233362   -4.1604077      1728000    1268.8663        33550         1694 
 6720000   0.98110316    -4.212663      1728000    1270.8412        33600         1694 
 6730000   0.97587143   -4.2861855      1728000    1272.7755        33650         1694 
 6740000    1.0362961   -4.1270868      1728000    1274.7344        33700         1695 
 6750000    1.0996235   -4.2160574      1728000     1276.735        33750         1695 
 6760000   0.98600173   -4.1440795      1728000     1278.729        33800         1696 
 6770000    1.0399634   -4.2187306      1728000    1280.7772        33850         1696 
 6780000   0.95055723   -4.1876927      1728000    1282.8584        33900         1697 
 6790000    1.0160391    -4.215927      1728000    1284.8805        33950         1697 
 6800000    1.0166087   -4.2034821      1728000    1286.9598        34000         1699 
 6810000    1.0021838   -4.3755411      1728000    1288.8745        34050         1702 
 6820000    1.0256269   -4.3213678      1728000    1290.8713        34100         1704 
 6830000    1.0470942   -4.2055888      1728000    1292.8374        34150         1705 
 6840000    1.0031286   -4.2481652      1728000    1294.8055        34200         1707 
 6850000   0.98706821   -4.1117953      1728000    1296.7644        34250         1708 
 6860000   0.98179587   -4.1758076      1728000    1298.7251        34300         1709 
 6870000    1.0169929   -4.1914446      1728000    1300.7201        34350         1710 
 6880000   0.97957111   -4.1652003      1728000    1302.7304        34400         1712 
 6890000   0.98734105   -4.3046474      1728000    1304.7095        34450         1712 
 6900000    1.0193047   -4.1245025      1728000    1306.7501        34500         1713 
 6910000    1.0552306   -4.2294814      1728000    1308.8011        34550         1713 
 6920000   0.98481498   -4.1979648      1728000    1310.8675        34600         1714 
 6930000    1.0344512    -4.171492      1728000    1312.8625        34650         1718 
 6940000   0.99698128   -4.1781548      1728000    1314.8293        34700         1720 
 6950000    1.0157527   -4.2222335      1728000    1316.8066        34750         1720 
 6960000   0.94231394   -4.1929433      1728000    1318.8225        34800         1720 
 6970000    1.0170273   -4.1770161      1728000    1320.7765        34850         1723 
 6980000    0.9832457   -4.1664522      1728000    1322.7624        34900         1728 
 6990000    1.0407671    -4.283092      1728000    1324.7614        34950         1729 
 7000000   0.99104602   -4.2932551      1728000    1326.7905        35000         1733 
 7010000   0.93225597   -4.2431928      1728000    1328.7861        35050         1733 
 7020000   0.99297205   -4.3259129      1728000    1330.8812        35100         1735 
 7030000   0.98710047   -4.2050952      1728000    1332.9041        35150         1735 
 7040000     1.001068    -4.321311      1728000    1334.9175        35200         1737 
 7050000     1.075405   -4.4263805      1728000    1336.8854        35250         1741 
 7060000   0.93441024   -4.1761016      1728000    1338.8472        35300         1742 
 7070000    0.9199565    -4.266152      1728000    1340.8819        35350         1744 
 7080000    1.0070863   -4.2702951      1728000    1342.9427        35400         1749 
 7090000    1.0237803    -4.340196      1728000    1344.9412        35450         1751 
 7100000    1.0577041   -4.4329047      1728000    1346.9883        35500         1752 
 7110000   0.92749103   -4.2978841      1728000    1349.0168        35550         1752 
 7120000   0.97343465   -4.2997894      1728000    1351.0664        35600         1753 
 7130000   0.98488019   -4.3614228      1728000    1353.0695        35650         1754 
 7140000   0.92706837   -4.2801209      1728000    1355.0733        35700         1756 
 7150000   0.91783487   -4.1878258      1728000    1357.0983        35750         1757 
 7160000    1.0684808   -4.2387789      1728000    1359.1085        35800         1757 
 7170000    1.0448373   -4.3008892      1728000    1361.0863        35850         1758 
 7180000   0.97746115    -4.365983      1728000    1363.1132        35900         1760 
 7190000    1.0250458   -4.2349049      1728000    1365.1445        35950         1763 
 7200000    1.0291546   -4.3666869      1728000    1367.2307        36000         1764 
 7210000    1.0059262   -4.3306289      1728000    1369.2474        36050         1764 
 7220000     1.025839   -4.4279037      1728000    1371.2385        36100         1764 
 7230000    1.0219197   -4.3338117      1728000    1373.2437        36150         1765 
 7240000    1.0547054    -4.347285      1728000    1375.2826        36200         1765 
 7250000   0.99371317   -4.3867687      1728000    1377.2938        36250         1765 
 7260000   0.99659862   -4.3731187      1728000    1379.3026        36300         1765 
 7270000   0.96201972   -4.4211255      1728000    1381.2917        36350         1766 
 7280000   0.99459543   -4.2798462      1728000    1383.3164        36400         1767 
 7290000    1.0081851    -4.346034      1728000    1385.2898        36450         1768 
 7300000    1.0290267   -4.1675787      1728000    1387.3058        36500         1768 
 7310000   0.97174421   -4.4104765      1728000    1389.2953        36550         1768 
 7320000   0.98168395    -4.335481      1728000    1391.3313        36600         1768 
 7330000   0.96859882   -4.3592303      1728000    1393.3556        36650         1768 
 7340000      1.01382   -4.3169356      1728000    1395.3661        36700         1769 
 7350000   0.98877862   -4.3623431      1728000    1397.3705        36750         1769 
 7360000    1.0160579   -4.2637652      1728000    1399.3676        36800         1769 
 7370000   0.96019275   -4.3675069      1728000    1401.3602        36850         1770 
 7380000    0.9936111   -4.3603111      1728000    1403.3628        36900         1770 
 7390000    1.0139787    -4.293546      1728000    1405.4592        36950         1771 
 7400000   0.95298327   -4.1679855      1728000    1407.5002        37000         1771 
 7410000    1.0141464   -4.3305311      1728000    1409.5853        37050         1773 
 7420000   0.97582224   -4.3912942      1728000    1411.6479        37100         1773 
 7430000    1.0116483   -4.2779732      1728000    1413.6504        37150         1773 
 7440000   0.98173874   -4.3805414      1728000    1415.6992        37200         1774 
 7450000    1.0522465   -4.4158608      1728000    1417.6873        37250         1776 
 7460000   0.99258712   -4.4361891      1728000    1419.6775        37300         1776 
 7470000   0.96203384   -4.3760302      1728000    1421.6966        37350         1776 
 7480000    1.0088378   -4.3065594      1728000    1423.7316        37400         1776 
 7490000    1.0595525    -4.338574      1728000    1425.7613        37450         1777 
 7500000    1.0319117    -4.404407      1728000    1427.7746        37500         1778 
 7510000    0.9753739   -4.2856268      1728000    1429.7603        37550         1779 
 7520000    1.0221935   -4.2737764      1728000    1431.7436        37600         1779 
 7530000   0.97863274   -4.3627471      1728000    1433.7453        37650         1780 
 7540000   0.98340786   -4.2968635      1728000    1435.7435        37700         1782 
 7550000    1.0195646   -4.2593975      1728000    1437.7446        37750         1783 
 7560000   0.98036982   -4.2336569      1728000    1439.7143        37800         1783 
 7570000    1.0463847   -4.3371853      1728000    1441.7436        37850         1783 
 7580000   0.98055161   -4.3245871      1728000    1443.7254        37900         1784 
 7590000    1.0097088   -4.2925759      1728000    1445.7686        37950         1786 
 7600000    1.0074547   -4.1882872      1728000    1447.7793        38000         1786 
 7610000   0.98015278   -4.1935764      1728000     1449.759        38050         1788 
 7620000    1.0280529   -4.3439019      1728000    1451.7347        38100         1788 
 7630000    1.0147076    -4.390575      1728000    1453.7376        38150         1790 
 7640000    1.0632445   -4.3457011      1728000    1455.7223        38200         1790 
 7650000   0.99972398   -4.2898589      1728000    1457.6832        38250         1790 
 7660000    1.0260318   -4.2549465      1728000    1459.6675        38300         1791 
 7670000    1.0147454   -4.3498266      1728000    1461.6641        38350         1792 
 7680000   0.98617389   -4.4058758      1728000    1463.6706        38400         1792 
 7690000    1.0611909   -4.2468085      1728000    1465.6643        38450         1793 
 7700000   0.99392049   -4.2843321      1728000    1467.6497        38500         1793 
 7710000    1.0040738   -4.2755078      1728000    1469.6933        38550         1793 
 7720000    1.0131043   -4.2771484      1728000    1471.6716        38600         1795 
 7730000   0.95354551   -4.3091998      1728000    1473.7146        38650         1795 
 7740000    0.9920598   -4.4213336      1728000    1475.7296        38700         1795 
 7750000   0.99147165   -4.3766692      1728000    1477.7296        38750         1795 
 7760000     0.990041   -4.3647152      1728000    1479.7453        38800         1795 
 7770000    1.0207059   -4.3596677      1728000    1481.7315        38850         1795 
 7780000    1.0120987   -4.4130759      1728000    1483.7346        38900         1796 
 7790000   0.99726596    -4.294572      1728000    1485.7875        38950         1797 
 7800000   0.96386185   -4.3132613      1728000    1487.8109        39000         1798 
 7810000    1.0152647   -4.2998119      1728000    1489.8386        39050         1798 
 7820000    1.0239356   -4.3584715      1728000    1491.8526        39100         1800 
 7830000     1.018535   -4.2054808      1728000    1493.8493        39150         1801 
 7840000   0.98443286   -4.3144878      1728000    1495.8484        39200         1803 
 7850000   0.94377894   -4.2389365      1728000    1497.8275        39250         1803 
 7860000   0.99246123   -4.4584818      1728000    1499.7743        39300         1805 
 7870000    1.0331152   -4.2352506      1728000    1501.7377        39350         1805 
 7880000    1.0635162     -4.34971      1728000    1503.7532        39400         1805 
 7890000    1.0620408   -4.3506672      1728000    1505.7499        39450         1805 
 7900000    1.0317296   -4.3289655      1728000    1507.7606        39500         1805 
 7910000    1.0729383     -4.40268      1728000    1509.8026        39550         1805 
 7920000    1.0097914   -4.2861865      1728000    1511.8177        39600         1806 
 7930000    1.0709893   -4.4576338      1728000    1513.8472        39650         1806 
 7940000   0.98907283   -4.3211251      1728000    1515.8646        39700         1806 
 7950000    1.0800055    -4.390981      1728000    1517.8918        39750         1806 
 7960000   0.93972447   -4.3100365      1728000    1519.9126        39800         1806 
 7970000   0.97080236   -4.2892774      1728000    1521.9642        39850         1807 
 7980000    1.0033213   -4.2870591      1728000    1523.9944        39900         1807 
 7990000   0.97762028   -4.3374481      1728000    1526.0227        39950         1807 
 8000000    1.0536269   -4.3158549      1728000    1528.0656        40000         1807 
 8010000    1.0442829   -4.4081414      1728000    1530.0458        40050         1807 
 8020000    1.0460908    -4.327117      1728000    1532.0137        40100         1807 
 8030000   0.99579545   -4.2794606      1728000    1533.9544        40150         1808 
 8040000   0.99489623   -4.2566628      1728000    1535.9168        40200         1808 
 8050000     1.019919    -4.262946      1728000    1537.8868        40250         1808 
 8060000    1.0026985   -4.3236447      1728000    1539.9171        40300         1811 
 8070000   0.96341031   -4.4235659      1728000    1541.9468        40350         1811 
 8080000   0.97456838   -4.3231012      1728000     1543.975        40400         1811 
 8090000   0.93371821   -4.3861369      1728000    1546.0057        40450         1811 
 8100000   0.98534983   -4.3521362      1728000    1548.0126        40500         1812 
 8110000     1.058011   -4.2076865      1728000    1549.9472        40550         1812 
 8120000    1.0077235   -4.4486722      1728000    1551.9277        40600         1812 
 8130000    1.0327821    -4.322509      1728000    1553.9121        40650         1812 
 8140000    1.0094757    -4.352436      1728000    1555.9607        40700         1813 
 8150000   0.96340153   -4.3280709      1728000    1557.9535        40750         1813 
 8160000    1.0247371   -4.2372524      1728000     1559.968        40800         1813 
 8170000   0.97288194   -4.2345994      1728000    1561.9733        40850         1813 
 8180000    1.0445859   -4.3408916      1728000    1563.9777        40900         1813 
 8190000   0.98159371   -4.3374013      1728000    1565.9977        40950         1815 
 8200000     1.036314   -4.4114492      1728000    1567.9637        41000         1815 
 8210000    1.0249395   -4.3407685      1728000    1569.9738        41050         1816 
 8220000   0.98092575   -4.3064499      1728000    1572.0327        41100         1816 
 8230000    1.0070322   -4.2927334      1728000    1574.0219        41150         1817 
 8240000    1.0400534   -4.3143097      1728000    1576.0148        41200         1817 
 8250000   0.98796567   -4.3436807      1728000    1578.0876        41250         1817 
 8260000    1.0492457   -4.3332961      1728000    1580.1212        41300         1817 
 8270000   0.94748979   -4.3241195      1728000    1582.1411        41350         1818 
 8280000   0.96918438   -4.1222131      1728000    1584.1007        41400         1818 
 8290000    1.0330365   -4.2903355      1728000    1586.1085        41450         1818 
 8300000   0.94238399   -4.3892933      1728000    1588.1227        41500         1818 
 8310000   0.96777907   -4.3133491      1728000    1590.1049        41550         1818 
 8320000    1.0056045   -4.2554649      1728000     1592.093        41600         1818 
 8330000     1.042059   -4.2552255      1728000    1594.0557        41650         1818 
 8340000    1.0684153   -4.3450875      1728000    1596.0938        41700         1819 
 8350000    1.0465756   -4.3926442      1728000    1598.1839        41750         1819 
 8360000   0.97876012   -4.2555428      1728000    1600.2438        41800         1819 
 8370000    1.0182433   -4.3459903      1728000    1602.3038        41850         1820 
 8380000    1.0991526   -4.3117742      1728000    1604.3388        41900         1820 
 8390000    0.9848952     -4.22568      1728000    1606.3896        41950         1820 
 8400000     1.028949   -4.3409798      1728000    1608.4826        42000         1821 
 8410000   0.97060464   -4.3032831      1728000    1610.5209        42050         1822 
 8420000    1.0446847   -4.4239963      1728000    1612.5283        42100         1822 
 8430000   0.98955289   -4.4836111      1728000    1614.5724        42150         1822 
 8440000   0.95929676    -4.400731      1728000     1616.606        42200         1822 
 8450000    1.0029492   -4.3706783      1728000    1618.6431        42250         1822 
 8460000     0.986704   -4.4000407      1728000    1620.6679        42300         1823 
 8470000    1.0003764   -4.3340051      1728000    1622.6737        42350         1824 
 8480000   0.99814546   -4.3798814      1728000    1624.7013        42400         1824 
 8490000     0.978765   -4.3569566      1728000     1626.789        42450         1824 
 8500000     1.017486   -4.3870941      1728000    1628.8108        42500         1825 
 8510000    1.0027104   -4.2220416      1728000    1630.7898        42550         1825 
 8520000   0.98737412   -4.3835562      1728000     1632.791        42600         1825 
 8530000   0.89334999   -4.2422689      1728000    1634.8538        42650         1825 
 8540000   0.98589331   -4.2034007      1728000    1636.9224        42700         1825 
 8550000    1.0068816   -4.3265447      1728000    1638.9903        42750         1826 
 8560000   0.97790155   -4.4356124      1728000    1640.9978        42800         1826 
 8570000    1.0068395   -4.3513344      1728000    1643.0067        42850         1826 
 8580000    1.0666484   -4.4068639      1728000    1645.0328        42900         1827 
 8590000   0.99193843   -4.3723853      1728000    1647.0548        42950         1827 
 8600000   0.98296199   -4.4218719      1728000    1649.0828        43000         1827 
 8610000    1.0127494   -4.3103515      1728000    1651.0939        43050         1828 
 8620000    1.0246778   -4.3207842      1728000     1653.083        43100         1829 
 8630000    1.0211712   -4.3458917      1728000    1655.1048        43150         1829 
 8640000    1.0204687   -4.5204155      1728000    1657.1316        43200         1829 
 8650000    1.0196831   -4.3483046      1728000    1659.1345        43250         1830 
 8660000    1.0377679   -4.3612122      1728000    1661.1537        43300         1830 
 8670000   0.97599344   -4.2784645      1728000    1663.1879        43350         1831 
 8680000   0.95913609    -4.370902      1728000    1665.1957        43400         1832 
 8690000    1.0275216   -4.3728644      1728000    1667.2136        43450         1832 
 8700000     0.962753     -4.38223      1728000    1669.2484        43500         1832 
 8710000   0.99262051   -4.3955551      1728000    1671.2908        43550         1832 
 8720000     1.010498   -4.3782852      1728000    1673.2668        43600         1832 
 8730000    1.0107484   -4.4611746      1728000    1675.2978        43650         1833 
 8740000    1.0023465   -4.1962339      1728000    1677.3257        43700         1835 
 8750000   0.98158156   -4.1902535      1728000    1679.3617        43750         1835 
 8760000    1.0644842   -4.3184806      1728000    1681.3256        43800         1836 
 8770000    1.0198997   -4.2356697      1728000    1683.2689        43850         1836 
 8780000    1.0092682   -4.3275603      1728000    1685.2798        43900         1838 
 8790000   0.98925252   -4.2236348      1728000    1687.3551        43950         1838 
 8800000    1.0048865   -4.2872194      1728000    1689.4006        44000         1840 
 8810000   0.95834743   -4.4210368      1728000     1691.452        44050         1843 
 8820000    1.0565431   -4.3927781      1728000    1693.5028        44100         1843 
 8830000    1.0379754   -4.4488948      1728000    1695.5219        44150         1843 
 8840000    1.0578866    -4.427718      1728000    1697.5309        44200         1843 
 8850000    1.0134258   -4.3007884      1728000    1699.5655        44250         1843 
 8860000   0.99069523    -4.460072      1728000     1701.605        44300         1844 
 8870000   0.97391936   -4.3501651      1728000    1703.6529        44350         1844 
 8880000   0.90951749   -4.1909435      1728000     1705.641        44400         1845 
 8890000   0.99441239   -4.2797353      1728000    1707.7067        44450         1845 
 8900000    1.0105086    -4.285545      1728000    1709.7487        44500         1845 
 8910000   0.91364792   -4.3480205      1728000    1711.7384        44550         1845 
 8920000    1.0447528   -4.3551658      1728000    1713.7564        44600         1845 
 8930000   0.96938899   -4.3695026      1728000    1715.8286        44650         1845 
 8940000   0.98586171   -4.3685438      1728000    1717.8121        44700         1845 
 8950000    1.0021447   -4.3806815      1728000    1719.8039        44750         1845 
 8960000    1.0023378   -4.2987578      1728000    1721.8229        44800         1845 
 8970000   0.98326053   -4.2510524      1728000    1723.7879        44850         1845 
 8980000     1.027306   -4.4214273      1728000    1725.8591        44900         1845 
 8990000    0.9829134   -4.3994837      1728000    1727.9128        44950         1846 
 9000000    0.9589948   -4.2300804      1728000    1729.9728        45000         1846 
 9010000      1.00186   -4.3480828      1728000    1731.9544        45050         1847 
 9020000    1.0171674   -4.3435025      1728000    1733.9139        45100         1848 
 9030000   0.95942599   -4.2013705      1728000    1735.9078        45150         1849 
 9040000   0.95275004   -4.3077055      1728000     1737.884        45200         1849 
 9050000   0.96398001   -4.2576894      1728000    1739.8388        45250         1850 
 9060000    1.0184279   -4.3751415      1728000    1741.8379        45300         1850 
 9070000   0.97533532   -4.3498769      1728000    1743.8689        45350         1850 
 9080000    1.0538286   -4.3248089      1728000    1745.8882        45400         1851 
 9090000    1.0288882   -4.3967328      1728000    1747.9178        45450         1851 
 9100000    1.0194731   -4.2799845      1728000    1749.8809        45500         1852 
 9110000    1.0530481   -4.3952684      1728000    1751.8971        45550         1852 
 9120000    1.0522309   -4.4227775      1728000    1753.9169        45600         1852 
 9130000    1.0199081   -4.4315727      1728000    1755.9453        45650         1852 
 9140000    1.0189337   -4.3614473      1728000    1757.9659        45700         1852 
 9150000    1.0046168   -4.3160414      1728000    1759.9976        45750         1852 
 9160000     1.005468   -4.3505438      1728000    1762.0267        45800         1854 
 9170000   0.97415923   -4.2579446      1728000    1764.0142        45850         1854 
 9180000    1.0090429   -4.4503594      1728000    1766.0511        45900         1854 
 9190000   0.96840041   -4.3122282      1728000    1768.0268        45950         1855 
 9200000    1.0067841   -4.2247225      1728000    1770.0136        46000         1855 
 9210000    1.0192738   -4.2437069      1728000    1772.0398        46050         1855 
 9220000   0.96275449   -4.2669715      1728000    1774.0389        46100         1855 
 9230000   0.97540009   -4.4967269      1728000     1776.075        46150         1856 
 9240000    1.0424994   -4.2542675      1728000    1778.0787        46200         1856 
 9250000    1.0238874   -4.3773472      1728000     1780.085        46250         1857 
 9260000    1.0190306   -4.2504288      1728000    1782.1199        46300         1858 
 9270000     1.040052   -4.1535189      1728000    1784.1041        46350         1858 
 9280000    1.0082885   -4.2999932      1728000    1786.1307        46400         1861 
 9290000    1.0071102   -4.3462074      1728000    1788.1149        46450         1863 
 9300000   0.99875746   -4.3031984      1728000    1790.1663        46500         1863 
 9310000     1.056007   -4.3695652      1728000    1792.1687        46550         1865 
 9320000    1.0133937   -4.4070985      1728000     1794.229        46600         1865 
 9330000   0.98193887   -4.2756648      1728000    1796.2117        46650         1867 
 9340000    1.0087972   -4.4085617      1728000    1798.1979        46700         1867 
 9350000    1.0135807   -4.2975251      1728000    1800.1667        46750         1867 
 9360000    1.0073134   -4.3673676      1728000    1802.1208        46800         1868 
 9370000   0.98129758   -4.3021144      1728000    1804.1319        46850         1870 
 9380000    1.0283731   -4.2776319      1728000    1806.1229        46900         1870 
 9390000    1.0308064   -4.2625258      1728000    1808.1389        46950         1871 
 9400000   0.92947619   -4.2938732      1728000    1810.2303        47000         1872 
 9410000   0.97908222   -4.3381778      1728000     1812.298        47050         1873 
 9420000   0.97551159   -4.3919376      1728000     1814.364        47100         1875 
 9430000     1.014414   -4.3770586      1728000    1816.3857        47150         1875 
 9440000   0.98331259   -4.2926423      1728000    1818.4111        47200         1876 
 9450000   0.93443621   -4.5448381      1728000    1820.3967        47250         1876 
 9460000   0.99752784   -4.3258244      1728000     1822.396        47300         1876 
 9470000   0.94387228   -4.2510501      1728000    1824.4287        47350         1877 
 9480000     1.014239   -4.3825269      1728000     1826.442        47400         1877 
 9490000   0.99822817   -4.4871922      1728000     1828.481        47450         1877 
 9500000    1.0126677   -4.3630452      1728000    1830.5351        47500         1878 
 9510000   0.96014443   -4.2406862      1728000    1832.6168        47550         1878 
 9520000   0.96278814   -4.4135984      1728000    1834.6497        47600         1878 
 9530000   0.98660281   -4.1742305      1728000    1836.6702        47650         1878 
 9540000    1.0653245   -4.2625992      1728000    1838.6697        47700         1879 
 9550000   0.99814407   -4.4213249      1728000    1840.7279        47750         1879 
 9560000   0.94546788    -4.309499      1728000    1842.7563        47800         1880 
 9570000   0.95812255    -4.328006      1728000    1844.7745        47850         1880 
 9580000   0.94773661   -4.5139861      1728000    1846.8068        47900         1881 
 9590000    1.0068071   -4.4682246      1728000    1848.7892        47950         1881 
 9600000    1.0180507    -4.367423      1728000    1850.8337        48000         1881 
 9610000   0.99499501   -4.3164382      1728000    1852.8358        48050         1881 
 9620000     1.027812   -4.4790755      1728000    1854.8507        48100         1881 
 9630000    1.0033227   -4.2054177      1728000    1856.8808        48150         1882 
 9640000   0.98877544   -4.2432236      1728000     1858.928        48200         1882 
 9650000   0.98077193   -4.3435577      1728000    1860.9327        48250         1884 
 9660000    1.0248543   -4.3591443      1728000    1862.9483        48300         1884 
 9670000     1.070076   -4.3505784      1728000    1865.0101        48350         1884 
 9680000    1.0785707   -4.3001542      1728000    1867.0531        48400         1884 
 9690000    1.0229453   -4.3666154      1728000    1869.0645        48450         1884 
 9700000    1.0460685   -4.3156185      1728000    1871.0741        48500         1884 
 9710000   0.98407651   -4.3741925      1728000      1873.09        48550         1885 
 9720000    1.0389625   -4.3329876      1728000    1875.0907        48600         1885 
 9730000    1.0349164   -4.2844036      1728000    1877.0852        48650         1885 
 9740000    1.0399557   -4.3387825      1728000     1879.121        48700         1885 
 9750000   0.98374642     -4.31812      1728000    1881.1758        48750         1886 
 9760000   0.98052882   -4.3047279      1728000    1883.2238        48800         1886 
 9770000   0.97005801   -4.3982163      1728000    1885.2692        48850         1887 
 9780000   0.96928217   -4.3083778      1728000      1887.31        48900         1888 
 9790000      1.06358   -4.3241433      1728000    1889.3543        48950         1888 
 9800000    0.9721951    -4.295191      1728000    1891.4351        49000         1888 
 9810000   0.97324494   -4.2797163      1728000    1893.4913        49050         1888 
 9820000    0.9982912   -4.3870205      1728000    1895.5625        49100         1888 
 9830000   0.99909219   -4.3762604      1728000     1897.585        49150         1888 
 9840000   0.96618187   -4.4022762      1728000     1899.638        49200         1888 
 9850000   0.93938899   -4.3329941      1728000    1901.6982        49250         1890 
 9860000   0.92370612   -4.3719559      1728000     1903.671        49300         1890 
 9870000    1.0260169   -4.3420493      1728000    1905.6871        49350         1890 
 9880000    1.0147796   -4.2863716      1728000    1907.6901        49400         1890 
 9890000   0.97611653   -4.4146586      1728000    1909.7083        49450         1892 
 9900000   0.97423882   -4.4202117      1728000    1911.7401        49500         1892 
 9910000   0.99552873   -4.4382465      1728000    1913.8231        49550         1892 
 9920000   0.98222233   -4.2903724      1728000    1915.8533        49600         1892 
 9930000   0.95567191   -4.4485396      1728000     1917.894        49650         1893 
 9940000    1.0316862   -4.3700595      1728000    1919.9334        49700         1893 
 9950000   0.99546791   -4.2926175      1728000     1921.971        49750         1893 
 9960000   0.98709687   -4.2120025      1728000    1924.0203        49800         1894 
 9970000    1.0176682   -4.4154718      1728000    1926.0367        49850         1894 
 9980000   0.99365207   -4.4269958      1728000    1928.1008        49900         1894 
 9990000    1.0001908   -4.3126083      1728000    1930.1024        49950         1894 
10000000   0.99658928   -4.3780706      1728000    1932.1809        50000         1895 
10010000    1.0451462   -4.2873502      1728000     1934.212        50050         1895 
10020000   0.99429913   -4.2896185      1728000    1936.2687        50100         1895 
10030000    1.0473754   -4.3510886      1728000    1938.3271        50150         1895 
10040000    1.0091199   -4.4592969      1728000    1940.3601        50200         1895 
10050000   0.98676747   -4.4055682      1728000    1942.3799        50250         1895 
10060000    1.0059389   -4.3479733      1728000     1944.432        50300         1895 
10070000    1.0591742   -4.3950138      1728000    1946.4329        50350         1895 
10080000     1.016328    -4.448958      1728000    1948.4613        50400         1895 
10090000   0.98116599   -4.3563166      1728000    1950.5115        50450         1895 
10100000   0.97618548   -4.2754843      1728000    1952.5476        50500         1895 
10110000   0.97571064   -4.2370339      1728000    1954.5529        50550         1896 
10120000    1.0157552   -4.3816927      1728000    1956.6001        50600         1896 
10130000    1.0033889   -4.4106129      1728000    1958.6223        50650         1896 
10140000    1.0465246   -4.4165407      1728000    1960.6191        50700         1896 
10150000   0.99773905    -4.413766      1728000    1962.6304        50750         1897 
10160000    1.0400518   -4.5102495      1728000    1964.6538        50800         1897 
10170000   0.99157679   -4.3615257      1728000    1966.6811        50850         1897 
10180000   0.95898888   -4.3118522      1728000    1968.7464        50900         1897 
10190000    1.0208105   -4.2742255      1728000    1970.7482        50950         1897 
10200000   0.97345702   -4.4172655      1728000     1972.778        51000         1897 
10210000   0.97703667   -4.3649233      1728000    1974.7779        51050         1897 
10220000    1.0211345   -4.4147188      1728000    1976.8701        51100         1898 
10230000   0.98890955   -4.2786502      1728000    1979.0345        51150         1899 
10240000   0.98050717    -4.357665      1728000     1981.203        51200         1900 
10250000   0.94441819   -4.4522201      1728000    1983.3541        51250         1900 
10260000    1.0044743   -4.3148434      1728000    1985.4337        51300         1900 
10270000   0.94892222   -4.3940001      1728000    1987.4361        51350         1900 
10280000   0.97078253   -4.4419708      1728000    1989.4907        51400         1900 
10290000    1.0244762   -4.2688673      1728000    1991.4991        51450         1901 
10300000   0.97676247   -4.3568311      1728000    1993.5087        51500         1901 
10310000   0.98896133   -4.2569278      1728000    1995.5299        51550         1901 
10320000     1.014637   -4.3353962      1728000    1997.5964        51600         1901 
10330000   0.99232494    -4.226648      1728000    1999.5838        51650         1901 
10340000   0.98520535   -4.3628957      1728000    2001.6154        51700         1901 
10350000   0.99329422   -4.3853974      1728000      2003.65        51750         1901 
10360000   0.98456071   -4.3645184      1728000       2005.7        51800         1902 
10370000    1.0213697   -4.2954507      1728000    2007.7322        51850         1902 
10380000    1.0424998   -4.3502181      1728000    2009.7681        51900         1902 
10390000     1.006149   -4.3536956      1728000     2011.774        51950         1903 
10400000    1.0001026   -4.4460047      1728000    2013.7529        52000         1904 
10410000   0.99178624   -4.3375464      1728000    2015.7972        52050         1904 
10420000    1.0502801   -4.3932172      1728000    2017.8533        52100         1904 
10430000   0.95480889   -4.3955207      1728000    2019.9359        52150         1904 
10440000   0.97758754   -4.4687916      1728000    2021.9584        52200         1904 
10450000     1.049199   -4.5169869      1728000    2023.9552        52250         1904 
10460000    1.0818994   -4.4764489      1728000    2026.0149        52300         1904 
10470000   0.94453727    -4.522952      1728000    2028.0542        52350         1904 
10480000   0.96419025   -4.3230283      1728000    2030.0664        52400         1904 
10490000    1.0159465   -4.4117646      1728000    2032.0862        52450         1904 
10500000   0.96202028    -4.426248      1728000    2034.0972        52500         1904 
10510000    1.0232718   -4.3515042      1728000     2036.129        52550         1904 
10520000    1.0834953   -4.3945149      1728000    2038.1913        52600         1904 
10530000   0.94189109   -4.2444589      1728000    2040.2252        52650         1904 
10540000    1.0451315   -4.3942561      1728000    2042.2192        52700         1904 
10550000   0.96614702   -4.4780061      1728000    2044.2144        52750         1904 
10560000    1.0087401   -4.4113028      1728000    2046.2656        52800         1905 
10570000    1.0170129   -4.3375701      1728000    2048.2907        52850         1905 
10580000    1.0106807   -4.3177495      1728000    2050.3124        52900         1906 
10590000   0.97636587   -4.4344686      1728000    2052.4094        52950         1906 
10600000   0.92360102   -4.4349715      1728000    2054.4799        53000         1906 
10610000    1.0115502    -4.393921      1728000    2056.5385        53050         1906 
10620000    1.0571479   -4.3114384      1728000    2058.5933        53100         1906 
10630000    1.0506898    -4.346525      1728000    2060.6152        53150         1906 
10640000   0.91481409    -4.291636      1728000    2062.6546        53200         1906 
10650000    1.0614924    -4.366481      1728000    2064.6871        53250         1906 
10660000    1.0590577   -4.3925689      1728000    2066.7403        53300         1906 
10670000    1.0726736   -4.2722083      1728000    2068.7694        53350         1906 
10680000   0.96390875   -4.3089113      1728000     2070.749        53400         1906 
10690000    1.0153893   -4.4156124      1728000    2072.7415        53450         1906 
10700000    0.9974463   -4.4941606      1728000    2074.7479        53500         1906 
10710000    1.0674979   -4.3692444      1728000    2076.7294        53550         1906 
10720000   0.99181058   -4.3936164      1728000    2078.6996        53600         1906 
10730000   0.98876536   -4.3539607      1728000    2080.6862        53650         1906 
10740000   0.98896295   -4.4381219      1728000    2082.6835        53700         1906 
10750000   0.94059363   -4.2885512      1728000    2084.7019        53750         1906 
10760000    1.0139108   -4.4865365      1728000     2086.741        53800         1907 
10770000   0.95695166   -4.4526202      1728000    2088.7911        53850         1907 
10780000   0.98702695   -4.4352661      1728000    2090.8187        53900         1908 
10790000   0.97810205   -4.4076784      1728000    2092.8113        53950         1913 
10800000   0.95533507   -4.4018661      1728000    2094.8081        54000         1914 
10810000    1.0481793   -4.3646329      1728000    2096.8356        54050         1914 
10820000    1.0225837   -4.3436413      1728000    2098.9017        54100         1915 
10830000    1.0434513   -4.2761312      1728000    2100.9842        54150         1915 
10840000    0.9728816   -4.3394362      1728000    2103.0557        54200         1918 
10850000    1.0354308   -4.2445383      1728000    2105.0293        54250         1919 
10860000   0.95504056   -4.3664589      1728000     2107.029        54300         1920 
10870000    1.0636675   -4.4016523      1728000    2109.0782        54350         1920 
10880000   0.99936331   -4.3386605      1728000    2111.1391        54400         1920 
10890000    1.0019153   -4.2545671      1728000    2113.2736        54450         1922 
10900000    1.0051901   -4.2798841      1728000    2115.3346        54500         1924 
10910000     1.001848   -4.1791153      1728000    2117.3797        54550         1924 
10920000   0.96232991   -4.2887697      1728000    2119.3953        54600         1924 
10930000   0.97079465   -4.1978372      1728000    2121.3831        54650         1924 
10940000     1.004591   -4.2212362      1728000     2123.437        54700         1924 
10950000   0.91404519   -4.2409925      1728000    2125.4972        54750         1927 
10960000    1.0446407   -4.2794813      1728000    2127.5493        54800         1927 
10970000   0.97808244   -4.3473878      1728000    2129.5933        54850         1927 
10980000   0.98597086   -4.2022023      1728000    2131.5646        54900         1928 
10990000   0.99608585   -4.3490364      1728000    2133.5961        54950         1928 
11000000   0.95347792   -4.3591297      1728000    2135.6644        55000         1928 
11010000    1.0234465   -4.2349205      1728000    2137.6354        55050         1930 
11020000    1.0124877   -4.3307638      1728000    2139.6242        55100         1931 
11030000     1.008949   -4.3739111      1728000    2141.6725        55150         1932 
11040000   0.97129645    -4.407026      1728000    2143.6592        55200         1933 
11050000    1.0048071   -4.4292264      1728000    2145.6732        55250         1934 
11060000   0.98585561   -4.3734735      1728000    2147.6583        55300         1934 
11070000   0.97445464   -4.2991866      1728000    2149.6775        55350         1935 
11080000   0.97387987   -4.3612605      1728000    2151.7143        55400         1937 
11090000    1.0662729   -4.3069786      1728000    2153.6953        55450         1937 
11100000   0.99214804   -4.1870376      1728000     2155.704        55500         1937 
11110000    1.0488152   -4.4544736      1728000    2157.7172        55550         1938 
11120000   0.93156662   -4.3144271      1728000    2159.7076        55600         1938 
11130000   0.95639461   -4.2915117      1728000    2161.7277        55650         1939 
11140000   0.96248866   -4.2841354      1728000    2163.7303        55700         1939 
11150000    1.0463834   -4.3251543      1728000    2165.7136        55750         1940 
11160000    1.0091205    -4.249138      1728000    2167.7591        55800         1940 
11170000   0.94401517   -4.2452806      1728000    2169.7639        55850         1942 
11180000     0.956618   -4.1759104      1728000    2171.7684        55900         1942 
11190000    1.0665748   -4.2483024      1728000    2173.8005        55950         1943 
11200000    1.0311358   -4.3221262      1728000    2175.8138        56000         1943 
11210000    0.9814464   -4.2424184      1728000    2177.7234        56050         1943 
11220000   0.97194651   -4.3061532      1728000    2179.5864        56100         1945 
11230000   0.98830799   -4.3672446      1728000    2181.4669        56150         1948 
11240000    1.0076707   -4.2266085      1728000    2183.3469        56200         1948 
11250000    1.0223413   -4.2579772      1728000    2185.2088        56250         1949 
11260000   0.97768817   -4.3119348      1728000    2187.0806        56300         1949 
11270000    1.0041834    -4.210163      1728000    2188.9994        56350         1949 
11280000    1.0266016   -4.3051163      1728000    2190.8654        56400         1951 
11290000    1.0346089   -4.1986844      1728000    2192.7172        56450         1951 
11300000   0.96548123   -4.2218467      1728000    2194.5904        56500         1951 
11310000   0.97148908    -4.368145      1728000    2196.4553        56550         1951 
11320000   0.96914839   -4.3174568      1728000    2198.3344        56600         1951 
11330000     1.003029   -4.3327123      1728000    2200.2015        56650         1951 
11340000   0.98833957   -4.2654393      1728000    2202.0844        56700         1951 
11350000    1.0328265   -4.2903166      1728000    2203.9764        56750         1952 
11360000   0.99679018   -4.1980464      1728000    2205.8609        56800         1953 
11370000    1.0315234   -4.2675272      1728000    2207.7273        56850         1954 
11380000    1.0037056   -4.2315468      1728000    2209.6074        56900         1954 
11390000    1.0333175   -4.2051276      1728000    2211.4784        56950         1954 
11400000   0.92667913   -4.2597019      1728000    2213.3442        57000         1955 
11410000    1.0318687   -4.1595712      1728000    2215.2184        57050         1955 
11420000   0.91043205   -4.3461108      1728000    2217.0783        57100         1955 
11430000   0.95063576   -4.4324183      1728000    2218.9424        57150         1955 
11440000   0.98320728   -4.3572536      1728000    2220.8337        57200         1956 
11450000    1.0054839   -4.3650543      1728000    2222.7004        57250         1956 
11460000   0.97174652   -4.3724707      1728000    2224.5766        57300         1957 
11470000     1.003872   -4.2760799      1728000    2226.4453        57350         1957 
11480000    1.0293931   -4.3136095      1728000    2228.2965        57400         1957 
11490000   0.94594385   -4.3790649      1728000     2230.166        57450         1958 
11500000   0.99153105   -4.3015358      1728000    2232.0385        57500         1958 
11510000    1.0554491   -4.3567479      1728000    2233.9309        57550         1958 
11520000   0.96549069   -4.2776267      1728000     2235.779        57600         1960 
11530000    1.0563523   -4.3814462      1728000    2237.6724        57650         1962 
11540000    1.0500128   -4.2860372      1728000    2239.5587        57700         1962 
11550000    1.0558351   -4.3511669      1728000    2241.4324        57750         1962 
11560000    1.0071353    -4.366956      1728000    2243.3023        57800         1962 
11570000    1.0307316   -4.2915076      1728000    2245.1614        57850         1962 
11580000      1.03106   -4.2832319      1728000    2247.0443        57900         1962 
11590000    1.0166917    -4.418988      1728000    2248.9065        57950         1962 
11600000    1.0046649   -4.4066361      1728000    2250.8013        58000         1962 
11610000    1.0086112   -4.3298452      1728000    2252.6634        58050         1963 
11620000    1.0161272   -4.2963787      1728000    2254.5285        58100         1963 
11630000   0.91527644   -4.2535182      1728000    2256.3885        58150         1963 
11640000    1.0324893   -4.3126396      1728000    2258.2575        58200         1964 
11650000    1.0216004   -4.2672679      1728000    2260.1205        58250         1964 
11660000    1.0005479   -4.2837372      1728000    2261.9655        58300         1965 
11670000    1.0432889   -4.2684254      1728000    2263.8315        58350         1965 
11680000   0.99546753   -4.3394133      1728000    2265.7215        58400         1965 
11690000    1.0449045   -4.2966766      1728000    2267.5885        58450         1965 
11700000    1.0194179   -4.3249207      1728000    2269.4561        58500         1965 
11710000    1.0167306   -4.4677943      1728000    2271.3228        58550         1965 
11720000   0.95181769    -4.349848      1728000    2273.2144        58600         1965 
11730000   0.99669148   -4.3259846      1728000    2275.0745        58650         1965 
11740000    1.0001386   -4.4757848      1728000    2276.9547        58700         1966 
11750000    1.0078734   -4.5357104      1728000    2278.8506        58750         1966 
11760000   0.92805257   -4.4297111      1728000    2280.7481        58800         1966 
11770000    1.0488859   -4.3395796      1728000    2282.6355        58850         1966 
11780000    1.0123065   -4.3845852      1728000    2284.5115        58900         1966 
11790000   0.97677434   -4.5159999      1728000    2286.4083        58950         1966 
11800000   0.93059041   -4.2546327      1728000    2288.3245        59000         1967 
11810000   0.99389936   -4.3978485      1728000    2290.2224        59050         1967 
11820000    0.9566016   -4.4794007      1728000    2292.1725        59100         1967 
11830000    1.0397661   -4.2766588      1728000    2294.1444        59150         1967 
11840000   0.96631902   -4.4571409      1728000    2296.0957        59200         1968 
11850000    1.0491458   -4.2451437      1728000    2298.1735        59250         1968 
11860000   0.97813552   -4.3354287      1728000    2300.3093        59300         1968 
11870000    1.0141545   -4.4905149      1728000    2302.4145        59350         1968 
11880000   0.94391792   -4.3397479      1728000    2304.3275        59400         1969 
11890000   0.96193276   -4.3162676      1728000    2306.2759        59450         1969 
11900000   0.97405331   -4.3167035      1728000    2308.2274        59500         1970 
11910000   0.97523991   -4.5276618      1728000    2310.1475        59550         1970 
11920000   0.94012039   -4.3802099      1728000    2312.1035        59600         1971 
11930000    0.9793176   -4.3508475      1728000    2314.0028        59650         1972 
11940000    1.0071696   -4.3470273      1728000    2315.9305        59700         1972 
11950000    1.0534152   -4.4043588      1728000    2317.8265        59750         1972 
11960000   0.98013399   -4.3770725      1728000    2319.7294        59800         1972 
11970000   0.95708099   -4.5056093      1728000    2321.6296        59850         1972 
11980000    1.0349215   -4.3755419      1728000    2323.5156        59900         1972 
11990000   0.98759017    -4.282654      1728000    2325.4256        59950         1972 
12000000    1.0115896   -4.3119501      1728000    2327.6565        60000         1973 
12010000   0.99635713   -4.2943699      1728000    2329.7342        60050         1974 
12020000    1.0305818   -4.4062746      1728000    2331.7317        60100         1974 
12030000    0.9672631   -4.4511711      1728000    2333.7915        60150         1974 
12040000    1.0251781   -4.4354071      1728000    2335.8605        60200         1974 
12050000    1.0338696   -4.3500096      1728000    2337.9019        60250         1974 
12060000   0.96529159   -4.2381794      1728000    2339.9195        60300         1974 
12070000     1.042743   -4.3890986      1728000    2342.0494        60350         1974 
12080000    1.0031207   -4.4328241      1728000    2344.1095        60400         1975 
12090000    1.0171336   -4.3360611      1728000    2346.1703        60450         1975 
12100000    1.0348509   -4.3735026      1728000    2348.2125        60500         1975 
12110000   0.97780491   -4.3999296      1728000    2350.2381        60550         1975 
12120000   0.90646897   -4.3363511      1728000    2352.2412        60600         1976 
12130000    1.0624433   -4.3226819      1728000    2354.2662        60650         1976 
12140000   0.94830696   -4.3019414      1728000    2356.3061        60700         1976 
12150000    1.0548307   -4.3365951      1728000    2358.3242        60750         1976 
12160000   0.93971161   -4.3578782      1728000    2360.3725        60800         1976 
12170000   0.96230066   -4.3654781      1728000    2362.3587        60850         1976 
12180000    1.0067316    -4.373024      1728000    2364.3066        60900         1977 
12190000     1.050898   -4.2192983      1728000    2366.3439        60950         1977 
12200000    1.0211572   -4.3518449      1728000      2368.47        61000         1977 
12210000    1.0115291   -4.3460546      1728000    2370.5156        61050         1978 
12220000    1.0335606   -4.2608828      1728000    2372.5359        61100         1978 
12230000    1.0454966   -4.3358857      1728000    2374.5773        61150         1980 
12240000    1.0204348   -4.3901231      1728000    2376.6248        61200         1980 
12250000   0.99511026   -4.3682855      1728000    2378.7026        61250         1980 
12260000   0.95521171   -4.3343866      1728000    2380.6996        61300         1980 
12270000    1.0836942   -4.4217204      1728000    2382.7076        61350         1980 
12280000   0.96389961    -4.406172      1728000    2384.7095        61400         1980 
12290000    1.0304549   -4.3556611      1728000    2386.7228        61450         1981 
12300000    1.0244057   -4.4324904      1728000    2388.7465        61500         1981 
12310000    1.0498867   -4.1521192      1728000    2390.7706        61550         1983 
12320000   0.95991747    -4.337854      1728000    2392.8056        61600         1983 
12330000   0.93208976   -4.2564742      1728000    2394.8305        61650         1983 
12340000     1.033131   -4.2881487      1728000    2396.8595        61700         1984 
12350000   0.98283218   -4.2277813      1728000    2398.8615        61750         1984 
12360000   0.91880903    -4.218577      1728000    2400.8887        61800         1984 
12370000   0.98374336   -4.3360431      1728000    2402.9217        61850         1984 
12380000    1.0301341   -4.2354475      1728000    2404.9668        61900         1984 
12390000   0.99646206   -4.3970381      1728000    2406.9854        61950         1984 
12400000    0.9690808   -4.3724224      1728000    2409.0785        62000         1985 
12410000    1.0394422   -4.3586476      1728000    2411.1166        62050         1985 
12420000   0.89527332   -4.5249484      1728000    2413.1995        62100         1985 
12430000    1.0040137   -4.3718946      1728000    2415.1838        62150         1985 
12440000    1.0283556   -4.4237722      1728000    2417.1593        62200         1986 
12450000     1.004184   -4.3591437      1728000    2419.2067        62250         1986 
12460000   0.98430042   -4.3581429      1728000    2421.2195        62300         1987 
12470000    1.0056937   -4.3173669      1728000    2423.1885        62350         1988 
12480000    1.0012226    -4.276262      1728000    2425.1996        62400         1988 
12490000    1.0005744   -4.3576811      1728000    2427.2746        62450         1988 
12500000    1.0397497   -4.3455126      1728000    2429.2987        62500         1989 
12510000   0.96891497   -4.2491607      1728000    2431.3136        62550         1989 
12520000    1.0534599    -4.337113      1728000    2433.3503        62600         1991 
12530000   0.98455388   -4.3595598      1728000    2435.3655        62650         1992 
12540000    1.0414902   -4.3055694      1728000    2437.4134        62700         1992 
12550000    1.0067753   -4.2824692      1728000    2439.4503        62750         1993 
12560000   0.98616855   -4.3229907      1728000    2441.4974        62800         1994 
12570000   0.96006832   -4.3624053      1728000    2443.5721        62850         1994 
12580000    1.0107931   -4.4576197      1728000    2445.6059        62900         1994 
12590000   0.93961844   -4.3359539      1728000    2447.6487        62950         1994 
12600000    1.0578286   -4.4155254      1728000     2449.675        63000         1995 
12610000   0.99626745   -4.2879457      1728000    2451.6689        63050         1996 
12620000    1.0093381   -4.3951902      1728000    2453.7006        63100         1996 
12630000   0.94145783   -4.3290651      1728000    2455.7256        63150         1997 
12640000    0.9694732   -4.3865493      1728000    2457.7684        63200         1998 
12650000   0.94676944   -4.3315921      1728000    2459.7795        63250         1998 
12660000    1.0360337   -4.3725679      1728000    2461.7907        63300         1999 
12670000    1.0188979   -4.2198853      1728000    2463.8087        63350         1999 
12680000    1.0111686   -4.2750761      1728000    2465.7909        63400         1999 
12690000   0.99168019   -4.3552655      1728000    2467.7805        63450         1999 
12700000    1.0561375   -4.3493684      1728000    2469.7726        63500         2001 
12710000   0.99616142   -4.3495301      1728000    2471.7954        63550         2002 
12720000    1.0680464   -4.4132221      1728000    2473.7957        63600         2002 
12730000   0.97997964   -4.4149476      1728000    2475.8076        63650         2002 
12740000   0.99155152   -4.3418435      1728000      2477.81        63700         2002 
12750000   0.94398643   -4.2890138      1728000    2479.8535        63750         2002 
12760000   0.94755055   -4.4179379      1728000    2481.8737        63800         2002 
12770000    1.0251206   -4.3987081      1728000    2483.8516        63850         2002 
12780000   0.97277574   -4.3078133      1728000    2485.8739        63900         2003 
12790000   0.96328069   -4.4527347      1728000    2487.9057        63950         2004 
12800000    1.0142148   -4.3017835      1728000    2489.9397        64000         2004 
12810000   0.99615403   -4.3636143      1728000     2492.048        64050         2005 
12820000    1.0266013   -4.2734642      1728000    2494.0969        64100         2008 
12830000   0.95996208   -4.2934779      1728000    2496.1392        64150         2010 
12840000   0.96550868   -4.3760388      1728000    2498.1514        64200         2010 
12850000     1.039933   -4.3258932      1728000    2500.1678        64250         2011 
12860000    1.0715853   -4.3018877      1728000    2502.1819        64300         2011 
12870000   0.99827232   -4.4507338      1728000    2504.1816        64350         2012 
12880000   0.98475644   -4.1566526      1728000     2506.231        64400         2012 
12890000   0.98617164   -4.3227151      1728000    2508.2777        64450         2013 
12900000   0.99999844    -4.391326      1728000    2510.2897        64500         2013 
12910000    1.0212339   -4.3601028      1728000    2512.3073        64550         2014 
12920000    0.9947771   -4.2452701      1728000    2514.3426        64600         2015 
12930000    1.0480091   -4.3443948      1728000    2516.3455        64650         2016 
12940000   0.94891865   -4.3346409      1728000    2518.3579        64700         2016 
12950000    1.0278973    -4.297208      1728000    2520.3877        64750         2016 
12960000    1.0341467   -4.3992706      1728000    2522.4307        64800         2016 
12970000   0.99221215   -4.2650177      1728000    2524.5238        64850         2016 
12980000    1.0488723   -4.3940982      1728000    2526.5257        64900         2017 
12990000   0.97189581   -4.3832296      1728000    2528.6282        64950         2017 
13000000    1.0120809   -4.2726757      1728000    2530.7297        65000         2017 
13010000    1.0348253   -4.5270406      1728000    2532.7368        65050         2017 
13020000    1.0529227   -4.2668247      1728000    2534.7431        65100         2017 
13030000    1.0037102   -4.3932902      1728000    2536.7488        65150         2017 
13040000    0.9579457   -4.1814894      1728000    2538.7595        65200         2017 
13050000     1.028339   -4.3833861      1728000    2540.8466        65250         2018 
13060000   0.99387454   -4.2797089      1728000    2542.8861        65300         2019 
13070000    1.0550245   -4.3082737      1728000    2544.9465        65350         2019 
13080000    0.9495076   -4.3136064      1728000    2546.9166        65400         2019 
13090000   0.99177649   -4.3394019      1728000    2548.9378        65450         2020 
13100000    1.0237412   -4.3505433      1728000    2550.9706        65500         2021 
13110000    1.0979354   -4.3450543      1728000    2553.0202        65550         2021 
13120000   0.98168876   -4.1702915      1728000    2555.0567        65600         2021 
13130000   0.93789422   -4.2987304      1728000    2557.0548        65650         2021 
13140000    0.9791547   -4.1908138      1728000    2559.1017        65700         2021 
13150000    1.0465065   -4.2524243      1728000    2561.1248        65750         2022 
13160000    1.0888261   -4.3896808      1728000    2563.1097        65800         2024 
13170000    1.0146846   -4.2750973      1728000    2565.1381        65850         2024 
13180000    1.0249934   -4.2800388      1728000    2567.1671        65900         2025 
13190000   0.96936381   -4.3641497      1728000     2569.237        65950         2026 
13200000    1.0711176   -4.1864194      1728000    2571.2098        66000         2028 
13210000    1.0394873    -4.388376      1728000    2573.2398        66050         2028 
13220000    1.0243862   -4.3839894      1728000    2575.2488        66100         2029 
13230000   0.99334011   -4.2940485      1728000    2577.2267        66150         2029 
13240000    1.0470266   -4.1561697      1728000    2579.2747        66200         2030 
13250000    0.9707146   -4.1771856      1728000    2581.3288        66250         2031 
13260000    1.0365435   -4.2348499      1728000     2583.348        66300         2032 
13270000    1.0366448   -4.2163471      1728000    2585.3187        66350         2034 
13280000    1.0492415   -4.3161798      1728000    2587.4018        66400         2036 
13290000   0.99442204   -4.1960333      1728000    2589.4265        66450         2037 
13300000   0.97556684    -4.392997      1728000     2591.467        66500         2038 
13310000     1.036264    -4.423001      1728000    2593.6158        66550         2040 
13320000   0.98405942   -4.2136038      1728000    2595.6687        66600         2041 
13330000   0.98526102   -4.2542748      1728000     2597.794        66650         2042 
13340000    1.0017014   -4.2481966      1728000    2599.8069        66700         2042 
13350000   0.96777831   -4.3345044      1728000    2601.8698        66750         2043 
13360000   0.98870525   -4.2679038      1728000    2603.9066        66800         2043 
13370000    1.0166588   -4.2746716      1728000    2605.9405        66850         2044 
13380000   0.97915169   -4.2691759      1728000    2607.9776        66900         2044 
13390000     1.032195   -4.2664339      1728000    2610.0264        66950         2046 
13400000    1.0472859   -4.3100387      1728000    2612.0717        67000         2048 
13410000   0.98242487   -4.2785058      1728000    2614.0916        67050         2048 
13420000    1.0881413   -4.4113133      1728000    2616.0995        67100         2049 
13430000   0.98913678   -4.3553507      1728000    2618.1298        67150         2050 
13440000    1.0204385   -4.2031766      1728000    2620.1177        67200         2051 
13450000   0.96023081   -4.4324262      1728000    2622.1208        67250         2051 
13460000   0.91163636   -4.2778376      1728000    2624.1168        67300         2052 
13470000     1.003694   -4.3790423      1728000    2626.1825        67350         2053 
13480000   0.95981066   -4.4211207      1728000    2628.2337        67400         2053 
13490000    1.0105515   -4.3075456      1728000    2630.2398        67450         2053 
13500000   0.99719504    -4.452953      1728000    2632.2398        67500         2054 
13510000   0.99384172   -4.4283648      1728000    2634.2595        67550         2054 
13520000   0.97638161   -4.3586852      1728000    2636.2768        67600         2054 
13530000   0.92385934   -4.3242492      1728000    2638.2927        67650         2054 
13540000    1.0686992   -4.4202991      1728000    2640.2838        67700         2055 
13550000    1.0504628   -4.2109481      1728000    2642.3278        67750         2055 
13560000    1.0108849   -4.3341722      1728000    2644.3236        67800         2057 
13570000    0.9965095   -4.3889797      1728000    2646.3388        67850         2057 
13580000   0.99352998   -4.4203254      1728000    2648.2932        67900         2057 
13590000    1.0021103   -4.2291915      1728000    2650.2349        67950         2057 
13600000    1.0156856   -4.2189399      1728000    2652.1879        68000         2057 
13610000     1.055044   -4.4228959      1728000    2654.1348        68050         2058 
13620000    1.0629308   -4.2984093      1728000    2656.1966        68100         2059 
13630000   0.99287126   -4.3207457      1728000    2658.4008        68150         2059 
13640000   0.99389838   -4.2974885      1728000    2660.5129        68200         2060 
13650000   0.98592467   -4.4141224      1728000    2662.5391        68250         2060 
13660000    0.9927691   -4.3488221      1728000    2664.5748        68300         2060 
13670000   0.99431269    -4.313399      1728000    2666.5869        68350         2060 
13680000    1.0099382   -4.4021993      1728000    2668.6409        68400         2060 
13690000    1.0130499   -4.4406604      1728000    2670.7084        68450         2061 
13700000   0.96925291   -4.2807739      1728000    2672.7525        68500         2061 
13710000   0.94201489   -4.3501784      1728000    2674.7571        68550         2061 
13720000   0.97894495   -4.3711057      1728000    2676.7857        68600         2061 
13730000   0.99501787   -4.3255471      1728000    2678.8051        68650         2061 
13740000   0.98723989   -4.2930195      1728000    2680.8601        68700         2062 
13750000    1.0260508   -4.2656497      1728000    2682.8719        68750         2063 
13760000    1.0216045   -4.3352372      1728000    2684.8561        68800         2065 
13770000    1.0065703   -4.2371959      1728000    2686.8996        68850         2065 
13780000    0.9491873   -4.3052059      1728000    2688.8849        68900         2066 
13790000    1.0445995   -4.4191952      1728000    2690.8959        68950         2067 
13800000   0.97180893   -4.1881668      1728000    2692.8917        69000         2067 
13810000   0.99987447   -4.2682246      1728000    2694.9431        69050         2069 
13820000   0.97964032   -4.3125866      1728000    2696.9495        69100         2069 
13830000   0.97502956   -4.2504301      1728000    2699.0179        69150         2070 
13840000    1.0541705   -4.3178291      1728000    2701.0447        69200         2072 
13850000    1.0581948   -4.3450201      1728000    2703.0359        69250         2073 
13860000    1.0202174   -4.3274531      1728000    2705.0022        69300         2074 
13870000    1.0066578   -4.1847649      1728000    2707.0456        69350         2074 
13880000   0.99411368   -4.3120727      1728000    2709.0679        69400         2075 
13890000    1.0764331   -4.2033523      1728000     2711.097        69450         2075 
13900000    1.0172244   -4.1798197      1728000    2713.1236        69500         2076 
13910000    0.9699194   -4.2296087      1728000    2715.1716        69550         2077 
13920000   0.97992516   -4.1867423      1728000    2717.2479        69600         2077 
13930000    1.0041127   -4.2520953      1728000    2719.2701        69650         2078 
13940000    1.0381761    -4.290501      1728000    2721.2643        69700         2080 
13950000    1.0119442   -4.2790813      1728000    2723.2816        69750         2080 
13960000    1.0327507   -4.3554114      1728000     2725.283        69800         2081 
13970000    1.0108782   -4.3989462      1728000    2727.2906        69850         2081 
13980000    1.0141701   -4.4016985      1728000    2729.4336        69900         2082 
13990000   0.97869846   -4.3411933      1728000    2731.4169        69950         2083 
14000000    1.0146961   -4.4145938      1728000    2733.4198        70000         2083 
14010000    1.0112138   -4.2407119      1728000     2735.427        70050         2083 
14020000    1.0339753   -4.3477936      1728000     2737.443        70100         2083 
14030000    1.0047705   -4.2136777      1728000     2739.419        70150         2083 
14040000   0.99852288   -4.3668642      1728000      2741.44        70200         2083 
14050000    1.0546293   -4.3919865      1728000    2743.4358        70250         2083 
14060000   0.99871604    -4.266816      1728000    2745.4143        70300         2084 
14070000    1.0213382   -4.3533079      1728000    2747.3907        70350         2084 
14080000   0.99523684   -4.3353288      1728000    2749.3854        70400         2084 
14090000   0.97839623   -4.3243247      1728000    2751.3983        70450         2086 
14100000    1.0545628   -4.2622117      1728000    2753.4122        70500         2086 
14110000    1.0172851   -4.3126115      1728000    2755.4041        70550         2086 
14120000   0.98404199   -4.3894565      1728000    2757.4399        70600         2087 
14130000    1.0547893   -4.3535745      1728000    2759.4469        70650         2087 
14140000    1.0284735   -4.3175356      1728000    2761.4068        70700         2088 
14150000     1.000535   -4.3822555      1728000    2763.4482        70750         2088 
14160000    1.0293559   -4.3333915      1728000    2765.4256        70800         2088 
14170000    1.0332734   -4.3025876      1728000    2767.4297        70850         2090 
14180000    1.0362116   -4.3447664      1728000     2769.438        70900         2092 
14190000   0.99341544   -4.2774981      1728000    2771.4539        70950         2095 
14200000   0.96173479   -4.2318395      1728000    2773.4889        71000         2096 
14210000   0.97974561   -4.3080228      1728000    2775.4905        71050         2096 
14220000    1.0273513   -4.2047623      1728000    2777.5077        71100         2096 
14230000   0.99438867   -4.2794769      1728000     2779.527        71150         2096 
14240000   0.95586794   -4.3118186      1728000     2781.498        71200         2097 
14250000    1.0409317   -4.0570287      1728000     2783.482        71250         2097 
14260000    1.0096433   -4.3848656      1728000    2785.4561        71300         2099 
14270000    1.0177053   -4.3891641      1728000    2787.4724        71350         2101 
14280000    1.0041549   -4.4233816      1728000    2789.4969        71400         2101 
14290000   0.92753677   -4.2151176      1728000     2791.522        71450         2101 
14300000   0.98991267   -4.3141534      1728000    2793.5287        71500         2101 
14310000     1.022647    -4.272021      1728000     2795.555        71550         2102 
14320000    1.0244646   -4.3434009      1728000     2797.527        71600         2102 
14330000    1.0479461    -4.369498      1728000     2799.518        71650         2102 
14340000   0.99976386   -4.3837894      1728000    2801.4989        71700         2102 
14350000   0.97797944   -4.3399035      1728000    2803.5287        71750         2104 
14360000    1.0009473   -4.3328224      1728000     2805.494        71800         2104 
14370000    1.0215789    -4.320595      1728000    2807.5132        71850         2104 
14380000    1.0315023   -4.4866742      1728000    2809.5354        71900         2104 
14390000   0.96982145    -4.447176      1728000     2811.532        71950         2105 
14400000    1.0144528   -4.3607246      1728000     2813.552        72000         2106 
14410000    1.0092723   -4.3134691      1728000     2815.562        72050         2107 
14420000    1.0039874   -4.3764653      1728000    2817.5885        72100         2107 
14430000   0.94086837   -4.3997375      1728000    2819.6596        72150         2107 
14440000    1.0040222   -4.4362115      1728000    2821.6684        72200         2107 
14450000   0.99817365   -4.3658078      1728000     2823.648        72250         2109 
14460000    1.0180231   -4.2715001      1728000    2825.6568        72300         2110 
14470000    1.0359061   -4.1680967      1728000     2827.677        72350         2110 
14480000    1.0365955   -4.2803584      1728000     2829.701        72400         2112 
14490000     1.000671   -4.3390455      1728000    2831.7367        72450         2112 
14500000    1.0685753   -4.3159765      1728000    2833.7523        72500         2112 
14510000    1.0198078   -4.3405942      1728000    2835.7808        72550         2112 
14520000   0.98902908   -4.3302417      1728000    2837.8211        72600         2113 
14530000   0.95141805   -4.2397791      1728000     2839.843        72650         2113 
14540000    1.0398056   -4.4516979      1728000    2841.8238        72700         2115 
14550000   0.96898325   -4.4486427      1728000    2843.7853        72750         2115 
14560000    1.0566297    -4.331643      1728000    2845.7571        72800         2116 
14570000    0.9527848   -4.3515185      1728000    2847.7389        72850         2116 
14580000   0.94106422   -4.4242768      1728000     2849.725        72900         2117 
14590000    1.0594624   -4.3605594      1728000    2851.7221        72950         2117 
14600000   0.98663841   -4.3170923      1728000    2853.7287        73000         2117 
14610000   0.99618246   -4.3641572      1728000    2855.7354        73050         2118 
14620000    1.0460709   -4.3894507      1728000    2857.7172        73100         2119 
14630000    1.0796535   -4.3843662      1728000    2859.7302        73150         2119 
14640000    1.0067698   -4.4045265      1728000    2861.7645        73200         2119 
14650000   0.97249725   -4.3518519      1728000    2863.7803        73250         2120 
14660000    1.0340269   -4.2825315      1728000    2865.8158        73300         2120 
14670000   0.94070891   -4.2756811      1728000    2867.8067        73350         2121 
14680000    1.0201213   -4.2696485      1728000    2869.7794        73400         2122 
14690000    1.0074652   -4.4641555      1728000    2871.8251        73450         2122 
14700000    1.0112498   -4.4189878      1728000     2873.851        73500         2122 
14710000   0.96571234   -4.2838792      1728000    2875.8274        73550         2122 
14720000     1.000846   -4.2522165      1728000    2877.7861        73600         2123 
14730000    1.0165006   -4.3111549      1728000    2879.7902        73650         2123 
14740000    1.0220908   -4.1371984      1728000    2881.7997        73700         2124 
14750000    1.0219182   -4.2848022      1728000    2883.7791        73750         2125 
14760000    1.0858081   -4.3062711      1728000    2885.8113        73800         2126 
14770000    1.0021724     -4.31332      1728000     2887.875        73850         2126 
14780000   0.97769931   -4.4430262      1728000    2889.8581        73900         2126 
14790000    1.0104201   -4.3615378      1728000    2891.8111        73950         2126 
14800000    1.0203642    -4.360412      1728000     2893.828        74000         2126 
14810000   0.93597876   -4.2820665      1728000    2895.8732        74050         2126 
14820000    1.0053479   -4.3902791      1728000     2897.902        74100         2126 
14830000   0.93179427   -4.2749377      1728000    2899.9278        74150         2127 
14840000    1.0188396   -4.3285765      1728000    2901.9507        74200         2127 
14850000    1.0253708   -4.3095341      1728000    2903.9398        74250         2129 
14860000    1.0629867     -4.26348      1728000    2905.9299        74300         2129 
14870000    1.0355598   -4.2400253      1728000     2907.875        74350         2129 
14880000   0.96278601   -4.3294685      1728000    2909.8571        74400         2129 
14890000    1.0332529   -4.2728795      1728000    2911.8211        74450         2130 
14900000   0.97302949   -4.3016502      1728000    2913.8158        74500         2130 
14910000    1.0119402   -4.3182516      1728000     2915.834        74550         2131 
14920000    1.0220329   -4.3821257      1728000     2917.833        74600         2131 
14930000   0.95959421   -4.2859201      1728000    2919.8096        74650         2132 
14940000   0.92695671   -4.3346508      1728000    2921.8772        74700         2133 
14950000    1.0032918   -4.3362694      1728000    2923.9121        74750         2133 
14960000    1.0508527    -4.353425      1728000    2925.9697        74800         2134 
14970000    1.0810375   -4.2611667      1728000    2927.9441        74850         2136 
14980000   0.95869076   -4.3350211      1728000    2929.9692        74900         2136 
14990000   0.99037115   -4.3107491      1728000    2931.9799        74950         2138 
15000000    1.0031438   -4.3764197      1728000    2933.9542        75000         2138 
15010000     0.997487   -4.2873026      1728000    2935.9382        75050         2138 
15020000   0.97629808    -4.317154      1728000     2937.918        75100         2141 
15030000   0.99118243   -4.2965135      1728000    2939.8963        75150         2141 
15040000   0.94498177   -4.4175732      1728000    2941.8432        75200         2142 
15050000   0.94407399   -4.2432404      1728000    2943.8404        75250         2143 
15060000   0.93370116   -4.3595127      1728000    2945.7959        75300         2145 
15070000   0.95861042   -4.3315112      1728000    2947.8187        75350         2146 
15080000   0.89688426   -4.3784508      1728000    2949.8904        75400         2146 
15090000    1.0759206    -4.293961      1728000    2951.8944        75450         2147 
15100000   0.99866183   -4.2829287      1728000    2953.9256        75500         2147 
15110000   0.97770731   -4.3027435      1728000    2955.9289        75550         2148 
15120000   0.99988388   -4.2942807      1728000    2957.9526        75600         2149 
15130000    1.0257609   -4.3347187      1728000    2959.9362        75650         2150 
15140000    0.9795627   -4.3913293      1728000    2961.9447        75700         2151 
15150000    1.0562481   -4.2685674      1728000    2963.9573        75750         2151 
15160000     1.097697   -4.2772295      1728000    2965.9733        75800         2152 
15170000   0.98673428   -4.3589639      1728000    2967.9412        75850         2152 
15180000    1.0266512   -4.3365778      1728000    2969.9128        75900         2154 
15190000    1.0062323   -4.2128738      1728000    2971.9239        75950         2155 
15200000    1.0532611   -4.3944036      1728000    2973.9462        76000         2155 
15210000    1.0172334   -4.2771482      1728000    2975.9384        76050         2156 
15220000    1.1058308   -4.2468974      1728000    2977.9162        76100         2156 
15230000    1.0040752   -4.4512033      1728000     2979.888        76150         2156 
15240000   0.91353229   -4.2398925      1728000    2981.9042        76200         2156 
15250000    1.0365069   -4.1685591      1728000    2983.8933        76250         2158 
15260000    0.9969655    -4.264393      1728000    2985.9002        76300         2158 
15270000   0.94687355   -4.2700384      1728000    2987.8461        76350         2159 
15280000    1.0553878   -4.2344127      1728000    2989.8432        76400         2161 
15290000   0.96094793   -4.2851109      1728000    2991.8612        76450         2162 
15300000   0.96298934   -4.3462038      1728000    2993.9021        76500         2162 
15310000    1.0455081   -4.2986529      1728000    2995.9491        76550         2163 
15320000   0.99815381   -4.4109753      1728000    2997.9645        76600         2163 
15330000    1.0093634   -4.4432297      1728000    2999.9724        76650         2163 
15340000    1.0006479   -4.3094522      1728000    3001.9932        76700         2166 
15350000   0.95523541   -4.3025614      1728000     3003.992        76750         2166 
15360000    1.0380472   -4.3084571      1728000    3005.9923        76800         2167 
15370000    1.0349989   -4.2727587      1728000    3008.0302        76850         2167 
15380000    1.0819344   -4.3874935      1728000    3010.0842        76900         2167 
15390000   0.95853734   -4.1620045      1728000    3012.1033        76950         2168 
15400000     1.026677   -4.3490806      1728000    3014.1372        77000         2168 
15410000   0.96678829   -4.3075412      1728000    3016.1772        77050         2168 
15420000    1.0311519   -4.2885997      1728000    3018.1642        77100         2168 
15430000   0.98400803   -4.3155724      1728000    3020.1722        77150         2168 
15440000   0.95308895   -4.2614548      1728000    3022.1462        77200         2168 
15450000    1.0039637   -4.3280135      1728000    3024.1303        77250         2170 
15460000   0.92701786   -4.2386895      1728000    3026.1075        77300         2171 
15470000   0.99037785   -4.4847207      1728000    3028.0913        77350         2172 
15480000    1.0003025   -4.2910213      1728000    3030.1119        77400         2173 
15490000   0.97195583   -4.4411404      1728000    3032.1403        77450         2173 
15500000    1.0662825    -4.380013      1728000    3034.1386        77500         2173 
15510000    1.0021399   -4.4237474      1728000     3036.135        77550         2173 
15520000    0.9250643   -4.3738062      1728000    3038.1393        77600         2173 
15530000    1.0677499   -4.3580888      1728000    3040.1553        77650         2173 
15540000    0.9683342   -4.2823614      1728000    3042.1297        77700         2173 
15550000    1.0017261   -4.2713593      1728000    3044.0933        77750         2174 
15560000    1.0606408   -4.2369158      1728000    3046.0728        77800         2174 
15570000   0.96284668   -4.4207814      1728000    3048.0745        77850         2174 
15580000   0.98809417   -4.4050774      1728000    3050.0707        77900         2174 
15590000   0.97121759   -4.2883243      1728000    3052.1056        77950         2175 
15600000   0.97968834   -4.3827956      1728000    3054.1387        78000         2176 
15610000   0.98997423   -4.2552409      1728000    3056.1459        78050         2177 
15620000    1.0134193   -4.3352442      1728000    3058.2345        78100         2177 
15630000   0.97362436   -4.2469592      1728000    3060.2373        78150         2178 
15640000   0.96926853    -4.361996      1728000    3062.2232        78200         2179 
15650000   0.99366654   -4.3109343      1728000    3064.2103        78250         2181 
15660000    1.0639007   -4.3530463      1728000    3066.1931        78300         2182 
15670000   0.96198167   -4.3564549      1728000    3068.1832        78350         2184 
15680000    1.0293036   -4.4330645      1728000    3070.1996        78400         2184 
15690000    1.0517194   -4.2694756      1728000    3072.2202        78450         2184 
15700000    1.0136804   -4.3755591      1728000    3074.2586        78500         2186 
15710000   0.93150452   -4.3813174      1728000    3076.2954        78550         2188 
15720000    1.0132309   -4.3307134      1728000    3078.3056        78600         2190 
15730000    1.0162495   -4.2816425      1728000    3080.3293        78650         2190 
15740000   0.99147532   -4.3150885      1728000    3082.3552        78700         2191 
15750000    1.0001249    -4.431634      1728000    3084.3084        78750         2193 
15760000    1.0003532    -4.373887      1728000     3086.214        78800         2193 
15770000   0.98969755   -4.1940496      1728000    3088.2403        78850         2193 
15780000    1.0586807   -4.3852214      1728000    3090.2341        78900         2194 
15790000    1.0159641   -4.3559523      1728000    3092.2422        78950         2194 
15800000    1.0140906   -4.2571185      1728000    3094.2723        79000         2195 
15810000   0.97365973   -4.3535947      1728000    3096.3023        79050         2195 
15820000    1.0395858   -4.2676794      1728000    3098.3243        79100         2195 
15830000    1.0258337    -4.346777      1728000    3100.3233        79150         2196 
15840000   0.99798898   -4.3574278      1728000    3102.3251        79200         2196 
15850000    0.9783466   -4.4133598      1728000    3104.2753        79250         2197 
15860000    0.9249428   -4.3087471      1728000    3106.2713        79300         2198 
15870000   0.93478773    -4.217478      1728000    3108.2757        79350         2198 
15880000   0.99224917   -4.3366243      1728000    3110.2734        79400         2199 
15890000    1.0629354   -4.4216263      1728000    3112.3005        79450         2199 
15900000   0.98902896   -4.2965007      1728000    3114.2642        79500         2200 
15910000    1.0287559   -4.3556729      1728000    3116.2306        79550         2200 
15920000   0.96772102   -4.3379408      1728000    3118.1822        79600         2200 
15930000   0.95998619   -4.3850002      1728000    3120.1785        79650         2200 
15940000   0.96811769   -4.3092812      1728000      3122.17        79700         2201 
15950000    1.0612311   -4.4278276      1728000    3124.1393        79750         2201 
15960000    1.0235686    -4.337185      1728000    3126.1383        79800         2202 
15970000   0.92143448   -4.3806252      1728000    3128.1513        79850         2202 
15980000    1.0165428    -4.420066      1728000    3130.1204        79900         2202 
15990000    1.0227211   -4.2486221      1728000    3132.0813        79950         2202 
16000000   0.97236852   -4.2973148      1728000     3134.106        80000         2202 
16010000   0.96588296   -4.3729294      1728000    3136.1613        80050         2203 
16020000    1.0284941   -4.4015005      1728000    3138.1842        80100         2203 
16030000    1.0166047   -4.4178052      1728000    3140.2153        80150         2204 
16040000    1.0342877   -4.1809613      1728000    3142.2595        80200         2205 
16050000   0.99235007   -4.4709888      1728000    3144.2742        80250         2205 
16060000   0.98413492   -4.3825439      1728000    3146.3144        80300         2206 
16070000   0.98794165    -4.341194      1728000    3148.3386        80350         2206 
16080000    1.0036435   -4.4364997      1728000    3150.4142        80400         2207 
16090000   0.98137996   -4.3006612      1728000    3152.4455        80450         2207 
16100000    1.0803315   -4.4071408      1728000    3154.5159        80500         2207 
16110000   0.96827426   -4.2684209      1728000    3156.5822        80550         2207 
16120000    1.0355021   -4.3676782      1728000    3158.6514        80600         2207 
16130000   0.98320358   -4.3270832      1728000    3160.6769        80650         2207 
16140000   0.97196736   -4.4263641      1728000    3162.7294        80700         2207 
16150000   0.98539066   -4.4663266      1728000    3164.7614        80750         2207 
16160000   0.95206547   -4.3656983      1728000    3166.8024        80800         2207 
16170000    1.0102487   -4.4023421      1728000    3168.8344        80850         2208 
16180000   0.99831079   -4.4096386      1728000    3170.8294        80900         2208 
16190000   0.93511557   -4.3529533      1728000    3172.8333        80950         2208 
16200000   0.94487156   -4.3345658      1728000    3174.8513        81000         2208 
16210000    1.0245624   -4.4332916      1728000    3176.8366        81050         2208 
16220000   0.96894636    -4.306408      1728000    3178.8356        81100         2208 
16230000   0.96375049   -4.2695517      1728000    3180.8414        81150         2208 
16240000   0.95286121   -4.3983645      1728000    3182.8845        81200         2208 
16250000   0.99163036   -4.3013133      1728000    3184.9342        81250         2208 
16260000   0.97801818   -4.3733929      1728000    3186.9083        81300         2208 
16270000    0.9915134   -4.5107261      1728000    3188.9278        81350         2208 
16280000    1.0480975   -4.3637363      1728000    3190.9329        81400         2209 
16290000    0.9529169   -4.4224199      1728000    3192.9777        81450         2209 
16300000    1.0353113   -4.4053635      1728000    3195.0504        81500         2209 
16310000    1.0415966   -4.2969256      1728000    3197.1484        81550         2210 
16320000    1.0236669   -4.3634025      1728000    3199.1584        81600         2210 
16330000   0.97496232   -4.3402836      1728000    3201.1765        81650         2211 
16340000   0.99014731   -4.3623543      1728000    3203.2431        81700         2211 
16350000    1.0322174   -4.1973489      1728000    3205.2575        81750         2211 
16360000   0.92287196   -4.3399143      1728000    3207.2977        81800         2211 
16370000   0.97807893   -4.4081825      1728000    3209.3174        81850         2211 
16380000   0.97768774   -4.3256473      1728000    3211.3183        81900         2211 
16390000    1.0084858   -4.3496897      1728000     3213.371        81950         2211 
16400000   0.97801347   -4.4073273      1728000    3215.3869        82000         2211 
16410000    1.0257338   -4.2394797      1728000    3217.4084        82050         2211 
16420000   0.96459074   -4.4656641      1728000    3219.3793        82100         2211 
16430000   0.97239381   -4.3396482      1728000    3221.3656        82150         2211 
16440000    1.0417985   -4.3201439      1728000    3223.3665        82200         2213 
16450000    1.0152233   -4.3451382      1728000    3225.3764        82250         2214 
16460000    1.0506327   -4.4084892      1728000    3227.4045        82300         2215 
16470000    0.9570286   -4.2407101      1728000    3229.4582        82350         2217 
16480000    1.0121739   -4.3072466      1728000    3231.4505        82400         2220 
16490000    1.0565123   -4.2728633      1728000    3233.4932        82450         2221 
16500000   0.98833889   -4.2476557      1728000    3235.5414        82500         2222 
16510000   0.96278204   -4.3135071      1728000    3237.5755        82550         2222 
16520000   0.99698587   -4.3335557      1728000    3239.6595        82600         2223 
16530000   0.99908678   -4.1885285      1728000    3241.8005        82650         2226 
16540000   0.98086545   -4.2662865      1728000    3243.8817        82700         2228 
16550000     1.046912   -4.2807581      1728000    3245.9071        82750         2229 
16560000   0.99193643   -4.2779413      1728000    3247.9792        82800         2229 
16570000    1.0398246   -4.2635955      1728000    3250.0355        82850         2230 
16580000   0.95481682   -4.3473486      1728000     3252.039        82900         2231 
16590000   0.93786561   -4.2781868      1728000    3254.0117        82950         2232 
16600000    0.9598417   -4.3342282      1728000    3256.0547        83000         2232 
16610000    1.0013867    -4.326383      1728000    3258.0845        83050         2233 
16620000     1.058191   -4.4160616      1728000    3260.1374        83100         2234 
16630000   0.94378531    -4.261315      1728000    3262.1963        83150         2234 
16640000    1.0300792   -4.3911641      1728000    3264.2094        83200         2235 
16650000    1.0018716   -4.2603805      1728000    3266.2573        83250         2235 
16660000    1.0031658   -4.2987947      1728000    3268.2817        83300         2235 
16670000    1.0319559   -4.3154513      1728000    3270.2667        83350         2236 
16680000   0.98655309    -4.338094      1728000    3272.3285        83400         2237 
16690000    0.9864205   -4.4046753      1728000    3274.3083        83450         2238 
16700000   0.99547577   -4.3414871      1728000    3276.3485        83500         2238 
16710000    1.0126118   -4.2582641      1728000    3278.3924        83550         2238 
16720000    1.0088485   -4.3409803      1728000    3280.4345        83600         2238 
16730000    1.0140534   -4.4326418      1728000    3282.4619        83650         2238 
16740000   0.98698948   -4.3327913      1728000    3284.4974        83700         2239 
16750000   0.99831749   -4.3322924      1728000    3286.5444        83750         2239 
16760000    1.0258339   -4.1792786      1728000    3288.5334        83800         2239 
16770000   0.98980447   -4.3758487      1728000    3290.6038        83850         2240 
16780000    1.0709875   -4.3195115      1728000    3292.5975        83900         2240 
16790000    1.0386289   -4.3456595      1728000    3294.6122        83950         2240 
16800000     1.023193   -4.3541402      1728000    3296.6595        84000         2241 
16810000    1.0071733   -4.2211784      1728000    3298.6845        84050         2241 
16820000     0.985153   -4.4013958      1728000     3300.725        84100         2243 
16830000    1.0274872   -4.5175336      1728000    3302.7143        84150         2244 
16840000    1.0076025   -4.4455703      1728000    3304.7266        84200         2246 
16850000    1.0334626   -4.3852776      1728000     3306.724        84250         2246 
16860000   0.96365668   -4.3631206      1728000    3308.7306        84300         2247 
16870000   0.96384953   -4.5833545      1728000    3310.7616        84350         2247 
16880000    1.0441522   -4.4218281      1728000    3312.7475        84400         2247 
16890000    1.0116915   -4.3549012      1728000    3314.8236        84450         2247 
16900000    1.0303962   -4.3563031      1728000    3316.8655        84500         2247 
16910000   0.97982223   -4.4188164      1728000    3318.9388        84550         2247 
16920000    1.0880955   -4.4771223      1728000    3321.0118        84600         2247 
16930000    1.0171647   -4.3447106      1728000    3323.0095        84650         2247 
16940000    1.0457781   -4.4571645      1728000    3325.0922        84700         2247 
16950000    1.0533894   -4.5543281      1728000    3327.1556        84750         2247 
16960000    1.0419545   -4.3770384      1728000    3329.1752        84800         2247 
16970000   0.97903338   -4.4679462      1728000    3331.1964        84850         2247 
16980000    1.0153867   -4.3864858      1728000    3333.2236        84900         2247 
16990000    1.0336491   -4.3616731      1728000    3335.3413        84950         2247 
17000000   0.98699041   -4.4106619      1728000    3337.4121        85000         2247 
17010000    1.0250391   -4.3709503      1728000    3339.4567        85050         2247 
17020000   0.98010644   -4.4045839      1728000    3341.4647        85100         2247 
17030000   0.95065433   -4.3583707      1728000     3343.456        85150         2248 
17040000    1.0547637   -4.3988339      1728000    3345.4572        85200         2248 
17050000    1.0017513   -4.3511852      1728000    3347.4696        85250         2248 
17060000   0.96944665   -4.5341236      1728000    3349.4913        85300         2249 
17070000   0.99374904   -4.3253948      1728000    3351.5516        85350         2250 
17080000    1.0059995   -4.3067864      1728000    3353.5798        85400         2250 
17090000   0.98091773   -4.3687477      1728000    3355.6066        85450         2250 
17100000    1.0461864   -4.3692882      1728000    3357.6434        85500         2250 
17110000   0.96338094   -4.4373731      1728000    3359.7334        85550         2250 
17120000   0.99703646   -4.3588496      1728000    3361.7938        85600         2250 
17130000    1.0132085    -4.432646      1728000    3363.8254        85650         2251 
17140000   0.98136888   -4.3822167      1728000    3365.8744        85700         2251 
17150000   0.98210573   -4.3389146      1728000    3367.9017        85750         2252 
17160000   0.95194475   -4.4139978      1728000    3369.9428        85800         2254 
17170000    1.0253969   -4.2940786      1728000    3371.9486        85850         2255 
17180000    1.0016895   -4.2997555      1728000    3373.9773        85900         2255 
17190000   0.92163581   -4.3544794      1728000    3375.9786        85950         2255 
17200000    1.0165726   -4.3912719      1728000    3378.0426        86000         2255 
17210000   0.98618903   -4.4021697      1728000    3380.0373        86050         2255 
17220000   0.94539034   -4.2976286      1728000    3382.0514        86100         2255 
17230000   0.99400362   -4.4324105      1728000    3384.0406        86150         2255 
17240000   0.95179363   -4.2764839      1728000    3386.0679        86200         2255 
17250000   0.98814822   -4.3960212      1728000    3388.1261        86250         2256 
17260000   0.97225217   -4.3101764      1728000    3390.1796        86300         2256 
17270000    1.0182559   -4.4834644      1728000    3392.2486        86350         2256 
17280000   0.96216194   -4.2593865      1728000    3394.3142        86400         2258 
17290000    1.0337064   -4.3546482      1728000     3396.368        86450         2259 
17300000    1.0281155    -4.406567      1728000    3398.4245        86500         2259 
17310000    1.0445635   -4.3317286      1728000    3400.4649        86550         2260 
17320000    1.0049428   -4.3681463      1728000    3402.5223        86600         2260 
17330000     1.018875   -4.3722453      1728000    3404.5036        86650         2261 
17340000    0.9929297   -4.3120437      1728000    3406.5527        86700         2261 
17350000   0.98925916   -4.4586689      1728000    3408.6507        86750         2262 
17360000    1.0246843   -4.3488485      1728000    3410.6476        86800         2263 
17370000    1.0018659   -4.3334225      1728000    3412.6485        86850         2263 
17380000    0.9545836   -4.2748006      1728000    3414.6969        86900         2263 
17390000    1.0036641   -4.3508602      1728000    3416.7256        86950         2263 
17400000    1.0536985   -4.2673992      1728000    3418.7491        87000         2264 
17410000   0.95482212   -4.3083065      1728000    3420.7576        87050         2265 
17420000   0.98962056   -4.3959913      1728000     3422.757        87100         2265 
17430000    1.0027095   -4.4098641      1728000    3424.7912        87150         2266 
17440000    1.0450525   -4.3705626      1728000    3426.8287        87200         2266 
17450000    1.0275051   -4.2991231      1728000     3428.834        87250         2267 
17460000   0.92360672   -4.3974235      1728000    3430.7998        87300         2269 
17470000   0.98146831   -4.5297444      1728000    3432.8165        87350         2270 
17480000   0.98268948   -4.3803319      1728000    3434.9066        87400         2270 
17490000   0.97959648   -4.3790219      1728000    3437.0522        87450         2270 
17500000    1.0122445   -4.4179799      1728000    3439.1147        87500         2271 
17510000     1.036753   -4.4139611      1728000    3441.1817        87550         2271 
17520000   0.95764164   -4.1816784      1728000    3443.1996        87600         2272 
17530000   0.99104173   -4.2287387      1728000    3445.2457        87650         2272 
17540000   0.96537606   -4.2387094      1728000    3447.3047        87700         2272 
17550000   0.93975817   -4.3340722      1728000    3449.3124        87750         2272 
17560000    1.0057546   -4.3605583      1728000    3451.4078        87800         2272 
17570000   0.94343755   -4.2432601      1728000    3453.4338        87850         2272 
17580000    1.0512306   -4.4439072      1728000    3455.4621        87900         2273 
17590000   0.97081128    -4.361878      1728000    3457.5051        87950         2274 
17600000   0.97981831   -4.3177554      1728000    3459.5418        88000         2274 
17610000    1.0870849   -4.3535459      1728000    3461.5607        88050         2274 
17620000     1.051223   -4.3928749      1728000    3463.5945        88100         2274 
17630000     1.022693   -4.3698206      1728000    3465.6332        88150         2274 
17640000    1.0366438   -4.4806634      1728000    3467.6687        88200         2274 
17650000    1.0300548   -4.3639761      1728000    3469.7257        88250         2274 
17660000    1.0179484   -4.4775218      1728000    3471.7787        88300         2274 
17670000    1.0450267   -4.3030579      1728000    3473.8336        88350         2274 
17680000    1.0263217    -4.259944      1728000      3475.87        88400         2274 
17690000   0.99686883   -4.4121456      1728000    3477.9119        88450         2274 
17700000    1.0168944   -4.4385779      1728000    3479.9788        88500         2274 
17710000   0.98489588   -4.3311543      1728000    3482.0247        88550         2274 
17720000    1.0284228   -4.5143206      1728000    3484.0399        88600         2274 
17730000    1.0276117   -4.3739212      1728000    3486.0849        88650         2274 
17740000     1.032333   -4.3397149      1728000    3488.1326        88700         2274 
17750000   0.93659961   -4.3207713      1728000    3490.1873        88750         2274 
17760000    1.0289779   -4.3951872      1728000    3492.2615        88800         2274 
17770000    1.0399647   -4.4314365      1728000    3494.2803        88850         2274 
17780000    1.0306263   -4.2808743      1728000    3496.2977        88900         2274 
17790000   0.96514457   -4.3942422      1728000    3498.2967        88950         2276 
17800000    1.0240497   -4.3897559      1728000    3500.3998        89000         2276 
17810000    1.0610472   -4.2694317      1728000    3502.4717        89050         2276 
17820000   0.98917614   -4.4385474      1728000    3504.4718        89100         2276 
17830000    1.0179747    -4.412211      1728000    3506.5007        89150         2276 
17840000    1.0004543   -4.3948148      1728000    3508.5154        89200         2276 
17850000    1.0332532   -4.2668027      1728000    3510.5558        89250         2276 
17860000   0.94431146   -4.3702944      1728000     3512.628        89300         2277 
17870000   0.99919394   -4.3672877      1728000    3514.6688        89350         2277 
17880000    0.9383207   -4.5114965      1728000    3516.6947        89400         2277 
17890000    1.0219596   -4.2914639      1728000    3518.7165        89450         2277 
17900000   0.97956149   -4.3653433      1728000    3520.7522        89500         2277 
17910000    1.0484892   -4.4441674      1728000    3522.7288        89550         2277 
17920000    1.0068549   -4.3559134      1728000    3524.7559        89600         2277 
17930000    1.0138802   -4.3911089      1728000     3526.801        89650         2277 
17940000   0.98962769    -4.479503      1728000    3528.8368        89700         2277 
17950000   0.98190599   -4.3424533      1728000    3530.9101        89750         2277 
17960000   0.98281652    -4.350531      1728000    3532.9434        89800         2277 
17970000   0.95569739   -4.3624292      1728000    3534.9927        89850         2277 
17980000    1.0370772   -4.3815363      1728000    3537.0291        89900         2277 
17990000   0.93576194   -4.4715526      1728000    3539.0201        89950         2277 
18000000   0.97084039   -4.4586334      1728000    3541.0537        90000         2277 
18010000    1.0862142   -4.4315464      1728000    3543.1148        90050         2277 
18020000    0.9468235   -4.3676487      1728000    3545.1605        90100         2277 
18030000    1.0463605   -4.2883768      1728000    3547.1708        90150         2277 
18040000    1.0318276   -4.4996323      1728000    3549.2248        90200         2277 
18050000   0.97766787   -4.3882001      1728000    3551.2166        90250         2277 
18060000   0.98295236   -4.2978024      1728000    3553.2639        90300         2277 
18070000    1.0144401   -4.4664281      1728000    3555.3317        90350         2277 
18080000    1.0529951    -4.411073      1728000    3557.3887        90400         2278 
18090000    1.0433266   -4.2378138      1728000    3559.4338        90450         2279 
18100000    1.0150321   -4.3973139      1728000    3561.4979        90500         2279 
18110000    1.0013643   -4.3549411      1728000    3563.5578        90550         2279 
18120000   0.99443826   -4.3751058      1728000    3565.5917        90600         2279 
18130000    1.0024255   -4.4623347      1728000    3567.6492        90650         2279 
18140000    1.0211036   -4.4021741      1728000    3569.6974        90700         2279 
18150000   0.97817689   -4.2849062      1728000    3571.7455        90750         2280 
18160000    1.0224007   -4.3023669      1728000    3573.7825        90800         2280 
18170000    1.0185727   -4.4733053      1728000    3575.8407        90850         2280 
18180000   0.96757716   -4.2998012      1728000    3577.8968        90900         2280 
18190000   0.95101442   -4.3679643      1728000    3579.9148        90950         2280 
18200000    1.0031983   -4.4578446      1728000    3581.9748        91000         2280 
18210000    1.0527406   -4.3973145      1728000    3584.0198        91050         2282 
18220000    1.0342132   -4.3620865      1728000    3586.0507        91100         2282 
18230000    1.0451458   -4.2997487      1728000    3588.0756        91150         2282 
18240000   0.98794719    -4.331052      1728000    3590.1448        91200         2282 
18250000    1.0059963   -4.3341309      1728000     3592.158        91250         2282 
18260000   0.99256042   -4.3967516      1728000    3594.1808        91300         2282 
18270000   0.98215245   -4.3292378      1728000    3596.2518        91350         2282 
18280000    1.0168102    -4.438896      1728000    3598.2628        91400         2282 
18290000    1.0333812   -4.3881377      1728000    3600.3108        91450         2282 
18300000   0.98426694   -4.4257004      1728000    3602.3787        91500         2282 
18310000    1.0040389   -4.4814802      1728000    3604.4027        91550         2282 
18320000   0.96224794   -4.4670737      1728000    3606.4087        91600         2283 
18330000   0.95910139   -4.3559922      1728000    3608.4058        91650         2283 
18340000   0.94337179   -4.3319902      1728000    3610.4446        91700         2284 
18350000    1.0132346   -4.3638843      1728000    3612.5029        91750         2284 
18360000    1.0191056   -4.2978962      1728000     3614.542        91800         2285 
18370000   0.99709024   -4.3728525      1728000    3616.6289        91850         2286 
18380000   0.96130261   -4.3433748      1728000    3618.6668        91900         2286 
18390000   0.98382646   -4.3553561      1728000    3620.7238        91950         2288 
18400000    1.0434554   -4.3361929      1728000    3622.7648        92000         2288 
18410000   0.98018415   -4.2751495      1728000    3624.7878        92050         2289 
18420000   0.98595108   -4.3771541      1728000    3626.8059        92100         2290 
18430000   0.97316153   -4.3346641      1728000    3628.8256        92150         2292 
18440000   0.99031658   -4.2974486      1728000     3630.847        92200         2292 
18450000   0.96739649   -4.2491903      1728000    3632.8561        92250         2293 
18460000   0.94418084   -4.3557681      1728000    3634.8396        92300         2293 
18470000   0.95535019   -4.2514732      1728000     3636.868        92350         2293 
18480000    0.9986992   -4.3984894      1728000     3638.905        92400         2293 
18490000    1.0219745   -4.2824716      1728000    3640.9609        92450         2295 
18500000   0.96816678   -4.3330856      1728000    3642.9833        92500         2295 
18510000   0.90820907      -4.1959      1728000    3644.9901        92550         2295 
18520000    0.8927255   -4.3740516      1728000    3647.0079        92600         2296 
18530000    1.0238216   -4.4032507      1728000    3648.9799        92650         2296 
18540000    0.9701438   -4.4177115      1728000    3650.9638        92700         2299 
18550000    1.0099007   -4.2515469      1728000    3653.0229        92750         2301 
18560000   0.94059436   -4.3852675      1728000    3655.0451        92800         2301 
18570000    1.0040532   -4.2668371      1728000    3657.0361        92850         2301 
18580000     1.014506   -4.3281845      1728000    3659.0369        92900         2301 
18590000    1.0416548    -4.394371      1728000     3661.062        92950         2302 
18600000    1.0099697   -4.3842835      1728000    3663.0932        93000         2302 
18610000    1.0622803   -4.2108535      1728000    3665.1026        93050         2303 
18620000    1.0055675   -4.3658486      1728000    3667.1418        93100         2305 
18630000   0.97482852    -4.294487      1728000    3669.1797        93150         2305 
18640000    1.0182961   -4.4156796      1728000    3671.1996        93200         2306 
18650000   0.97232423   -4.3324986      1728000    3673.2118        93250         2308 
18660000   0.99683431   -4.1519178      1728000    3675.2626        93300         2308 
18670000    1.0111626   -4.2512672      1728000    3677.2796        93350         2308 
18680000    1.0910402   -4.2673154      1728000    3679.2954        93400         2309 
18690000   0.99995905   -4.4270861      1728000    3681.2874        93450         2312 
18700000    1.0384437   -4.1802983      1728000    3683.3248        93500         2313 
18710000    1.0217538   -4.3185723      1728000    3685.3308        93550         2315 
18720000      1.01251   -4.2846021      1728000     3687.356        93600         2315 
18730000   0.93993133   -4.3065798      1728000    3689.3693        93650         2316 
18740000    1.0192736    -4.299912      1728000    3691.3729        93700         2318 
18750000    1.0035345   -4.2647167      1728000    3693.3648        93750         2318 
18760000    1.0077354   -4.2415017      1728000    3695.3896        93800         2318 
18770000   0.96918833   -4.1737506      1728000    3697.3969        93850         2318 
18780000   0.98304202    -4.257696      1728000    3699.4038        93900         2319 
18790000   0.94236681   -4.2964093      1728000    3701.4347        93950         2319 
18800000   0.94546426   -4.2937954      1728000    3703.4785        94000         2320 
18810000   0.98142882   -4.3411213      1728000     3705.479        94050         2321 
18820000    1.0852209   -4.2662757      1728000    3707.5233        94100         2322 
18830000   0.98607404   -4.2849906      1728000    3709.5376        94150         2322 
18840000   0.99643859   -4.2970884      1728000    3711.5651        94200         2324 
18850000   0.97624576   -4.2098151      1728000     3713.531        94250         2325 
18860000    1.0317781   -4.2381671      1728000    3715.5574        94300         2327 
18870000     1.035154   -4.2505951      1728000     3717.597        94350         2329 
18880000   0.93932994   -4.3057674      1728000    3719.5909        94400         2331 
18890000     1.071278      -4.2821      1728000       3721.6        94450         2334 
18900000    1.0021432   -4.2014858      1728000     3723.568        94500         2335 
18910000    1.0435689   -4.2942185      1728000    3725.5685        94550         2339 
18920000   0.93756548    -4.300301      1728000     3727.549        94600         2339 
18930000    1.0587692   -4.3564384      1728000     3729.558        94650         2339 
18940000   0.97509149   -4.3853406      1728000    3731.5709        94700         2341 
18950000    1.0598754   -4.2330012      1728000    3733.5729        94750         2341 
18960000   0.98363055   -4.2839822      1728000     3735.582        94800         2343 
18970000    1.0406914   -4.4205006      1728000    3737.5632        94850         2345 
18980000   0.99281122   -4.2327466      1728000    3739.5279        94900         2345 
18990000   0.96932333   -4.3447816      1728000     3741.498        94950         2346 
19000000    1.0415721   -4.3918229      1728000    3743.4896        95000         2346 
19010000   0.97330219      -4.2546      1728000    3745.5327        95050         2347 
19020000   0.99507887   -4.3173311      1728000    3747.5232        95100         2348 
19030000    1.0277698   -4.2478393      1728000     3749.546        95150         2350 
19040000    0.9555856   -4.2658686      1728000     3751.576        95200         2350 
19050000     0.976608   -4.3139107      1728000    3753.5809        95250         2350 
19060000   0.95278432    -4.376707      1728000    3755.6822        95300         2350 
19070000   0.97444189   -4.2012277      1728000    3757.7001        95350         2350 
19080000   0.98710591   -4.3622697      1728000    3759.7349        95400         2350 
19090000    1.0314453   -4.2537389      1728000    3761.7999        95450         2351 
19100000   0.95786129   -4.3478626      1728000    3763.8548        95500         2351 
19110000   0.96939811   -4.3122606      1728000     3765.907        95550         2352 
19120000   0.95537388   -4.3438099      1728000     3767.895        95600         2352 
19130000   0.95054588   -4.4193936      1728000    3769.8742        95650         2353 
19140000    1.0277538   -4.3907915      1728000     3771.933        95700         2353 
19150000    1.0154584   -4.3413606      1728000    3773.9268        95750         2353 
19160000   0.96986485   -4.2504241      1728000    3775.9801        95800         2353 
19170000    1.0454575   -4.4246191      1728000    3777.9682        95850         2354 
19180000    1.0102843   -4.3369734      1728000    3780.0327        95900         2354 
19190000    1.0059875   -4.2851975      1728000    3782.0553        95950         2354 
19200000   0.98460324   -4.3230866      1728000    3784.0931        96000         2355 
19210000   0.99962825   -4.4587919      1728000    3786.1126        96050         2356 
19220000    1.0172412   -4.3561366      1728000    3788.1541        96100         2356 
19230000   0.98965262   -4.4092282      1728000    3790.1468        96150         2356 
19240000   0.98617708   -4.2769233      1728000    3792.1701        96200         2358 
19250000   0.97962591   -4.3235217      1728000    3794.1808        96250         2359 
19260000    1.0383077   -4.3315886      1728000    3796.2644        96300         2362 
19270000   0.95749811   -4.2592923      1728000    3798.2683        96350         2362 
19280000    1.0349525   -4.3392896      1728000    3800.2951        96400         2363 
19290000    1.0350928   -4.3880072      1728000      3802.32        96450         2363 
19300000    1.0060099   -4.4335456      1728000     3804.317        96500         2363 
19310000    1.0470773   -4.4113714      1728000     3806.361        96550         2363 
19320000    1.0060138   -4.4562368      1728000    3808.3982        96600         2363 
19330000   0.98662505   -4.4037969      1728000    3810.4503        96650         2363 
19340000   0.97570261   -4.4529328      1728000    3812.4906        96700         2363 
19350000     1.052385   -4.4321888      1728000    3814.4941        96750         2363 
19360000    1.0009188   -4.3042765      1728000    3816.5638        96800         2365 
19370000   0.95562217   -4.2544852      1728000    3818.5819        96850         2366 
19380000   0.92921398   -4.2601386      1728000    3820.5738        96900         2366 
19390000   0.99350795   -4.3383245      1728000    3822.5363        96950         2368 
19400000   0.95813709   -4.3125607      1728000    3824.5689        97000         2368 
19410000   0.98029463    -4.287172      1728000    3826.5961        97050         2368 
19420000   0.97326458   -4.3904513      1728000    3828.6091        97100         2368 
19430000    0.9956326   -4.3212585      1728000    3830.6039        97150         2370 
19440000    1.0344264    -4.318016      1728000    3832.6603        97200         2370 
19450000   0.99204169   -4.3110728      1728000    3834.6808        97250         2371 
19460000   0.96947088   -4.3374485      1728000    3836.7408        97300         2371 
19470000    1.0389339   -4.3042302      1728000    3838.7733        97350         2372 
19480000   0.95220217   -4.2589151      1728000    3840.8017        97400         2372 
19490000    1.0041091   -4.2823983      1728000    3842.8473        97450         2373 
19500000   0.98663188   -4.3190497      1728000    3844.8664        97500         2373 
19510000     1.015843   -4.3809378      1728000    3846.8651        97550         2373 
19520000     1.011384   -4.3672227      1728000    3848.8744        97600         2374 
19530000     1.020786   -4.2643995      1728000    3850.9533        97650         2374 
19540000   0.92370749   -4.2521124      1728000    3852.9781        97700         2376 
19550000    1.0147368   -4.2448035      1728000     3854.948        97750         2376 
19560000    1.0377885   -4.3699507      1728000    3856.9701        97800         2378 
19570000    1.0146768    -4.438659      1728000     3858.969        97850         2379 
19580000   0.93914771   -4.4064966      1728000    3860.9814        97900         2379 
19590000    1.0063071   -4.3637125      1728000    3863.0321        97950         2380 
19600000    0.9683568   -4.3103878      1728000    3865.0793        98000         2380 
19610000     1.037433   -4.2944816      1728000    3867.0849        98050         2380 
19620000    1.0481787   -4.3207756      1728000    3869.1048        98100         2380 
19630000   0.98897531   -4.3655731      1728000    3871.1271        98150         2380 
19640000    1.0378687   -4.3789046      1728000    3873.0942        98200         2380 
19650000    1.0909126   -4.2687678      1728000    3875.1627        98250         2380 
19660000    1.0105692    -4.248294      1728000    3877.1282        98300         2380 
19670000    1.0953838    -4.490041      1728000     3879.113        98350         2380 
19680000    1.0161844   -4.3504725      1728000    3881.1231        98400         2380 
19690000   0.96642787   -4.3944738      1728000    3883.2112        98450         2380 
19700000   0.97982302   -4.3306322      1728000    3885.2228        98500         2381 
19710000   0.96497634   -4.2116689      1728000    3887.2668        98550         2381 
19720000   0.98591981   -4.3153945      1728000     3889.253        98600         2381 
19730000    1.0658636   -4.3180509      1728000    3891.2393        98650         2384 
19740000    1.0630352   -4.2159779      1728000    3893.2511        98700         2384 
19750000   0.99499511   -4.2926383      1728000    3895.3182        98750         2384 
19760000    1.0270526   -4.4032135      1728000    3897.3128        98800         2384 
19770000    1.0034733   -4.3739376      1728000    3899.3364        98850         2384 
19780000    1.0527642   -4.2954977      1728000    3901.3182        98900         2384 
19790000     1.046783   -4.4782444      1728000    3903.3211        98950         2384 
19800000     1.005382   -4.4240818      1728000    3905.3514        99000         2384 
19810000   0.96396088   -4.4395259      1728000    3907.3641        99050         2384 
19820000    1.0409906   -4.4173657      1728000    3909.3931        99100         2385 
19830000   0.99259504   -4.4489224      1728000    3911.4025        99150         2386 
19840000    1.0021619   -4.3298794      1728000    3913.3969        99200         2386 
19850000   0.97703732   -4.3781768      1728000     3915.424        99250         2388 
19860000    1.0133018   -4.2901748      1728000    3917.4242        99300         2388 
19870000   0.92663852   -4.2845105      1728000    3919.4002        99350         2390 
19880000   0.98056749   -4.2047317      1728000    3921.4091        99400         2390 
19890000   0.99436488   -4.4166888      1728000    3923.3849        99450         2390 
19900000    1.0590598   -4.4023738      1728000    3925.3972        99500         2390 
19910000   0.97301942   -4.3099179      1728000    3927.3822        99550         2393 
19920000   0.97145867   -4.4129284      1728000    3929.3964        99600         2395 
19930000    1.0186527    -4.389308      1728000     3931.421        99650         2395 
19940000     1.037727   -4.4792223      1728000    3933.4851        99700         2396 
19950000   0.99389274   -4.4003376      1728000     3935.515        99750         2397 
19960000   0.94964978   -4.2382159      1728000    3937.5641        99800         2398 
19970000   0.96062474   -4.3857327      1728000    3939.6665        99850         2398 
19980000   0.96160699   -4.2547269      1728000    3941.7919        99900         2399 
19990000   0.96991818   -4.3186793      1728000    3943.8121        99950         2399 
20000000     0.997228   -4.3777773      1728000    3945.8365       100000         2399 
20010000    1.0456511   -4.3826744      1728000    3947.8603       100050         2399 
20020000    1.0324683   -4.4679832      1728000    3949.8173       100100         2401 
20030000   0.95909104   -4.4913915      1728000    3951.8162       100150         2401 
20040000    1.0156391   -4.4817858      1728000    3953.8312       100200         2401 
20050000    1.0052623   -4.2892416      1728000    3955.8589       100250         2402 
20060000    1.0610405   -4.2800378      1728000    3957.9242       100300         2402 
20070000   0.97475258   -4.3792981      1728000    3959.9238       100350         2403 
20080000   0.95742875   -4.3243734      1728000    3961.9789       100400         2403 
20090000    0.9222413   -4.3572149      1728000    3964.0016       100450         2403 
20100000   0.97676811   -4.4520629      1728000    3966.0402       100500         2403 
20110000   0.99034588   -4.1838872      1728000     3968.048       100550         2403 
20120000    1.0605479   -4.4117225      1728000    3970.1142       100600         2403 
20130000    1.0340852    -4.290265      1728000     3972.189       100650         2404 
20140000    1.0169248    -4.391774      1728000     3974.244       100700         2404 
20150000    1.0283555   -4.4475985      1728000    3976.2637       100750         2404 
20160000    1.0061454   -4.3660061      1728000    3978.3015       100800         2404 
20170000    1.0185988   -4.3896873      1728000    3980.3702       100850         2404 
20180000   0.94031688   -4.3123845      1728000    3982.4163       100900         2405 
20190000    1.0698776    -4.363971      1728000    3984.4292       100950         2405 
20200000    1.0338921   -4.4250746      1728000    3986.5133       101000         2406 
20210000   0.95620774   -4.3385469      1728000     3988.561       101050         2406 
20220000     1.082789   -4.3801224      1728000     3990.656       101100         2406 
20230000     1.000954   -4.4343004      1728000    3992.6812       101150         2407 
20240000    1.0206314   -4.3534113      1728000    3994.7349       101200         2408 
20250000   0.99512818    -4.445967      1728000    3996.7985       101250         2409 
20260000   0.98886118   -4.1670587      1728000    3998.8358       101300         2410 
20270000     1.007912   -4.3723848      1728000    4000.8502       101350         2410 
20280000   0.95160278   -4.3200201      1728000    4002.8926       101400         2410 
20290000    1.0950253   -4.3616035      1728000     4004.909       101450         2410 
20300000    1.0264469   -4.2529115      1728000    4006.9491       101500         2410 
20310000    1.0268372   -4.3640786      1728000     4008.985       101550         2410 
20320000   0.98886579   -4.3833724      1728000    4011.0212       101600         2410 
20330000     1.014992   -4.3373895      1728000    4013.0762       101650         2410 
20340000    1.0356117    -4.312593      1728000    4015.0703       101700         2411 
20350000    1.0059565   -4.2734478      1728000    4017.0413       101750         2411 
20360000   0.98698686   -4.3174622      1728000    4019.0329       101800         2411 
20370000   0.99740447   -4.3025746      1728000    4021.0263       101850         2411 
20380000    0.9478567   -4.4969858      1728000    4023.0353       101900         2411 
20390000    1.0089505   -4.3807423      1728000    4025.0528       101950         2411 
20400000    1.0878554   -4.3549691      1728000    4027.0703       102000         2411 
20410000    1.0023654   -4.3909224      1728000    4029.0902       102050         2411 
20420000   0.99244098   -4.3164154      1728000    4031.1638       102100         2412 
20430000    1.0222362   -4.2990713      1728000    4033.1633       102150         2412 
20440000    1.0425412    -4.351658      1728000    4035.2162       102200         2412 
20450000    1.0177539   -4.3596425      1728000    4037.2301       102250         2412 
20460000    1.0124398   -4.3056371      1728000    4039.2523       102300         2412 
20470000    1.0267555   -4.3225947      1728000    4041.2889       102350         2412 
20480000     1.004884   -4.4319496      1728000    4043.3136       102400         2413 
20490000     1.023707   -4.5280623      1728000    4045.3772       102450         2413 
20500000   0.95482587   -4.4431684      1728000     4047.406       102500         2414 
20510000    1.0251116   -4.2123258      1728000    4049.4045       102550         2414 
20520000    1.0137923   -4.4028119      1728000    4051.4593       102600         2414 
20530000    1.0303218   -4.3300325      1728000    4053.4821       102650         2414 
20540000     1.036942   -4.3993079      1728000    4055.5202       102700         2414 
20550000    1.0190115   -4.3976961      1728000    4057.5174       102750         2414 
20560000   0.99733503   -4.4121737      1728000    4059.5342       102800         2414 
20570000    1.0009054   -4.3544036      1728000    4061.5417       102850         2414 
20580000    1.0257302   -4.4281245      1728000    4063.5646       102900         2415 
20590000   0.96460743   -4.4028809      1728000     4065.576       102950         2415 
20600000    1.0030307   -4.3126018      1728000    4067.5863       103000         2415 
20610000   0.97861501   -4.3779018      1728000    4069.5509       103050         2415 
20620000    1.0905999   -4.3981488      1728000    4071.5803       103100         2415 
20630000   0.94233816   -4.3209604      1728000    4073.5743       103150         2415 
20640000    1.0013139   -4.2579762      1728000    4075.5814       103200         2417 
20650000    1.0303926   -4.3061981      1728000    4077.5575       103250         2417 
20660000   0.91774152   -4.2692339      1728000     4079.503       103300         2418 
20670000    1.0565893   -4.1735808      1728000    4081.5123       103350         2418 
20680000    1.0097688   -4.2778225      1728000    4083.5303       103400         2418 
20690000     1.036017   -4.3191051      1728000    4085.5103       103450         2418 
20700000   0.96665405   -4.3141871      1728000    4087.5431       103500         2418 
20710000    0.9310281   -4.3522796      1728000     4089.595       103550         2420 
20720000   0.96863843   -4.3108574      1728000    4091.6138       103600         2421 
20730000     1.017363   -4.3583069      1728000    4093.6051       103650         2421 
20740000   0.99923461    -4.380826      1728000    4095.6099       103700         2421 
20750000   0.98745724   -4.3544305      1728000    4097.5896       103750         2421 
20760000   0.98298227   -4.4052183      1728000    4099.5494       103800         2421 
20770000   0.95567132   -4.3370506      1728000    4101.5553       103850         2421 
20780000   0.96567201   -4.1973213      1728000    4103.5346       103900         2421 
20790000   0.97802245   -4.2207384      1728000    4105.5524       103950         2421 
20800000    0.9890565   -4.3519866      1728000    4107.5571       104000         2421 
20810000   0.95953933   -4.3045281      1728000    4109.5425       104050         2421 
20820000    1.0106225   -4.2929909      1728000    4111.5148       104100         2421 
20830000    1.0467437   -4.3965218      1728000    4113.5204       104150         2422 
20840000   0.99854599   -4.4214001      1728000    4115.5599       104200         2422 
20850000    1.0146343   -4.3498604      1728000    4117.5844       104250         2422 
20860000    0.9697326    -4.311894      1728000    4119.6371       104300         2423 
20870000   0.95414714   -4.3682237      1728000    4121.7122       104350         2423 
20880000    1.0839056   -4.4841195      1728000    4123.7892       104400         2423 
20890000    1.0596257   -4.3970831      1728000    4125.8651       104450         2423 
20900000   0.97224531   -4.4931033      1728000    4127.9162       104500         2423 
20910000   0.97791595   -4.3117916      1728000    4129.9365       104550         2424 
20920000    1.0537153   -4.3849582      1728000    4131.9676       104600         2424 
20930000   0.95570415   -4.4358653      1728000    4134.1404       104650         2424 
20940000    1.0352945   -4.3259425      1728000    4136.2014       104700         2424 
20950000    1.0155057   -4.3679752      1728000    4138.2674       104750         2424 
20960000    0.9840562   -4.2625129      1728000    4140.3052       104800         2424 
20970000    1.0386876   -4.3334221      1728000    4142.4164       104850         2425 
20980000    1.0246252   -4.3326988      1728000    4144.5762       104900         2426 
20990000    1.0505417   -4.3057575      1728000    4146.5454       104950         2426 
21000000   0.99660863   -4.3789748      1728000    4148.6477       105000         2426 
21010000    1.0299368   -4.4328708      1728000    4150.6964       105050         2426 
21020000   0.95907618   -4.3067003      1728000    4152.6784       105100         2426 
21030000   0.94478918    -4.364016      1728000    4154.6854       105150         2426 
21040000    1.0367444   -4.3559118      1728000    4156.6954       105200         2426 
21050000    0.9996252   -4.4068241      1728000    4158.7177       105250         2426 
21060000   0.94880225   -4.3000566      1728000    4160.7385       105300         2426 
21070000   0.98965407   -4.3689819      1728000    4162.7184       105350         2426 
21080000    1.0175679    -4.380581      1728000    4164.6994       105400         2426 
21090000   0.99473942   -4.3374266      1728000    4166.7191       105450         2427 
21100000    1.0196722   -4.3010459      1728000    4168.7774       105500         2428 
21110000    1.0358286   -4.3068291      1728000    4170.7741       105550         2429 
21120000   0.99696059   -4.3176797      1728000    4172.8584       105600         2429 
21130000   0.99852508   -4.2772145      1728000    4174.8633       105650         2429 
21140000   0.97368622   -4.3589327      1728000    4176.8994       105700         2430 
21150000    1.0202714   -4.2653858      1728000    4178.9235       105750         2430 
21160000   0.94835517   -4.3239883      1728000    4180.9115       105800         2431 
21170000   0.95316073   -4.4371866      1728000    4182.9071       105850         2432 
21180000    1.0288713   -4.3240741      1728000    4184.9284       105900         2432 
21190000    1.0624798   -4.4152993      1728000    4186.9377       105950         2432 
21200000    1.0290831   -4.3881674      1728000    4188.9466       106000         2433 
21210000   0.97377224   -4.3789277      1728000    4190.9964       106050         2434 
21220000   0.98062132   -4.3228465      1728000    4192.9985       106100         2435 
21230000   0.99572176   -4.3226581      1728000    4195.0122       106150         2435 
21240000   0.96987903   -4.3414788      1728000    4197.0202       106200         2435 
21250000    1.0568177   -4.3342286      1728000    4198.9745       106250         2439 
21260000    1.0392218      -4.3989      1728000    4200.9973       106300         2440 
21270000    1.0755069   -4.3593571      1728000    4202.9604       106350         2443 
21280000   0.96653289   -4.3412454      1728000    4205.0005       106400         2444 
21290000   0.99596004   -4.3117598      1728000    4206.9992       106450         2444 
21300000    1.0368833    -4.301714      1728000    4209.0055       106500         2445 
21310000   0.97678364   -4.3173609      1728000    4210.9803       106550         2447 
21320000   0.96064549   -4.2722771      1728000    4212.9875       106600         2447 
21330000    1.0001266   -4.2993567      1728000    4215.0105       106650         2447 
21340000    1.0397476   -4.2430395      1728000    4217.0629       106700         2447 
21350000    1.0029252   -4.3324647      1728000    4219.0857       106750         2447 
21360000    1.0144543   -4.2680504      1728000    4221.0705       106800         2447 
21370000   0.97872276   -4.3475157      1728000    4222.9904       106850         2448 
21380000    0.9708902   -4.3309072      1728000    4224.9344       106900         2449 
21390000   0.97435906   -4.3897075      1728000    4227.0169       106950         2449 
21400000    1.0032268   -4.4835027      1728000    4229.0745       107000         2450 
21410000   0.99276381   -4.3225042      1728000    4231.1015       107050         2450 
21420000   0.97295904   -4.3273915      1728000    4233.1055       107100         2450 
21430000   0.99084866   -4.3087539      1728000    4235.1295       107150         2450 
21440000    1.0541504   -4.3119491      1728000    4237.1534       107200         2450 
21450000    1.0043365   -4.4131904      1728000    4239.1937       107250         2451 
21460000   0.95466547   -4.3768841      1728000    4241.2173       107300         2451 
21470000    1.0075015   -4.3508768      1728000    4243.1948       107350         2451 
21480000   0.94951735   -4.4623975      1728000    4245.2099       107400         2451 
21490000    0.9790975   -4.4334551      1728000     4247.155       107450         2452 
21500000    1.0114167   -4.3298944      1728000    4249.1198       107500         2452 
21510000   0.95935021   -4.3208994      1728000    4251.0648       107550         2453 
21520000   0.97633479   -4.3173117      1728000    4253.0574       107600         2453 
21530000    0.9329114   -4.2917186      1728000    4255.0775       107650         2453 
21540000    1.0530148   -4.2884579      1728000    4257.0843       107700         2453 
21550000   0.98269923   -4.3169877      1728000    4259.0935       107750         2454 
21560000   0.98089959   -4.3621297      1728000    4261.0813       107800         2454 
21570000   0.98913486   -4.2830998      1728000    4263.1045       107850         2454 
21580000   0.95708252      -4.2305      1728000    4265.1196       107900         2454 
21590000   0.99805186     -4.30273      1728000    4267.1183       107950         2454 
21600000    1.0120748   -4.3497071      1728000    4269.1585       108000         2454 
21610000    1.0146368   -4.3580438      1728000    4271.1926       108050         2454 
21620000   0.95382537    -4.323919      1728000    4273.2076       108100         2454 
21630000    1.0198203   -4.3471226      1728000    4275.2803       108150         2455 
21640000   0.95328587   -4.2713375      1728000    4277.3084       108200         2456 
21650000   0.98373539   -4.3076975      1728000    4279.3237       108250         2456 
21660000   0.96522533    -4.276027      1728000    4281.3566       108300         2456 
21670000   0.99338199   -4.3814888      1728000    4283.3463       108350         2457 
21680000   0.93955912   -4.4333174      1728000    4285.3956       108400         2457 
21690000   0.98200629   -4.4584353      1728000    4287.4126       108450         2457 
21700000    1.0370357   -4.2520026      1728000    4289.4305       108500         2459 
21710000   0.99857063   -4.3614586      1728000    4291.4688       108550         2459 
21720000   0.99147719   -4.3534653      1728000    4293.5125       108600         2459 
21730000    1.0212616   -4.2400268      1728000    4295.5312       108650         2459 
21740000    1.0057519   -4.3383941      1728000    4297.5781       108700         2459 
21750000    1.0572108   -4.3372278      1728000     4299.578       108750         2459 
21760000   0.94880151   -4.3280617      1728000    4301.5924       108800         2459 
21770000    1.0071539   -4.3170196      1728000     4303.565       108850         2460 
21780000    1.0044354   -4.2808942      1728000    4305.5815       108900         2461 
21790000   0.94546574   -4.3162218      1728000    4307.5714       108950         2462 
21800000    0.9808427   -4.2887853      1728000    4309.6461       109000         2463 
21810000   0.98500943   -4.4636812      1728000    4311.6727       109050         2463 
21820000   0.94103159   -4.3630697      1728000    4313.7035       109100         2463 
21830000   0.95630494   -4.3105168      1728000    4315.6861       109150         2463 
21840000   0.99273071   -4.4169683      1728000    4317.7378       109200         2465 
21850000    1.0084564   -4.3575189      1728000    4319.7396       109250         2466 
21860000    0.9753878   -4.3210441      1728000    4321.7426       109300         2467 
21870000   0.97441405   -4.2899544      1728000    4323.7613       109350         2469 
21880000   0.97830283   -4.3607877      1728000    4325.7865       109400         2469 
21890000    1.0124515   -4.2985058      1728000    4327.7553       109450         2471 
21900000   0.98046942   -4.3965019      1728000    4329.7426       109500         2471 
21910000   0.97220791   -4.3145936      1728000    4331.7481       109550         2471 
21920000     0.983511   -4.3341417      1728000    4333.7434       109600         2471 
21930000     1.032157   -4.4521629      1728000    4335.7627       109650         2471 
21940000    1.0084722   -4.3970845      1728000    4337.8247       109700         2471 
21950000    1.0149331   -4.3480489      1728000    4339.8127       109750         2471 
21960000   0.93779153   -4.3965747      1728000    4341.7945       109800         2472 
21970000    1.0700457   -4.2695096      1728000    4343.7996       109850         2472 
21980000    1.0280735   -4.2589095      1728000    4345.8006       109900         2473 
21990000    1.0478566   -4.2875061      1728000    4347.7854       109950         2473 
22000000   0.99454702   -4.3797156      1728000    4349.8131       110000         2473 
22010000   0.98235551    -4.405846      1728000    4351.8276       110050         2474 
22020000    1.0623604   -4.3032843      1728000    4353.7927       110100         2474 
22030000    1.0279745   -4.5034497      1728000    4355.7887       110150         2474 
22040000    0.9938539   -4.2888529      1728000    4357.7852       110200         2474 
22050000    1.0017493   -4.4248806      1728000    4359.7551       110250         2474 
22060000   0.94600575   -4.2651165      1728000    4361.7779       110300         2475 
22070000    1.0267452   -4.3667132      1728000    4363.7577       110350         2475 
22080000    1.0087521   -4.2923077      1728000    4365.7853       110400         2475 
22090000    1.0354745   -4.3543162      1728000    4367.8296       110450         2475 
22100000   0.99880023   -4.3247374      1728000    4369.8236       110500         2475 
22110000   0.95913553   -4.3242068      1728000    4371.8334       110550         2475 
22120000    0.9731601   -4.3035883      1728000    4373.9056       110600         2475 
22130000    1.0657777   -4.4003899      1728000    4375.9376       110650         2475 
22140000    1.0111983   -4.3458864      1728000    4377.9861       110700         2475 
22150000    0.9838818   -4.3004661      1728000    4380.0442       110750         2475 
22160000   0.95139445   -4.2947384      1728000    4382.0685       110800         2475 
22170000   0.99760451   -4.3950505      1728000    4384.1547       110850         2475 
22180000    1.1032815   -4.3186074      1728000    4386.2583       110900         2475 
22190000   0.98712295   -4.4117498      1728000    4388.2326       110950         2475 
22200000    1.0069038    -4.491313      1728000    4390.3658       111000         2475 
22210000   0.98728877   -4.4497823      1728000    4392.4456       111050         2475 
22220000    1.0378453   -4.3526337      1728000    4394.4923       111100         2475 
22230000   0.97767304   -4.3503058      1728000    4396.5403       111150         2475 
22240000    1.0373427   -4.2593685      1728000     4398.536       111200         2475 
22250000    1.0697334   -4.2642145      1728000    4400.5977       111250         2475 
22260000    1.0312524   -4.2821202      1728000    4402.6496       111300         2475 
22270000   0.96307702   -4.3567522      1728000    4404.6809       111350         2475 
22280000   0.94722756   -4.3086769      1728000    4406.7005       111400         2475 
22290000   0.97426241   -4.3845412      1728000    4408.7316       111450         2475 
22300000   0.97876528   -4.3387679      1728000    4410.7402       111500         2476 
22310000    0.9452069   -4.3234153      1728000    4412.7447       111550         2476 
22320000   0.94712934   -4.4199341      1728000    4414.7375       111600         2476 
22330000    1.0520355   -4.2506088      1728000    4416.7709       111650         2476 
22340000    0.9395635   -4.4466868      1728000    4418.8125       111700         2476 
22350000    1.0084897   -4.4273192      1728000    4420.8574       111750         2476 
22360000    1.0596087   -4.4535953      1728000    4422.8685       111800         2477 
22370000   0.98532581   -4.4011379      1728000    4424.8912       111850         2477 
22380000    1.0534974   -4.4158314      1728000    4426.9739       111900         2477 
22390000   0.97295361   -4.4025296      1728000    4429.0406       111950         2477 
22400000    1.0198846   -4.4348998      1728000    4431.1035       112000         2477 
22410000    1.0800174    -4.304347      1728000    4433.1617       112050         2477 
22420000    1.0260731   -4.2254079      1728000    4435.2087       112100         2477 
22430000   0.97073556   -4.3078088      1728000    4437.2684       112150         2477 
22440000   0.94326858   -4.2920077      1728000    4439.3577       112200         2477 
22450000    1.0327741   -4.3747561      1728000    4441.3577       112250         2477 
22460000    1.0061164    -4.316742      1728000    4443.3847       112300         2478 
22470000    1.0620035   -4.2010294      1728000    4445.4077       112350         2478 
22480000   0.94956002     -4.31791      1728000    4447.4228       112400         2478 
22490000    0.9761197   -4.3090891      1728000    4449.4077       112450         2478 
22500000    1.0820743    -4.370413      1728000    4451.4008       112500         2479 
22510000    1.0395341   -4.3429675      1728000    4453.4584       112550         2480 
22520000    1.0223074   -4.2966468      1728000    4455.4878       112600         2480 
22530000   0.96602502   -4.3542318      1728000    4457.4547       112650         2480 
22540000   0.95293071   -4.3344831      1728000    4459.4637       112700         2480 
22550000     0.975477   -4.2646124      1728000    4461.5268       112750         2480 
22560000    1.0333423   -4.4213724      1728000    4463.5557       112800         2481 
22570000   0.98519922   -4.3118472      1728000    4465.6078       112850         2481 
22580000   0.97796778   -4.4556065      1728000    4467.6437       112900         2482 
22590000    1.0406682   -4.3261721      1728000    4469.6637       112950         2482 
22600000   0.95112211   -4.2704831      1728000    4471.7188       113000         2482 
22610000   0.98876173   -4.2952177      1728000    4473.7727       113050         2482 
22620000   0.98050187   -4.2991938      1728000    4475.8269       113100         2482 
22630000    1.0368617   -4.2145223      1728000    4477.8872       113150         2484 
22640000    1.0317045   -4.3868436      1728000    4479.8675       113200         2484 
22650000   0.98665692   -4.4007299      1728000    4481.8653       113250         2485 
22660000    1.0256323   -4.4539287      1728000    4483.8648       113300         2487 
22670000    1.0144741   -4.4489481      1728000    4485.8942       113350         2487 
22680000    1.0108351   -4.2635266      1728000    4487.9274       113400         2488 
22690000    1.0356014   -4.3920189      1728000    4489.9228       113450         2489 
22700000   0.98012216   -4.3861091      1728000    4491.9678       113500         2490 
22710000   0.97489495   -4.2441588      1728000    4493.9648       113550         2491 
22720000    0.9748922    -4.382485      1728000    4496.0008       113600         2491 
22730000   0.94390023   -4.3937243      1728000    4498.0067       113650         2491 
22740000    1.0102254   -4.2478676      1728000    4500.0718       113700         2492 
22750000   0.97024452   -4.2900083      1728000    4502.0801       113750         2493 
22760000   0.98128276   -4.3203373      1728000    4504.0708       113800         2494 
22770000   0.97524556   -4.2585524      1728000    4506.0666       113850         2494 
22780000   0.96571249   -4.2533046      1728000    4508.0508       113900         2495 
22790000   0.93183302   -4.3399024      1728000     4510.073       113950         2495 
22800000   0.97976596   -4.2995341      1728000    4512.0929       114000         2495 
22810000   0.99098561    -4.340297      1728000    4514.1148       114050         2495 
22820000   0.93454144   -4.2701295      1728000    4516.1468       114100         2495 
22830000    1.0503013   -4.3409613      1728000    4518.1726       114150         2496 
22840000    1.0217953   -4.3534193      1728000    4520.2407       114200         2496 
22850000    1.0052179   -4.3293578      1728000    4522.2508       114250         2496 
22860000    1.0430018   -4.3252077      1728000      4524.22       114300         2497 
22870000   0.98368881   -4.4375224      1728000    4526.2738       114350         2498 
22880000     1.021579   -4.2695996      1728000    4528.2993       114400         2498 
22890000    1.0407302    -4.465602      1728000     4530.318       114450         2498 
22900000   0.95843925   -4.3558153      1728000    4532.3388       114500         2498 
22910000   0.96389616   -4.4668426      1728000    4534.3335       114550         2498 
22920000    1.0325636   -4.2559375      1728000    4536.3978       114600         2498 
22930000   0.95628382   -4.4012071      1728000    4538.4378       114650         2498 
22940000   0.99678428   -4.2781757      1728000    4540.4838       114700         2499 
22950000   0.98169619   -4.4041208      1728000    4542.5246       114750         2500 
22960000   0.96536418   -4.4697241      1728000    4544.5506       114800         2500 
22970000    1.0072104    -4.272936      1728000    4546.5978       114850         2500 
22980000   0.95298687   -4.4494253      1728000    4548.6259       114900         2500 
22990000    1.0166744   -4.3528081      1728000    4550.6959       114950         2500 
23000000    0.9477017   -4.2920544      1728000    4552.7398       115000         2500 
23010000   0.95389441   -4.3210024      1728000      4554.79       115050         2500 
23020000   0.97405219    -4.318047      1728000     4556.832       115100         2500 
23030000   0.95511377   -4.3594321      1728000    4558.8389       115150         2500 
23040000    1.0379674   -4.3651445      1728000    4560.8592       115200         2500 
23050000    1.0092581   -4.4237971      1728000    4562.8698       115250         2500 
23060000   0.93184853   -4.2914357      1728000    4564.9005       115300         2500 
23070000   0.98327842   -4.3636981      1728000    4566.9327       115350         2500 
23080000   0.99419713   -4.3430027      1728000    4568.9794       115400         2500 
23090000    1.0620208   -4.5125469      1728000    4571.0129       115450         2500 
23100000    1.0775979   -4.3724045      1728000    4573.0762       115500         2500 
23110000    1.0219264   -4.3776502      1728000    4575.1239       115550         2501 
23120000    1.0314137   -4.3811419      1728000    4577.1726       115600         2501 
23130000    1.0093802   -4.3171368      1728000    4579.2209       115650         2501 
23140000    1.0111406   -4.3994544      1728000    4581.2796       115700         2501 
23150000   0.98704762   -4.3174994      1728000    4583.3127       115750         2501 
23160000   0.95743757   -4.3855258      1728000    4585.2858       115800         2502 
23170000   0.98126264   -4.3339154      1728000    4587.3151       115850         2502 
23180000    1.0643863   -4.3987798      1728000    4589.3278       115900         2502 
23190000   0.98661731    -4.370346      1728000    4591.3547       115950         2502 
23200000    1.0488049   -4.3301814      1728000    4593.4584       116000         2502 
23210000   0.94325932   -4.5059888      1728000    4595.4808       116050         2503 
23220000   0.99347637   -4.4304687      1728000    4597.4631       116100         2503 
23230000   0.98872631   -4.2857511      1728000    4599.4979       116150         2503 
23240000   0.98273214    -4.349425      1728000    4601.4989       116200         2503 
23250000     1.015742   -4.4486671      1728000    4603.5106       116250         2504 
23260000    1.0149133   -4.3724269      1728000    4605.5666       116300         2504 
23270000    1.0130839   -4.3574038      1728000    4607.5856       116350         2504 
23280000    1.0062572   -4.4794174      1728000    4609.6429       116400         2505 
23290000   0.97774975    -4.384956      1728000    4611.6879       116450         2505 
23300000    1.0317928   -4.2346865      1728000    4613.6848       116500         2505 
23310000   0.98161389   -4.4226142      1728000    4615.7299       116550         2505 
23320000    1.0604114   -4.3442019      1728000    4617.7409       116600         2505 
23330000    1.0017327   -4.4276133      1728000    4619.7329       116650         2505 
23340000   0.96831393    -4.539075      1728000    4621.7609       116700         2505 
23350000   0.98039219   -4.2841741      1728000    4623.7657       116750         2505 
23360000    1.0007767   -4.4413811      1728000    4625.7769       116800         2505 
23370000    1.0205873   -4.3766847      1728000    4627.7999       116850         2506 
23380000   0.96120438   -4.3561805      1728000    4629.7999       116900         2506 
23390000    1.0217583    -4.314599      1728000    4631.7569       116950         2506 
23400000   0.98775891   -4.3443261      1728000     4633.828       117000         2507 
23410000    1.0119812   -4.3461458      1728000    4635.9739       117050         2508 
23420000    1.0489755   -4.5143103      1728000     4638.107       117100         2508 
23430000   0.96982307   -4.4216327      1728000    4640.2686       117150         2508 
23440000    1.0061702   -4.2018993      1728000    4642.2869       117200         2508 
23450000    1.0133676   -4.4268599      1728000    4644.3061       117250         2508 
23460000    1.0400642   -4.2703156      1728000    4646.3088       117300         2508 
23470000    1.0029041   -4.3722134      1728000    4648.3289       117350         2508 
23480000   0.98913733   -4.3958424      1728000    4650.3148       117400         2508 
23490000    1.0986209   -4.4456801      1728000    4652.3427       117450         2508 
23500000   0.99574868   -4.2691238      1728000    4654.2917       117500         2508 
23510000    1.0170265   -4.3657891      1728000    4656.3339       117550         2509 
23520000    0.9999784    -4.335702      1728000    4658.2902       117600         2509 
23530000    1.0133266   -4.3004478      1728000    4660.2584       117650         2510 
23540000    1.0046646    -4.383914      1728000    4662.2681       117700         2510 
23550000   0.96690062   -4.4017171      1728000    4664.2682       117750         2510 
23560000   0.98947202   -4.4028435      1728000    4666.2399       117800         2510 
23570000   0.92660224   -4.2837732      1728000    4668.2096       117850         2510 
23580000   0.94860142    -4.362473      1728000    4670.2209       117900         2510 
23590000    1.0588294   -4.3473611      1728000    4672.2257       117950         2510 
23600000    1.0356578   -4.4771869      1728000     4674.272       118000         2510 
23610000   0.97554608   -4.3536362      1728000    4676.3369       118050         2510 
23620000   0.98870622   -4.3374199      1728000    4678.4021       118100         2510 
23630000    1.0396859   -4.3944305      1728000     4680.466       118150         2511 
23640000   0.99067168   -4.2630665      1728000    4682.4931       118200         2511 
23650000   0.95467351   -4.3118648      1728000    4684.4923       118250         2512 
23660000   0.97793093   -4.3157969      1728000    4686.5399       118300         2512 
23670000   0.95916519   -4.4152044      1728000    4688.5418       118350         2512 
23680000   0.94635279   -4.3342553      1728000    4690.5337       118400         2512 
23690000    0.9854223   -4.3191328      1728000    4692.5559       118450         2513 
23700000    1.0306543   -4.2825298      1728000    4694.6224       118500         2513 
23710000    1.0253141   -4.4384918      1728000    4696.6751       118550         2513 
23720000   0.98600264   -4.3617883      1728000     4698.729       118600         2514 
23730000   0.92777076   -4.3391713      1728000    4700.7279       118650         2514 
23740000   0.92272591   -4.4019703      1728000    4702.7492       118700         2516 
23750000    1.0275972   -4.2852276      1728000    4704.8073       118750         2516 
23760000   0.93429542    -4.388523      1728000    4706.8981       118800         2516 
23770000    1.0333731   -4.2296295      1728000    4708.9249       118850         2516 
23780000   0.98770658   -4.3478801      1728000    4710.9687       118900         2518 
23790000   0.98962004   -4.4341775      1728000     4712.961       118950         2518 
23800000    1.0265588   -4.2857364      1728000    4714.9567       119000         2519 
23810000    1.0684909   -4.2916295      1728000     4716.968       119050         2519 
23820000   0.96027832    -4.162855      1728000     4719.027       119100         2520 
23830000     1.052994   -4.1070377      1728000    4721.0531       119150         2520 
23840000    1.0576181    -4.345063      1728000    4723.0751       119200         2520 
23850000    1.0228639    -4.299157      1728000    4725.1219       119250         2520 
23860000    1.0213437   -4.4683396      1728000    4727.1437       119300         2520 
23870000    0.9615135   -4.3675085      1728000    4729.1538       119350         2522 
23880000   0.94512215   -4.2929329      1728000    4731.1921       119400         2523 
23890000    1.0309721   -4.2774664      1728000    4733.1694       119450         2524 
23900000   0.98173896   -4.2926551      1728000    4735.1873       119500         2524 
23910000   0.96496338   -4.3574882      1728000    4737.1988       119550         2524 
23920000   0.98193035   -4.3694029      1728000    4739.2028       119600         2524 
23930000    1.0030902   -4.3640798      1728000    4741.2167       119650         2524 
23940000   0.95631138   -4.4236943      1728000    4743.2534       119700         2524 
23950000    1.0237774   -4.3505684      1728000    4745.2708       119750         2524 
23960000    1.0583142   -4.2968513      1728000    4747.2937       119800         2524 
23970000     1.002031   -4.4723084      1728000    4749.3029       119850         2524 
23980000    1.0132104   -4.4188133      1728000    4751.3322       119900         2525 
23990000    1.0441541   -4.4217032      1728000    4753.3459       119950         2525 
24000000   0.93692889    -4.328854      1728000    4755.3497       120000         2525 
24010000    1.0552623   -4.5321692      1728000     4757.337       120050         2525 
24020000    1.0691895   -4.4272649      1728000    4759.3611       120100         2525 
24030000    1.0398017   -4.4072393      1728000    4761.3815       120150         2525 
24040000   0.93639075   -4.5022787      1728000     4763.391       120200         2525 
24050000   0.98889781    -4.389845      1728000     4765.448       120250         2525 
24060000    1.0160203    -4.463405      1728000    4767.4509       120300         2525 
24070000   0.97569205   -4.4859816      1728000    4769.4581       120350         2525 
24080000    0.9824909    -4.486728      1728000    4771.4844       120400         2525 
24090000    1.0171314   -4.3161979      1728000    4773.5089       120450         2525 
24100000   0.97297926   -4.3048535      1728000    4775.5665       120500         2526 
24110000    1.0098219   -4.2950503      1728000    4777.6111       120550         2527 
24120000    1.0519795   -4.3818827      1728000    4779.6728       120600         2527 
24130000    0.9855733    -4.370401      1728000    4781.7542       120650         2527 
24140000    1.0008661   -4.4223289      1728000     4783.776       120700         2527 
24150000   0.98056187   -4.3837072      1728000    4785.8217       120750         2527 
24160000    1.0018043   -4.3347568      1728000     4787.881       120800         2527 
24170000   0.99329917   -4.2706468      1728000    4789.9072       120850         2527 
24180000    1.0620563     -4.40629      1728000    4791.9089       120900         2527 
24190000    1.0073096   -4.4071217      1728000    4793.9061       120950         2527 
24200000   0.98014713   -4.3867668      1728000    4795.9171       121000         2527 
24210000    1.0171999   -4.3408829      1728000    4797.9514       121050         2527 
24220000   0.98052012   -4.3180667      1728000    4799.9591       121100         2527 
24230000   0.99296287   -4.3685638      1728000    4801.9991       121150         2527 
24240000    1.0381458   -4.3766669      1728000    4804.0069       121200         2527 
24250000   0.99534943    -4.434304      1728000    4806.0888       121250         2527 
24260000    1.0267237   -4.2698722      1728000    4808.1281       121300         2527 
24270000    1.0224726   -4.4144003      1728000    4810.1595       121350         2527 
24280000    1.0222779    -4.312251      1728000    4812.1721       121400         2527 
24290000   0.97874279   -4.3363317      1728000    4814.2266       121450         2527 
24300000    1.0277902   -4.3354564      1728000    4816.2838       121500         2527 
24310000   0.96791176   -4.2899041      1728000    4818.3455       121550         2527 
24320000   0.93669442   -4.3075429      1728000    4820.4653       121600         2527 
24330000    1.0185537   -4.4085966      1728000    4822.5039       121650         2527 
24340000    1.0164546   -4.3703723      1728000    4824.5461       121700         2527 
24350000   0.91988903   -4.3787139      1728000    4826.5531       121750         2527 
24360000   0.97972877   -4.2726077      1728000    4828.5871       121800         2527 
24370000   0.97878984   -4.3867505      1728000    4830.6351       121850         2527 
24380000   0.98681071   -4.3372146      1728000    4832.6602       121900         2527 
24390000   0.98118692   -4.4140342      1728000    4834.6715       121950         2527 
24400000    1.0323861   -4.3978653      1728000    4836.7182       122000         2527 
24410000    1.0176284   -4.3301169      1728000    4838.7179       122050         2527 
24420000    1.0113659   -4.4110217      1728000    4840.7461       122100         2527 
24430000    1.0453761   -4.4167731      1728000    4842.7692       122150         2527 
24440000    1.0005484   -4.4098564      1728000    4844.7637       122200         2527 
24450000   0.93422384   -4.3761582      1728000    4846.7827       122250         2527 
24460000    1.0086204   -4.2671029      1728000    4848.8392       122300         2529 
24470000    1.0003427   -4.3618719      1728000    4850.8793       122350         2529 
24480000   0.94256309   -4.4354939      1728000      4852.84       122400         2529 
24490000    1.0758442   -4.3230265      1728000    4854.8297       122450         2529 
24500000   0.91912716   -4.3945024      1728000    4856.9143       122500         2529 
24510000    1.0021826   -4.3746819      1728000    4859.0102       122550         2529 
24520000   0.98296079   -4.4232639      1728000    4861.0281       122600         2529 
24530000     1.024265   -4.3893795      1728000    4863.0541       122650         2529 
24540000   0.96517865   -4.3391019      1728000    4865.0602       122700         2529 
24550000    0.9597704    -4.426545      1728000    4867.0202       122750         2529 
24560000   0.97916289   -4.3794026      1728000    4868.9741       122800         2529 
24570000    1.0967499   -4.2983859      1728000     4870.954       122850         2529 
24580000    0.9885486   -4.2850274      1728000    4872.9815       122900         2529 
24590000    1.0563998   -4.4165276      1728000    4875.0009       122950         2529 
24600000    1.0223048   -4.3329501      1728000    4877.0198       123000         2529 
24610000   0.98919358   -4.4336681      1728000    4879.0626       123050         2530 
24620000    1.0269798   -4.3641651      1728000    4881.0828       123100         2530 
24630000   0.92693333   -4.3789898      1728000    4883.0807       123150         2530 
24640000     1.057146    -4.347545      1728000    4885.1332       123200         2531 
24650000   0.98408277   -4.2632154      1728000    4887.1102       123250         2531 
24660000    1.0136364   -4.3829528      1728000    4889.1141       123300         2531 
24670000    0.9780976   -4.3521309      1728000     4891.114       123350         2532 
24680000    0.9374557   -4.2395744      1728000     4893.124       123400         2532 
24690000   0.99655252   -4.2723513      1728000    4895.1322       123450         2532 
24700000   0.96158243   -4.2925541      1728000    4897.1707       123500         2532 
24710000   0.97690941   -4.2693186      1728000    4899.1728       123550         2532 
24720000   0.99865459   -4.2520244      1728000    4901.1805       123600         2533 
24730000   0.98776116   -4.3359892      1728000    4903.1612       123650         2535 
24740000    0.9860813   -4.2508946      1728000    4905.1652       123700         2535 
24750000    1.0229581   -4.4265213      1728000    4907.1058       123750         2535 
24760000   0.96621929   -4.2685067      1728000    4909.0691       123800         2535 
24770000    1.0155526    -4.384811      1728000    4911.0751       123850         2535 
24780000    1.0416263   -4.3211679      1728000    4913.0941       123900         2535 
24790000   0.99095943   -4.5833014      1728000    4915.1835       123950         2535 
24800000    1.0209322   -4.3225527      1728000    4917.2188       124000         2535 
24810000    1.0344561    -4.448341      1728000    4919.2405       124050         2535 
24820000    1.0108581   -4.4036356      1728000    4921.2597       124100         2535 
24830000   0.96941321   -4.4434136      1728000    4923.2519       124150         2535 
24840000    1.0385618   -4.3284697      1728000    4925.2282       124200         2535 
24850000    1.0005063   -4.3523558      1728000     4927.233       124250         2535 
24860000    1.0347706   -4.3668075      1728000    4929.2883       124300         2535 
24870000   0.99711896   -4.3271874      1728000    4931.3056       124350         2535 
24880000   0.95340796   -4.3449597      1728000    4933.3226       124400         2535 
24890000   0.99920699   -4.4389043      1728000     4935.313       124450         2535 
24900000    1.0597393   -4.3114726      1728000    4937.3442       124500         2535 
24910000   0.98896733   -4.3769168      1728000    4939.3284       124550         2535 
24920000    1.0182619   -4.3611245      1728000    4941.3189       124600         2536 
24930000    0.9692379   -4.3243788      1728000    4943.3302       124650         2536 
24940000   0.99386009   -4.2996425      1728000     4945.386       124700         2536 
24950000    1.0577453   -4.2935621      1728000    4947.3682       124750         2536 
24960000    1.0384994   -4.2729982      1728000    4949.4312       124800         2536 
24970000   0.98679198   -4.3890009      1728000    4951.4297       124850         2536 
24980000    1.0603501   -4.4455202      1728000    4953.4244       124900         2536 
24990000    0.9355437   -4.2909694      1728000    4955.4323       124950         2536 
25000000     1.002668    -4.424393      1728000    4957.4213       125000         2537 
25010000    1.0238947   -4.5470284      1728000    4959.4723       125050         2537 
25020000    1.0154859   -4.3830843      1728000    4961.4628       125100         2538 
25030000   0.98814538   -4.3503377      1728000    4963.4723       125150         2538 
25040000    1.0348692   -4.4522991      1728000    4965.4748       125200         2538 
25050000   0.97560783   -4.4058348      1728000    4967.4552       125250         2538 
25060000   0.97125777   -4.2642089      1728000    4969.4977       125300         2541 
25070000    1.0196674   -4.3753114      1728000     4971.517       125350         2542 
25080000    1.0360988   -4.3086963      1728000    4973.5244       125400         2542 
25090000   0.97211527   -4.1715035      1728000    4975.5499       125450         2543 
25100000    1.0318833   -4.3343623      1728000    4977.5133       125500         2545 
25110000    0.9806636    -4.291506      1728000    4979.5216       125550         2546 
25120000    1.0148526   -4.1924781      1728000    4981.5338       125600         2548 
25130000    0.9513288    -4.261833      1728000    4983.4724       125650         2549 
25140000    1.0457262   -4.2646763      1728000    4985.4655       125700         2549 
25150000   0.98634866   -4.2735854      1728000    4987.4399       125750         2549 
25160000    1.0044212   -4.3038878      1728000    4989.4465       125800         2551 
25170000    1.0023601    -4.274365      1728000    4991.4402       125850         2551 
25180000    0.9770162   -4.2795284      1728000    4993.4227       125900         2551 
25190000    1.0068876   -4.2783107      1728000     4995.376       125950         2551 
25200000      1.05382   -4.3793598      1728000    4997.3692       126000         2551 
25210000    1.0107586   -4.3456527      1728000    4999.3779       126050         2552 
25220000    1.0519648   -4.2582305      1728000    5001.3511       126100         2552 
25230000   0.97580726    -4.295063      1728000    5003.3738       126150         2552 
25240000   0.99396763   -4.3200148      1728000    5005.3771       126200         2552 
25250000    1.0030057   -4.3266456      1728000    5007.3476       126250         2552 
25260000   0.95922683   -4.3411261      1728000    5009.3084       126300         2552 
25270000    1.0713283   -4.2294579      1728000     5011.277       126350         2555 
25280000    1.0003774   -4.2796062      1728000    5013.2772       126400         2555 
25290000   0.94944216   -4.2944528      1728000    5015.2914       126450         2556 
25300000    1.0043011   -4.2047648      1728000    5017.3393       126500         2556 
25310000   0.96581819   -4.2946113      1728000    5019.3217       126550         2557 
25320000     1.040496   -4.3419525      1728000    5021.3323       126600         2557 
25330000    0.9686767   -4.2694118      1728000    5023.3743       126650         2557 
25340000   0.97550193   -4.1919732      1728000    5025.3873       126700         2557 
25350000    1.0007715   -4.5156647      1728000    5027.3631       126750         2558 
25360000   0.97156846   -4.2339661      1728000    5029.3707       126800         2558 
25370000    1.0265643   -4.2574248      1728000    5031.4222       126850         2559 
25380000    1.0059196   -4.2402533      1728000    5033.4545       126900         2560 
25390000    1.0106545   -4.2747668      1728000    5035.4967       126950         2560 
25400000     1.011933   -4.3957523      1728000    5037.5205       127000         2560 
25410000    1.0472203   -4.3342913      1728000    5039.5095       127050         2560 
25420000    1.0098922   -4.3070461      1728000    5041.5429       127100         2561 
25430000   0.97972971   -4.2870047      1728000    5043.5733       127150         2562 
25440000    1.0481624   -4.2852835      1728000    5045.5516       127200         2564 
25450000   0.98476163   -4.2819725      1728000       5047.5       127250         2565 
25460000    1.0452684   -4.2507614      1728000    5049.4794       127300         2567 
25470000    0.9918828   -4.3029915      1728000    5051.5034       127350         2567 
25480000   0.97295977   -4.3707296      1728000    5053.4813       127400         2567 
25490000    1.0374856   -4.3178538      1728000    5055.4434       127450         2568 
25500000   0.98965297   -4.1724922      1728000    5057.4173       127500         2569 
25510000   0.97458766   -4.4669604      1728000    5059.4125       127550         2571 
25520000    1.0096594   -4.3390354      1728000    5061.3552       127600         2571 
25530000    1.0164506   -4.3268036      1728000    5063.3573       127650         2573 
25540000    1.0042939   -4.2125387      1728000    5065.3713       127700         2574 
25550000    1.0081519   -4.3743961      1728000    5067.4053       127750         2576 
25560000   0.98526652   -4.3429383      1728000    5069.4785       127800         2577 
25570000    1.0556262   -4.2671508      1728000    5071.4804       127850         2577 
25580000   0.94726518   -4.3441238      1728000    5073.4872       127900         2578 
25590000    1.0176682   -4.4353139      1728000    5075.4974       127950         2578 
25600000   0.97493975   -4.3670863      1728000    5077.5005       128000         2580 
25610000   0.96500561   -4.3759845      1728000    5079.5013       128050         2581 
25620000   0.93254517   -4.2823695      1728000    5081.5046       128100         2582 
25630000    1.0032747   -4.4427353      1728000    5083.5304       128150         2583 
25640000    1.0383337   -4.3695469      1728000    5085.5584       128200         2584 
25650000   0.97136886   -4.4239622      1728000    5087.5576       128250         2584 
25660000    1.0398777   -4.3645353      1728000    5089.5912       128300         2584 
25670000   0.89856541   -4.3398831      1728000    5091.5833       128350         2585 
25680000     1.028874   -4.3411336      1728000    5093.5753       128400         2585 
25690000   0.97540701   -4.3499637      1728000    5095.5502       128450         2585 
25700000    1.0368378   -4.3488289      1728000    5097.5205       128500         2585 
25710000    1.0001515   -4.1909463      1728000    5099.5922       128550         2586 
25720000   0.98248879   -4.2984414      1728000    5101.6075       128600         2587 
25730000    1.0203678   -4.3357884      1728000    5103.6144       128650         2587 
25740000    1.0198719    -4.306536      1728000    5105.6434       128700         2587 
25750000    1.0166944   -4.2826884      1728000    5107.6236       128750         2587 
25760000    1.0238777   -4.2705596      1728000    5109.6094       128800         2588 
25770000    1.0273574   -4.4314369      1728000    5111.6031       128850         2588 
25780000    1.0398673   -4.3708023      1728000    5113.5897       128900         2588 
25790000     1.015477   -4.3599728      1728000    5115.5977       128950         2588 
25800000   0.96930805   -4.2506004      1728000    5117.6172       129000         2588 
25810000    1.0040591   -4.3777996      1728000    5119.6876       129050         2589 
25820000   0.98599062   -4.3636162      1728000    5121.6612       129100         2590 
25830000   0.95527718   -4.3646207      1728000    5123.6056       129150         2590 
25840000    1.0137616   -4.4992584      1728000    5125.7424       129200         2590 
25850000     1.038692   -4.4766125      1728000    5127.7251       129250         2590 
25860000    1.0743311   -4.3992548      1728000    5129.7829       129300         2590 
25870000    1.0379538   -4.4402445      1728000    5131.8194       129350         2590 
25880000    1.0669409    -4.415763      1728000     5133.837       129400         2590 
25890000   0.91747587   -4.4424717      1728000    5135.8507       129450         2592 
25900000    1.0386782   -4.5353031      1728000    5137.8997       129500         2592 
25910000    0.9833423   -4.4295477      1728000    5139.9595       129550         2593 
25920000    1.0317791   -4.4365791      1728000    5142.0206       129600         2595 
25930000    1.0420133   -4.3886164      1728000    5144.0423       129650         2595 
25940000   0.98582425   -4.4321468      1728000    5146.0527       129700         2595 
25950000    1.0369132   -4.4207011      1728000    5148.1085       129750         2595 
25960000   0.99851846   -4.2925774      1728000    5150.1093       129800         2595 
25970000    1.0171019   -4.3942536      1728000    5152.1415       129850         2595 
25980000   0.93993734   -4.2989816      1728000    5154.1015       129900         2595 
25990000   0.98788077   -4.3585616      1728000    5156.1106       129950         2595 
26000000     1.081773   -4.2627554      1728000    5158.0923       130000         2595 
26010000    1.0113844   -4.4189171      1728000    5160.1075       130050         2595 
26020000   0.98439077   -4.3105716      1728000    5162.1006       130100         2595 
26030000    1.0268291   -4.2676232      1728000    5164.1263       130150         2595 
26040000    1.0084924   -4.3882106      1728000    5166.1563       130200         2596 
26050000    1.0762868   -4.2963804      1728000    5168.1875       130250         2597 
26060000    1.0179192   -4.2626816      1728000    5170.1909       130300         2597 
26070000    1.0555181   -4.2488061      1728000    5172.2176       130350         2597 
26080000    1.0147826   -4.4167203      1728000    5174.2293       130400         2597 
26090000   0.96095431   -4.4586631      1728000    5176.2415       130450         2598 
26100000    0.9753488   -4.3149999      1728000    5178.3115       130500         2598 
26110000     1.019799   -4.3232878      1728000    5180.3482       130550         2598 
26120000    0.9991143   -4.4162018      1728000    5182.4097       130600         2600 
26130000    1.0344882   -4.3024811      1728000    5184.4488       130650         2601 
26140000    1.0192056   -4.3381747      1728000    5186.5075       130700         2601 
26150000    1.0134938    -4.387835      1728000    5188.5272       130750         2601 
26160000    1.0223364   -4.3382415      1728000    5190.6024       130800         2602 
26170000    1.0530441   -4.2507872      1728000    5192.6993       130850         2602 
26180000    1.0235568    -4.292035      1728000    5194.7037       130900         2603 
26190000   0.97743569   -4.3193906      1728000    5196.7705       130950         2604 
26200000   0.99701612   -4.3964983      1728000     5198.865       131000         2604 
26210000   0.98268204   -4.5393021      1728000    5200.9044       131050         2605 
26220000   0.98244139   -4.2663153      1728000    5202.9637       131100         2605 
26230000   0.98992644   -4.3592277      1728000    5205.0225       131150         2607 
26240000    1.0051402   -4.3147196      1728000    5207.0401       131200         2608 
26250000    1.0691138   -4.3944514      1728000    5209.0502       131250         2609 
26260000   0.99682398   -4.4579293      1728000    5211.0567       131300         2609 
26270000   0.99802258   -4.3171539      1728000    5213.1082       131350         2610 
26280000    1.0030691   -4.4302311      1728000    5215.1977       131400         2610 
26290000    0.9956792   -4.4189287      1728000    5217.2005       131450         2611 
26300000    0.9575575   -4.4582645      1728000    5219.2166       131500         2611 
26310000   0.97855745   -4.4186014      1728000    5221.2632       131550         2611 
26320000    1.0059082   -4.3234825      1728000    5223.3043       131600         2611 
26330000   0.98029131   -4.3103495      1728000    5225.3596       131650         2612 
26340000    1.0404651   -4.2582526      1728000    5227.3525       131700         2616 
26350000    1.0153782   -4.3938358      1728000    5229.4695       131750         2616 
26360000   0.99249272   -4.4880132      1728000    5231.5546       131800         2616 
26370000   0.99304349   -4.3803009      1728000    5233.5856       131850         2617 
26380000    1.0001178   -4.2565492      1728000     5235.599       131900         2617 
26390000    1.0492721   -4.3935874      1728000    5237.6628       131950         2618 
26400000   0.97506991   -4.3788276      1728000    5239.7139       132000         2618 
26410000   0.99220054   -4.3224492      1728000    5241.7702       132050         2618 
26420000    1.0387313   -4.4001896      1728000    5243.8279       132100         2618 
26430000    1.0205939   -4.3446699      1728000    5245.8595       132150         2618 
26440000   0.98320732   -4.4364968      1728000    5247.8698       132200         2618 
26450000   0.99150378   -4.4756034      1728000    5249.9126       132250         2619 
26460000   0.97394625   -4.3923735      1728000    5251.9306       132300         2620 
26470000   0.99090476   -4.4489776      1728000    5253.9522       132350         2621 
26480000     1.016552   -4.2162959      1728000    5256.0099       132400         2621 
26490000   0.98928806   -4.2761296      1728000    5258.0083       132450         2621 
26500000   0.98944676   -4.3035829      1728000    5260.0422       132500         2621 
26510000    1.0205532   -4.3403784      1728000    5262.0626       132550         2621 
26520000    1.0507002   -4.3943133      1728000    5264.0833       132600         2621 
26530000   0.98819678   -4.3767416      1728000    5266.1786       132650         2623 
26540000    1.1527319   -4.3081104      1728000    5268.2786       132700         2624 
26550000    1.0104976   -4.2889174      1728000    5270.3076       132750         2624 
26560000    1.0102941   -4.2816805      1728000    5272.3476       132800         2624 
26570000   0.98721322   -4.4785502      1728000    5274.4015       132850         2624 
26580000    1.0847859   -4.3409972      1728000    5276.4885       132900         2625 
26590000    1.0041917   -4.4054165      1728000    5278.6096       132950         2625 
26600000   0.96233851   -4.3415791      1728000    5280.6626       133000         2625 
26610000    1.0538837   -4.4545163      1728000    5282.7716       133050         2625 
26620000    1.0022267   -4.3180039      1728000    5284.7857       133100         2625 
26630000   0.98285942   -4.2441267      1728000    5286.8036       133150         2626 
26640000   0.99114073   -4.3938603      1728000    5288.8103       133200         2626 
26650000    1.0483746   -4.2875773      1728000    5290.8272       133250         2626 
26660000   0.97668939   -4.3134967      1728000    5292.8159       133300         2626 
26670000    1.0222705   -4.4125963      1728000    5294.8137       133350         2627 
26680000   0.94164023   -4.2884397      1728000     5296.831       133400         2627 
26690000   0.95296572   -4.3052194      1728000    5298.8555       133450         2628 
26700000   0.99435562   -4.3737825      1728000    5300.9273       133500         2629 
26710000   0.97000471    -4.360573      1728000    5302.9883       133550         2629 
26720000   0.95347255   -4.3717881      1728000     5305.019       133600         2629 
26730000    1.0309621   -4.3133845      1728000     5307.045       133650         2629 
26740000   0.97030134   -4.3376248      1728000    5309.0919       133700         2629 
26750000    1.0284607   -4.3576266      1728000    5311.1591       133750         2629 
26760000   0.92069271   -4.3588463      1728000    5313.2262       133800         2629 
26770000    1.0032615   -4.3061948      1728000    5315.2276       133850         2629 
26780000    1.0100047   -4.3691813      1728000    5317.2576       133900         2629 
26790000    1.0001615   -4.3124116      1728000    5319.2872       133950         2630 
26800000    0.9945295   -4.1671912      1728000    5321.3138       134000         2630 
26810000    1.0277756   -4.3413011      1728000    5323.3306       134050         2630 
26820000    1.0699781   -4.5016225      1728000    5325.3427       134100         2630 
26830000    1.0957388   -4.4281096      1728000    5327.3826       134150         2631 
26840000   0.97585829   -4.4170347      1728000    5329.5095       134200         2631 
26850000   0.98084257   -4.3094991      1728000    5331.6796       134250         2631 
26860000   0.99109545   -4.3404972      1728000    5333.8149       134300         2631 
26870000    1.0237121    -4.212467      1728000    5335.8926       134350         2631 
26880000    1.0075003   -4.2261236      1728000    5337.9213       134400         2631 
26890000   0.98625945   -4.3006481      1728000    5339.9764       134450         2631 
26900000    1.0087043   -4.2850676      1728000    5342.0027       134500         2632 
26910000   0.99038627    -4.407902      1728000    5344.0598       134550         2632 
26920000     0.921364   -4.3003832      1728000    5346.0677       134600         2632 
26930000   0.96930707   -4.3859272      1728000    5348.1045       134650         2632 
26940000    1.0309297   -4.3983586      1728000    5350.1656       134700         2632 
26950000    1.0434076   -4.2701826      1728000    5352.2058       134750         2632 
26960000   0.99745319   -4.3265822      1728000    5354.2527       134800         2632 
26970000   0.99747478   -4.4263023      1728000    5356.3087       134850         2632 
26980000    1.0009911   -4.2790432      1728000    5358.3056       134900         2632 
26990000    0.9640816   -4.4209486      1728000    5360.3387       134950         2632 
27000000    1.1192625   -4.3419859      1728000    5362.3539       135000         2632 
27010000    1.0231804   -4.3958765      1728000     5364.364       135050         2632 
27020000   0.97243282   -4.2710461      1728000    5366.3587       135100         2632 
27030000    1.0201527   -4.3147563      1728000    5368.3136       135150         2632 
27040000    1.0442597    -4.294902      1728000    5370.2999       135200         2633 
27050000   0.96268827   -4.4188432      1728000    5372.2912       135250         2633 
27060000    1.0466699   -4.5177698      1728000    5374.2624       135300         2634 
27070000    1.0248134   -4.3182974      1728000    5376.3098       135350         2634 
27080000    1.0446985   -4.4349303      1728000    5378.3254       135400         2635 
27090000   0.96812585   -4.4786582      1728000    5380.3604       135450         2635 
27100000    1.0171596   -4.3737467      1728000    5382.4057       135500         2636 
27110000   0.98891673   -4.4443782      1728000    5384.4824       135550         2636 
27120000   0.99489851   -4.4100501      1728000    5386.5149       135600         2637 
27130000   0.96761761    -4.280381      1728000    5388.5429       135650         2637 
27140000    1.0056305   -4.3042744      1728000    5390.5848       135700         2637 
27150000   0.98818339   -4.3218917      1728000    5392.6536       135750         2638 
27160000   0.97468921   -4.3368914      1728000     5394.653       135800         2638 
27170000   0.96925401   -4.5725387      1728000    5396.6977       135850         2638 
27180000   0.99922216   -4.3374671      1728000    5398.7788       135900         2638 
27190000    1.0078732   -4.4338792      1728000    5400.8577       135950         2638 
27200000   0.96492049   -4.4170586      1728000    5402.9426       136000         2639 
27210000    1.0255493   -4.4119762      1728000    5405.0004       136050         2639 
27220000   0.97147789   -4.3685137      1728000      5407.05       136100         2639 
27230000    1.0113822   -4.2898394      1728000    5409.1002       136150         2639 
27240000    1.0022381   -4.3300479      1728000    5411.1894       136200         2639 
27250000    1.0650081   -4.3452052      1728000    5413.2319       136250         2639 
27260000    1.0050308   -4.1994829      1728000    5415.2934       136300         2639 
27270000    1.0261478   -4.3358739      1728000    5417.3428       136350         2641 
27280000   0.98472585    -4.440976      1728000    5419.3757       136400         2641 
27290000   0.95669871   -4.3475172      1728000    5421.4033       136450         2641 
27300000   0.97991519   -4.3144271      1728000    5423.4497       136500         2641 
27310000   0.95813819    -4.320423      1728000    5425.4887       136550         2641 
27320000   0.94358453   -4.3553795      1728000    5427.5484       136600         2641 
27330000     1.004015   -4.2599381      1728000    5429.5928       136650         2641 
27340000   0.95454189   -4.3469881      1728000    5431.6476       136700         2641 
27350000   0.94684392    -4.269154      1728000    5433.6516       136750         2642 
27360000    1.0122138   -4.3033301      1728000    5435.6538       136800         2642 
27370000    1.0152703   -4.3597368      1728000    5437.5708       136850         2642 
27380000    1.0190452   -4.4892288      1728000     5439.577       136900         2642 
27390000   0.96064975    -4.235849      1728000    5441.5429       136950         2642 
27400000   0.97963755   -4.2403961      1728000    5443.5037       137000         2642 
27410000   0.97767374   -4.3320438      1728000     5445.511       137050         2643 
27420000    1.0114591   -4.3930833      1728000    5447.4912       137100         2643 
27430000   0.95250425   -4.2564012      1728000    5449.4427       137150         2643 
27440000   0.99808395   -4.3795477      1728000    5451.4798       137200         2644 
27450000   0.91100408   -4.2979827      1728000    5453.5228       137250         2644 
27460000   0.96874018   -4.2942031      1728000    5455.5059       137300         2645 
27470000    0.9618943    -4.314722      1728000    5457.4987       137350         2645 
27480000   0.93117457   -4.3515702      1728000    5459.4888       137400         2645 
27490000    1.0155163   -4.1682397      1728000    5461.5344       137450         2646 
27500000   0.99500733   -4.2983514      1728000     5463.584       137500         2646 
27510000   0.96690506   -4.2752608      1728000    5465.5609       137550         2646 
27520000     1.010613   -4.2017558      1728000    5467.5818       137600         2648 
27530000   0.96455069   -4.4243921      1728000    5469.6119       137650         2649 
27540000   0.99244542   -4.3186198      1728000     5471.587       137700         2650 
27550000    1.0046545   -4.2238228      1728000     5473.617       137750         2651 
27560000   0.93409163   -4.2762294      1728000    5475.6098       137800         2651 
27570000    1.0501338   -4.3853055      1728000    5477.6453       137850         2651 
27580000    1.0089504   -4.2858777      1728000    5479.6497       137900         2652 
27590000   0.99110299   -4.3025309      1728000    5481.6289       137950         2653 
27600000   0.99790593   -4.2428586      1728000    5483.6398       138000         2653 
27610000   0.95678608   -4.4719609      1728000    5485.7256       138050         2656 
27620000    1.0285287   -4.2613667      1728000    5487.7489       138100         2656 
27630000   0.95001664    -4.310866      1728000    5489.7722       138150         2656 
27640000    1.0329133   -4.2213931      1728000     5491.744       138200         2656 
27650000   0.95373557   -4.3807667      1728000    5493.7355       138250         2657 
27660000    1.0341738    -4.460176      1728000    5495.7739       138300         2658 
27670000   0.99604718   -4.3037823      1728000    5497.7608       138350         2659 
27680000    1.0385068   -4.4082837      1728000    5499.7459       138400         2659 
27690000   0.97248505   -4.2857346      1728000    5501.7325       138450         2659 
27700000   0.94916895   -4.3468595      1728000    5503.7378       138500         2659 
27710000    1.0093342   -4.3445076      1728000    5505.6926       138550         2660 
27720000   0.98963947   -4.3038146      1728000    5507.6799       138600         2660 
27730000    0.9794727   -4.2920254      1728000    5509.6624       138650         2660 
27740000   0.93328556   -4.3680922      1728000    5511.6658       138700         2660 
27750000    1.0325808   -4.3715764      1728000    5513.6727       138750         2660 
27760000   0.99876807   -4.3702353      1728000    5515.6692       138800         2660 
27770000    1.0388289   -4.3415663      1728000    5517.6388       138850         2661 
27780000     1.011928   -4.2499755      1728000    5519.6616       138900         2661 
27790000   0.96002694   -4.3554755      1728000    5521.6708       138950         2661 
27800000    1.1138104   -4.2667987      1728000    5523.6915       139000         2661 
27810000    1.0241269   -4.4417876      1728000    5525.6597       139050         2661 
27820000   0.99534444   -4.3779438      1728000    5527.7059       139100         2662 
27830000    1.0458991   -4.2998562      1728000    5529.7159       139150         2662 
27840000    1.0002507   -4.3204771      1728000    5531.7319       139200         2663 
27850000    1.0371452   -4.3261917      1728000     5533.699       139250         2663 
27860000    1.0114738    -4.217048      1728000    5535.6631       139300         2663 
27870000   0.98730096   -4.3267933      1728000    5537.6559       139350         2663 
27880000    1.0328249   -4.3970509      1728000    5539.6769       139400         2664 
27890000   0.94726218   -4.1619633      1728000    5541.6989       139450         2664 
27900000     1.071988   -4.3629079      1728000    5543.7108       139500         2665 
27910000   0.93257353   -4.4163098      1728000    5545.7307       139550         2666 
27920000    1.0189788   -4.2939074      1728000    5547.7464       139600         2666 
27930000    1.0728961   -4.2722248      1728000    5549.7659       139650         2667 
27940000   0.98627689   -4.3320018      1728000    5551.8069       139700         2668 
27950000    1.0313364   -4.3329204      1728000    5553.7956       139750         2669 
27960000   0.99263792   -4.2236366      1728000    5555.7929       139800         2669 
27970000   0.99032851   -4.3708473      1728000    5557.7756       139850         2671 
27980000      1.01316   -4.2817385      1728000     5559.794       139900         2671 
27990000    1.0047648   -4.3251514      1728000    5561.8339       139950         2671 
28000000     1.048636   -4.2458819      1728000    5563.8618       140000         2672 
28010000    1.0137994   -4.3809192      1728000    5565.9058       140050         2673 
28020000   0.96943485   -4.3500587      1728000    5567.9177       140100         2674 
28030000   0.95101285    -4.348952      1728000    5569.9216       140150         2674 
28040000   0.97622627    -4.360121      1728000    5571.9515       140200         2674 
28050000    1.0175009   -4.3467046      1728000    5573.9607       140250         2675 
28060000   0.99834817   -4.3810085      1728000    5575.9896       140300         2676 
28070000    0.9874494   -4.4175731      1728000    5577.9527       140350         2676 
28080000    1.0405835   -4.3558348      1728000    5579.9614       140400         2676 
28090000    1.0338185   -4.3819711      1728000    5581.9836       140450         2676 
28100000   0.99368569   -4.3817352      1728000    5584.0278       140500         2676 
28110000    0.9465555   -4.3828374      1728000    5586.0489       140550         2676 
28120000   0.99276354   -4.3739555      1728000    5588.0856       140600         2676 
28130000    1.0021224   -4.5620661      1728000    5590.1337       140650         2676 
28140000    1.0813116   -4.4330051      1728000     5592.117       140700         2676 
28150000   0.97775274   -4.4964601      1728000    5594.1306       140750         2676 
28160000    1.0086562   -4.4287418      1728000    5596.1571       140800         2676 
28170000    1.0076463   -4.3675063      1728000    5598.1579       140850         2676 
28180000    1.0532679   -4.3254861      1728000    5600.1599       140900         2676 
28190000     1.031908   -4.3742918      1728000    5602.1618       140950         2676 
28200000    1.0313969   -4.2983956      1728000    5604.1999       141000         2677 
28210000   0.97862651    -4.308908      1728000    5606.2029       141050         2677 
28220000   0.99626247   -4.3290956      1728000    5608.1977       141100         2677 
28230000    1.0707402   -4.4945491      1728000    5610.2501       141150         2678 
28240000    1.0256284   -4.3280084      1728000    5612.2684       141200         2680 
28250000   0.98240599   -4.4079155      1728000    5614.2275       141250         2681 
28260000    1.0222434   -4.3010163      1728000    5616.2601       141300         2681 
28270000    1.0286503   -4.3545778      1728000    5618.2418       141350         2681 
28280000   0.98331948    -4.397156      1728000    5620.2438       141400         2681 
28290000    1.0093505   -4.3903897      1728000    5622.2589       141450         2681 
28300000    1.0462316   -4.2849151      1728000    5624.2783       141500         2682 
28310000   0.96640358   -4.4857172      1728000    5626.2646       141550         2683 
28320000   0.92381634   -4.2905379      1728000     5628.258       141600         2683 
28330000    1.0219474   -4.3809755      1728000      5630.28       141650         2683 
28340000    1.0184059   -4.3677537      1728000    5632.2729       141700         2684 
28350000    1.0248469   -4.2580432      1728000     5634.266       141750         2685 
28360000    0.9858913   -4.2901004      1728000     5636.216       141800         2686 
28370000     1.040535   -4.4095967      1728000    5638.1954       141850         2687 
28380000    1.0374248   -4.4191171      1728000    5640.1869       141900         2687 
28390000   0.99224826   -4.4804563      1728000    5642.1783       141950         2688 
28400000   0.95303422   -4.4441977      1728000     5644.182       142000         2688 
28410000    1.0156639   -4.4003416      1728000    5646.1939       142050         2688 
28420000     1.013544   -4.3750342      1728000    5648.2096       142100         2688 
28430000   0.99272893   -4.4146386      1728000    5650.2124       142150         2688 
28440000   0.98419554   -4.2573701      1728000    5652.1769       142200         2688 
28450000   0.99696311   -4.3058764      1728000    5654.1893       142250         2688 
28460000    1.0290581   -4.3464379      1728000    5656.2319       142300         2689 
28470000    1.0475347   -4.4676376      1728000     5658.261       142350         2690 
28480000   0.99026423   -4.5485267      1728000    5660.2467       142400         2692 
28490000   0.99615052   -4.5005984      1728000    5662.2452       142450         2692 
28500000   0.94969273   -4.2868903      1728000     5664.254       142500         2692 
28510000    1.0273495   -4.3543878      1728000    5666.2759       142550         2692 
28520000   0.91666609   -4.2890215      1728000     5668.311       142600         2692 
28530000     1.003005   -4.4566535      1728000     5670.302       142650         2693 
28540000    1.0199638   -4.3606908      1728000    5672.3043       142700         2694 
28550000   0.99718815   -4.2963034      1728000     5674.321       142750         2695 
28560000   0.99559565   -4.3007966      1728000    5676.3495       142800         2695 
28570000   0.99586692   -4.3887218      1728000    5678.4018       142850         2695 
28580000   0.97002754   -4.3578025      1728000    5680.4406       142900         2695 
28590000    1.0103641   -4.3603494      1728000    5682.4499       142950         2695 
28600000   0.99811476   -4.4725025      1728000    5684.4957       143000         2695 
28610000     1.017692   -4.3471945      1728000     5686.439       143050         2695 
28620000   0.99493933   -4.3626914      1728000    5688.4029       143100         2695 
28630000    1.0097439   -4.3834432      1728000    5690.4141       143150         2695 
28640000   0.98373404    -4.371756      1728000    5692.4352       143200         2695 
28650000     1.009601   -4.3861522      1728000    5694.4618       143250         2695 
28660000    1.0111052   -4.4253665      1728000    5696.4857       143300         2695 
28670000   0.98560818   -4.4342447      1728000    5698.5141       143350         2695 
28680000   0.96625822   -4.4029162      1728000    5700.5121       143400         2695 
28690000      0.92865   -4.4488016      1728000    5702.5211       143450         2695 
28700000   0.95391066   -4.3545575      1728000    5704.5446       143500         2695 
28710000   0.97414528   -4.2424175      1728000     5706.539       143550         2695 
28720000   0.96099982    -4.380316      1728000    5708.5151       143600         2695 
28730000   0.99635999   -4.3595706      1728000    5710.5051       143650         2695 
28740000    1.0159307    -4.342983      1728000    5712.4831       143700         2695 
28750000    1.0058469   -4.3521507      1728000    5714.4883       143750         2695 
28760000    0.9352554   -4.2714194      1728000     5716.515       143800         2695 
28770000    1.0339524   -4.4012705      1728000     5718.533       143850         2696 
28780000   0.98472624   -4.3178458      1728000    5720.5298       143900         2696 
28790000    1.0466653    -4.339672      1728000    5722.5714       143950         2696 
28800000    1.0706213   -4.3862309      1728000    5724.5956       144000         2696 
28810000    0.9994121   -4.4697831      1728000     5726.616       144050         2696 
28820000   0.98844603   -4.4120058      1728000    5728.6432       144100         2696 
28830000   0.95426058   -4.4034062      1728000    5730.6461       144150         2697 
28840000    1.0015142   -4.3452286      1728000      5732.65       144200         2697 
28850000    1.0236927   -4.4361352      1728000    5734.6412       144250         2697 
28860000   0.96808685   -4.2101463      1728000    5736.6041       144300         2698 
28870000    1.0512106   -4.3237325      1728000    5738.5288       144350         2698 
28880000    1.0448876   -4.2665223      1728000    5740.5541       144400         2698 
28890000   0.98554866   -4.3858339      1728000    5742.5941       144450         2698 
28900000    1.0043294   -4.3235613      1728000    5744.5781       144500         2698 
28910000   0.97701459   -4.2834918      1728000     5746.603       144550         2698 
28920000    1.0647595   -4.4312721      1728000    5748.5762       144600         2698 
28930000    1.0595594   -4.2278372      1728000    5750.5385       144650         2698 
28940000    1.0720459   -4.2980337      1728000    5752.5501       144700         2698 
28950000   0.94543109   -4.2943451      1728000    5754.5631       144750         2700 
28960000    1.0282373   -4.3557953      1728000     5756.604       144800         2700 
28970000    1.0300752   -4.4181248      1728000     5758.654       144850         2700 
28980000   0.95144356   -4.3668711      1728000    5760.6431       144900         2700 
28990000    1.0318922   -4.3445951      1728000    5762.6423       144950         2701 
29000000   0.99001702   -4.3525278      1728000    5764.6896       145000         2702 
29010000    1.0539216   -4.3232486      1728000    5766.6501       145050         2703 
29020000    1.0234033   -4.2307269      1728000    5768.6824       145100         2703 
29030000    1.0281821    -4.259094      1728000     5770.645       145150         2703 
29040000   0.95379109   -4.2234111      1728000    5772.6094       145200         2703 
29050000    1.0709233   -4.2561403      1728000    5774.5764       145250         2704 
29060000    1.0455949   -4.2814223      1728000    5776.5482       145300         2704 
29070000   0.91353165   -4.2010343      1728000    5778.5473       145350         2704 
29080000   0.99329527   -4.3415848      1728000    5780.5511       145400         2705 
29090000    1.0725419   -4.3306068      1728000     5782.527       145450         2705 
29100000    1.0035718   -4.4810607      1728000    5784.5822       145500         2705 
29110000    1.0596582    -4.404339      1728000     5786.599       145550         2705 
29120000   0.99657961    -4.440971      1728000    5788.5759       145600         2705 
29130000   0.97878761   -4.2954632      1728000    5790.5641       145650         2705 
29140000   0.97563016   -4.2346116      1728000    5792.6041       145700         2706 
29150000    1.0090554   -4.2339828      1728000    5794.6004       145750         2706 
29160000   0.97662186   -4.2826967      1728000     5796.618       145800         2706 
29170000   0.98883299   -4.3569788      1728000    5798.5588       145850         2708 
29180000    1.0292272   -4.2774072      1728000    5800.5596       145900         2708 
29190000   0.98223068   -4.4152767      1728000    5802.5472       145950         2708 
29200000    1.0429202   -4.3055152      1728000    5804.5701       146000         2708 
29210000    1.0700978    -4.300917      1728000    5806.5462       146050         2708 
29220000   0.92516157   -4.3492597      1728000    5808.5431       146100         2708 
29230000   0.97948924   -4.1971852      1728000    5810.5707       146150         2709 
29240000    1.0111782   -4.3592229      1728000    5812.5584       146200         2709 
29250000    1.0553047   -4.3328337      1728000     5814.602       146250         2710 
29260000   0.98674534   -4.4533498      1728000    5816.6103       146300         2710 
29270000   0.95970664   -4.4229183      1728000    5818.6171       146350         2710 
29280000    1.0248842   -4.3035866      1728000    5820.6433       146400         2712 
29290000    1.0648017   -4.3138833      1728000    5822.6422       146450         2712 
29300000    1.0273395   -4.3258947      1728000    5824.6482       146500         2712 
29310000   0.93773491    -4.264899      1728000    5826.6062       146550         2713 
29320000   0.97951549   -4.2305702      1728000    5828.6495       146600         2713 
29330000    1.0085214   -4.2930816      1728000    5830.6687       146650         2713 
29340000    1.0126287   -4.3953465      1728000    5832.6992       146700         2713 
29350000   0.98589844   -4.3968278      1728000    5834.7152       146750         2713 
29360000     1.018241   -4.3685198      1728000    5836.6901       146800         2713 
29370000    1.0274089   -4.3023534      1728000     5838.708       146850         2713 
29380000    1.0895182   -4.3953438      1728000    5840.7415       146900         2715 
29390000    1.0245284   -4.1914751      1728000    5842.7982       146950         2716 
29400000   0.95036536   -4.3314283      1728000    5844.8424       147000         2716 
29410000   0.96341715     -4.18577      1728000    5846.8608       147050         2716 
29420000    1.0754217   -4.3723247      1728000    5848.8919       147100         2718 
29430000   0.95212341   -4.4503889      1728000    5850.8859       147150         2718 
29440000     1.035304   -4.3105565      1728000    5852.8782       147200         2718 
29450000    1.0477303   -4.4635635      1728000    5854.8741       147250         2719 
29460000     1.015828    -4.336121      1728000    5856.9005       147300         2719 
29470000    1.0369617   -4.3837972      1728000    5858.9517       147350         2720 
29480000      1.02347   -4.3353642      1728000     5860.982       147400         2720 
29490000    1.0616045   -4.3569664      1728000    5862.9782       147450         2720 
29500000     1.043972   -4.4633881      1728000    5865.0158       147500         2720 
29510000    1.0793004   -4.4194201      1728000    5867.0033       147550         2720 
29520000    1.0533859    -4.273933      1728000    5869.0212       147600         2720 
29530000   0.94696149   -4.3364944      1728000    5871.0374       147650         2720 
29540000   0.93648199   -4.3779825      1728000    5873.0614       147700         2720 
29550000   0.99588222   -4.3683239      1728000    5875.0663       147750         2720 
29560000    1.0043114   -4.3798671      1728000    5877.0662       147800         2720 
29570000   0.93582146   -4.2963624      1728000    5879.0492       147850         2720 
29580000    1.0027164   -4.4123015      1728000     5881.078       147900         2720 
29590000     1.035561   -4.3691689      1728000     5883.094       147950         2720 
29600000   0.94057537    -4.428674      1728000    5885.0982       148000         2720 
29610000   0.98735914   -4.2508362      1728000    5887.0914       148050         2720 
29620000   0.95227007   -4.2599823      1728000    5889.0921       148100         2720 
29630000    1.0720452   -4.3776006      1728000    5891.0975       148150         2720 
29640000    1.0099265   -4.4271194      1728000    5893.1356       148200         2720 
29650000    1.0808977   -4.2793985      1728000     5895.103       148250         2720 
29660000    1.0725783   -4.3341862      1728000    5897.0783       148300         2720 
29670000   0.99110693   -4.3588389      1728000    5899.1062       148350         2720 
29680000   0.99041781   -4.3010228      1728000    5901.1319       148400         2721 
29690000   0.95403037   -4.3536234      1728000    5903.1432       148450         2721 
29700000   0.98836658   -4.4233498      1728000    5905.1939       148500         2721 
29710000    1.0158338   -4.3214114      1728000    5907.1748       148550         2722 
29720000    1.0433307   -4.3768988      1728000    5909.1621       148600         2723 
29730000   0.94024666   -4.3389092      1728000    5911.1822       148650         2723 
29740000   0.99408437   -4.2700925      1728000    5913.2108       148700         2723 
29750000    1.0396538   -4.4544868      1728000    5915.2524       148750         2725 
29760000   0.97634122   -4.3402509      1728000    5917.2764       148800         2726 
29770000   0.98060715   -4.2590691      1728000    5919.3064       148850         2726 
29780000    1.0454964   -4.4184674      1728000    5921.3509       148900         2726 
29790000    1.0083073   -4.3468534      1728000    5923.3508       148950         2726 
29800000    1.0316696   -4.3121604      1728000    5925.3898       149000         2726 
29810000   0.97769911   -4.2717218      1728000    5927.4052       149050         2727 
29820000    1.0472738   -4.4241456      1728000    5929.3744       149100         2728 
29830000   0.98285678   -4.3004935      1728000    5931.3976       149150         2730 
29840000    1.0301033   -4.3266936      1728000    5933.3373       149200         2730 
29850000    1.0412326   -4.3029766      1728000    5935.3075       149250         2730 
29860000     0.969803   -4.3333453      1728000     5937.332       149300         2730 
29870000   0.97056199   -4.2200504      1728000    5939.3528       149350         2731 
29880000    1.0413937   -4.4290108      1728000     5941.367       149400         2731 
29890000   0.98803593    -4.489233      1728000    5943.3673       149450         2732 
29900000   0.97078721   -4.4074217      1728000    5945.3515       149500         2732 
29910000    1.0254369    -4.314297      1728000    5947.2849       149550         2733 
29920000    1.0177796   -4.3779055      1728000    5949.2787       149600         2734 
29930000   0.96535538   -4.2834926      1728000    5951.2459       149650         2734 
29940000    1.0173237     -4.26489      1728000    5953.2173       149700         2736 
29950000    1.0817367   -4.3266376      1728000    5955.2674       149750         2736 
29960000   0.99992779   -4.3037309      1728000    5957.2612       149800         2736 
29970000    1.0139867    -4.334946      1728000    5959.2625       149850         2737 
29980000   0.97589076   -4.2061023      1728000    5961.2565       149900         2737 
29990000   0.98332093   -4.3384917      1728000     5963.251       149950         2738 
30000000   0.94933172   -4.4435452      1728000    5965.2565       150000         2740 
30010000    1.0455912   -4.2902508      1728000    5967.2559       150050         2740 
30020000   0.96242921   -4.2403714      1728000    5969.2332       150100         2740 
30030000   0.99138158   -4.3130851      1728000    5971.2459       150150         2740 
30040000   0.99210201   -4.4052657      1728000    5973.2741       150200         2740 
30050000    0.9668492   -4.3461449      1728000     5975.308       150250         2740 
30060000    1.0117132   -4.0840273      1728000    5977.4123       150300         2741 
30070000    1.0470136   -4.3188632      1728000    5979.5085       150350         2742 
30080000   0.99660667    -4.246432      1728000    5981.5297       150400         2743 
30090000   0.97730871   -4.1407472      1728000    5983.5719       150450         2743 
30100000     1.003405   -4.2347238      1728000    5985.5772       150500         2744 
30110000    1.0266798    -4.251144      1728000    5987.5841       150550         2746 
30120000    1.0653562   -4.3150432      1728000    5989.5721       150600         2748 
30130000    1.0516553   -4.4381416      1728000    5991.5668       150650         2749 
30140000    1.0723416   -4.3223061      1728000    5993.5831       150700         2749 
30150000     1.006193   -4.3359965      1728000    5995.8135       150750         2750 
30160000   0.97767729   -4.5248909      1728000    5997.8955       150800         2750 
30170000   0.98490646   -4.4210272      1728000    5999.9776       150850         2750 
30180000   0.95055517   -4.4171357      1728000    6002.0879       150900         2750 
30190000    1.0177137   -4.3966181      1728000    6004.1925       150950         2750 
30200000     1.014437   -4.3282283      1728000    6006.2553       151000         2750 
30210000     1.013894   -4.3861289      1728000    6008.2983       151050         2750 
30220000   0.97427089   -4.3456414      1728000     6010.339       151100         2750 
30230000   0.96257679   -4.3530058      1728000    6012.3387       151150         2750 
30240000    1.0078815   -4.4455243      1728000     6014.321       151200         2750 
30250000    1.0135634   -4.4495763      1728000     6016.302       151250         2750 
30260000    1.0148655   -4.4439627      1728000    6018.2944       151300         2750 
30270000    1.0413042   -4.2615236      1728000    6020.2693       151350         2750 
30280000   0.99426813   -4.2162547      1728000    6022.2808       151400         2750 
30290000   0.92968182   -4.3682031      1728000    6024.3298       151450         2751 
30300000    1.0051698   -4.2630705      1728000     6026.328       151500         2751 
30310000   0.99312346   -4.2405592      1728000    6028.3665       151550         2752 
30320000   0.96680915   -4.3550767      1728000    6030.4041       151600         2753 
30330000   0.98077262   -4.3285679      1728000    6032.4022       151650         2754 
30340000   0.95828313    -4.439259      1728000    6034.3923       151700         2754 
30350000      1.00036   -4.3522597      1728000     6036.384       151750         2754 
30360000   0.93542605   -4.2587203      1728000    6038.3891       151800         2754 
30370000    0.9827272   -4.3141508      1728000    6040.3562       151850         2754 
30380000   0.99448355   -4.2900516      1728000    6042.3202       151900         2754 
30390000   0.98443773   -4.3460607      1728000    6044.3169       151950         2754 
30400000   0.93928397   -4.2223617      1728000    6046.3384       152000         2754 
30410000   0.95159038   -4.2810174      1728000    6048.3493       152050         2756 
30420000   0.97477625   -4.3457764      1728000    6050.3464       152100         2758 
30430000   0.99013565   -4.3910846      1728000    6052.3731       152150         2758 
30440000    1.0778555    -4.455847      1728000    6054.3821       152200         2758 
30450000    0.9935063    -4.337882      1728000    6056.3803       152250         2759 
30460000    1.0684048   -4.3669746      1728000    6058.3983       152300         2760 
30470000    1.0416866   -4.3851302      1728000     6060.454       152350         2761 
30480000   0.97697411   -4.3275942      1728000    6062.4391       152400         2763 
30490000     0.978006   -4.3691224      1728000    6064.4731       152450         2764 
30500000   0.98963544   -4.2804313      1728000    6066.5242       152500         2764 
30510000    1.0299576   -4.3678513      1728000    6068.5512       152550         2764 
30520000   0.99156116   -4.3453642      1728000    6070.5599       152600         2764 
30530000   0.99139906   -4.4798406      1728000    6072.6089       152650         2765 
30540000   0.96276042   -4.2493137      1728000    6074.6544       152700         2765 
30550000     1.020444   -4.4165506      1728000    6076.6758       152750         2765 
30560000   0.95764233   -4.4521504      1728000    6078.7276       152800         2765 
30570000   0.99892196    -4.401133      1728000    6080.7466       152850         2765 
30580000   0.95184632    -4.298786      1728000    6082.7329       152900         2765 
30590000   0.99133232   -4.3154046      1728000    6084.7906       152950         2765 
30600000    1.0030124   -4.3702341      1728000    6086.7803       153000         2766 
30610000   0.97356466    -4.446434      1728000    6088.8012       153050         2767 
30620000   0.99376521   -4.2211509      1728000    6090.8183       153100         2768 
30630000   0.94735422   -4.4140241      1728000    6092.8417       153150         2768 
30640000    1.0064802   -4.2955536      1728000    6094.8919       153200         2768 
30650000     1.060193   -4.4555251      1728000    6096.9644       153250         2769 
30660000    1.0651867   -4.3498801      1728000    6099.0227       153300         2769 
30670000   0.93206359   -4.2941025      1728000     6101.082       153350         2769 
30680000    1.0411916   -4.3435909      1728000    6103.0849       153400         2769 
30690000    0.9818715   -4.4487638      1728000    6105.1129       153450         2769 
30700000    1.0303868   -4.3752097      1728000    6107.1452       153500         2769 
30710000     1.014217   -4.3230954      1728000    6109.1805       153550         2769 
30720000    1.0002576   -4.4131778      1728000    6111.2053       153600         2769 
30730000    1.0235691   -4.4748436      1728000    6113.2615       153650         2769 
30740000   0.97975917   -4.3656189      1728000     6115.294       153700         2770 
30750000   0.99929916   -4.2456413      1728000    6117.3231       153750         2770 
30760000    1.0188555   -4.3720233      1728000    6119.2952       153800         2771 
30770000   0.97519902   -4.2464524      1728000    6121.3442       153850         2771 
30780000   0.99300164   -4.2899147      1728000    6123.3622       153900         2771 
30790000   0.93608481   -4.3218145      1728000    6125.3564       153950         2771 
30800000   0.94074104     -4.35783      1728000    6127.3574       154000         2771 
30810000    1.0049723   -4.3494225      1728000    6129.4169       154050         2772 
30820000    0.9718861   -4.2605207      1728000    6131.4591       154100         2772 
30830000     1.042505    -4.392005      1728000    6133.5935       154150         2772 
30840000   0.99827139   -4.3538287      1728000    6135.6884       154200         2773 
30850000   0.94757953   -4.2484349      1728000    6137.7267       154250         2773 
30860000    1.0105385   -4.3101887      1728000    6139.7655       154300         2773 
30870000   0.94313939   -4.3454313      1728000    6141.8581       154350         2773 
30880000   0.98070108   -4.4443494      1728000    6143.9372       154400         2773 
30890000   0.96704129   -4.4259245      1728000    6145.9895       154450         2773 
30900000    1.0176319    -4.349846      1728000    6148.0018       154500         2773 
30910000    1.0393229   -4.4859987      1728000    6150.0305       154550         2773 
30920000   0.94927794   -4.3692017      1728000    6152.0741       154600         2773 
30930000   0.98040422   -4.3283856      1728000    6154.0613       154650         2773 
30940000    1.0103272   -4.3532858      1728000    6156.0914       154700         2774 
30950000    1.0486981   -4.2336351      1728000    6158.1084       154750         2774 
30960000   0.96183912   -4.4455893      1728000    6160.1165       154800         2774 
30970000     1.022429   -4.2518127      1728000    6162.0933       154850         2775 
30980000    1.0099574   -4.4723194      1728000    6164.0915       154900         2775 
30990000    0.9980011   -4.3200867      1728000    6166.1165       154950         2775 
31000000   0.99634889   -4.3072999      1728000    6168.1406       155000         2775 
31010000   0.97197305   -4.2608938      1728000    6170.1878       155050         2775 
31020000    1.0574457    -4.440243      1728000    6172.1774       155100         2775 
31030000    1.0502765   -4.2388794      1728000    6174.1776       155150         2775 
31040000    1.0331736   -4.3217346      1728000    6176.2039       155200         2775 
31050000   0.98678005   -4.4607046      1728000    6178.2234       155250         2775 
31060000   0.99203728   -4.4348504      1728000    6180.2745       155300         2775 
31070000    1.0331564   -4.5031271      1728000    6182.3085       155350         2776 
31080000    1.0123599   -4.2934893      1728000    6184.3442       155400         2777 
31090000    1.0027195   -4.3833269      1728000    6186.4203       155450         2777 
31100000    1.0462327   -4.3633846      1728000    6188.4358       155500         2777 
31110000    1.0847042   -4.3190033      1728000    6190.4783       155550         2777 
31120000    1.0086054   -4.3320486      1728000    6192.5214       155600         2778 
31130000    1.0102546   -4.3557262      1728000    6194.5293       155650         2778 
31140000    0.9854626   -4.4598651      1728000    6196.5722       155700         2778 
31150000   0.94936657   -4.3678196      1728000    6198.5832       155750         2779 
31160000   0.97439407   -4.3809112      1728000    6200.6246       155800         2780 
31170000   0.99236092   -4.3474197      1728000    6202.6591       155850         2781 
31180000    1.0661511   -4.3738715      1728000    6204.6735       155900         2781 
31190000    1.0342865   -4.1661338      1728000    6206.7184       155950         2784 
31200000   0.94285932   -4.3462484      1728000      6208.74       156000         2784 
31210000   0.93820091     -4.43551      1728000    6210.7575       156050         2785 
31220000   0.93439785   -4.4978017      1728000    6212.7669       156100         2786 
31230000   0.99429062   -4.3217878      1728000    6214.8112       156150         2786 
31240000   0.98238574   -4.3117655      1728000    6216.8404       156200         2786 
31250000     1.034067   -4.3400521      1728000    6218.8183       156250         2786 
31260000    1.0099987   -4.1573028      1728000    6220.8382       156300         2786 
31270000    1.0184339   -4.3574898      1728000    6222.8704       156350         2786 
31280000    1.0446036   -4.3249508      1728000    6224.9076       156400         2786 
31290000     0.984226   -4.4110131      1728000    6226.9726       156450         2786 
31300000   0.94448288   -4.2782126      1728000    6229.0221       156500         2786 
31310000    1.0640376   -4.2277189      1728000    6231.0559       156550         2786 
31320000   0.97535316   -4.3614036      1728000     6233.066       156600         2786 
31330000   0.99959193   -4.4222259      1728000    6235.1501       156650         2786 
31340000   0.97803547   -4.2639728      1728000    6237.1682       156700         2788 
31350000   0.96626649   -4.3197675      1728000    6239.2499       156750         2790 
31360000   0.99189347   -4.4211931      1728000    6241.2983       156800         2790 
31370000   0.97202503   -4.4138344      1728000    6243.2991       156850         2792 
31380000    1.0261802   -4.1555355      1728000    6245.3073       156900         2792 
31390000    1.0280348   -4.3300568      1728000    6247.3032       156950         2793 
31400000   0.98642097   -4.3162497      1728000    6249.3277       157000         2793 
31410000   0.94459958   -4.3373438      1728000    6251.3688       157050         2793 
31420000   0.97942437   -4.1739796      1728000    6253.4272       157100         2793 
31430000    0.9463966   -4.2539724      1728000    6255.4507       157150         2794 
31440000    1.0408707   -4.3674902      1728000    6257.6281       157200         2794 
31450000   0.94883514   -4.3594546      1728000    6259.7953       157250         2794 
31460000   0.97412439   -4.3072418      1728000    6261.7914       157300         2794 
31470000   0.99687823   -4.3422579      1728000    6263.8204       157350         2795 
31480000     1.081786   -4.2757451      1728000    6265.8171       157400         2795 
31490000    1.0206205   -4.1600652      1728000    6267.8235       157450         2796 
31500000    1.0486334   -4.3342386      1728000    6269.8639       157500         2796 
31510000    1.0271607   -4.3426947      1728000    6271.8638       157550         2797 
31520000    1.0403637   -4.3482446      1728000    6273.8625       157600         2797 
31530000   0.99193565   -4.4380929      1728000    6275.8415       157650         2797 
31540000    1.0339931   -4.4303465      1728000    6277.8464       157700         2799 
31550000   0.94893048   -4.2956614      1728000    6279.8781       157750         2800 
31560000   0.99512586    -4.359395      1728000    6281.9075       157800         2800 
31570000    1.0126135   -4.2783344      1728000    6283.8963       157850         2800 
31580000     1.005407   -4.3597517      1728000    6285.8856       157900         2800 
31590000    1.0389092   -4.3803691      1728000    6287.8555       157950         2801 
31600000   0.96367996   -4.4676295      1728000    6289.8564       158000         2801 
31610000   0.99465663   -4.3383161      1728000    6291.8473       158050         2801 
31620000    1.0508958   -4.3182945      1728000    6293.8618       158100         2801 
31630000   0.95380146     -4.34123      1728000    6295.9233       158150         2802 
31640000     1.001293   -4.3864791      1728000    6297.9174       158200         2804 
31650000   0.97025444   -4.3427056      1728000    6299.8905       158250         2805 
31660000    1.0024534   -4.3990721      1728000    6301.9544       158300         2805 
31670000    1.0109164   -4.4457566      1728000    6303.9695       158350         2805 
31680000    1.0293736   -4.4010659      1728000    6305.9776       158400         2805 
31690000   0.91723246   -4.1986888      1728000    6308.0184       158450         2805 
31700000   0.98808197    -4.504173      1728000    6310.0074       158500         2805 
31710000    1.0018273   -4.3613196      1728000     6312.037       158550         2805 
31720000    1.0182692   -4.3400448      1728000    6314.0506       158600         2805 
31730000    1.0067837   -4.4331923      1728000    6316.0866       158650         2806 
31740000    1.0505864   -4.2981595      1728000    6318.1134       158700         2806 
31750000   0.98472738   -4.4148634      1728000    6320.1084       158750         2806 
31760000    1.0220722   -4.2936062      1728000    6322.1727       158800         2806 
31770000    0.9058272   -4.3987793      1728000    6324.1956       158850         2806 
31780000    1.0428477   -4.4259175      1728000    6326.2206       158900         2806 
31790000   0.94873437    -4.345292      1728000    6328.2496       158950         2807 
31800000    1.0291634   -4.3082482      1728000    6330.3005       159000         2807 
31810000    1.0301118   -4.5227535      1728000    6332.3263       159050         2807 
31820000    1.0192025   -4.3799721      1728000    6334.3778       159100         2807 
31830000   0.98120862   -4.3852513      1728000    6336.3905       159150         2807 
31840000    1.0415568   -4.3598735      1728000    6338.4003       159200         2807 
31850000   0.94322264   -4.3708033      1728000    6340.4185       159250         2807 
31860000   0.96788518   -4.3659275      1728000    6342.4532       159300         2807 
31870000    1.0380917    -4.257482      1728000    6344.4672       159350         2807 
31880000   0.94460372   -4.4550238      1728000    6346.4745       159400         2808 
31890000   0.96095399   -4.3355167      1728000    6348.4637       159450         2808 
31900000    1.0076748   -4.3674992      1728000    6350.4726       159500         2808 
31910000   0.98401433   -4.3554433      1728000    6352.4746       159550         2808 
31920000    1.0225114   -4.3729302      1728000    6354.4743       159600         2808 
31930000   0.99733428   -4.4108788      1728000    6356.5083       159650         2808 
31940000   0.94248948   -4.4116204      1728000    6358.5146       159700         2808 
31950000    1.0380647   -4.4110621      1728000    6360.5146       159750         2809 
31960000   0.95730574   -4.2530172      1728000    6362.5624       159800         2810 
31970000    1.0028934    -4.358096      1728000     6364.592       159850         2811 
31980000   0.99970223   -4.3210754      1728000    6366.6498       159900         2811 
31990000   0.97890745   -4.3487378      1728000    6368.6877       159950         2811 
32000000    1.0026628    -4.363991      1728000    6370.6973       160000         2812 
32010000   0.98061697   -4.3772903      1728000    6372.6939       160050         2813 
32020000   0.92180363   -4.2968046      1728000    6374.7085       160100         2813 
32030000   0.99627355   -4.3134656      1728000    6376.7535       160150         2813 
32040000    1.0367595   -4.3164278      1728000    6378.7813       160200         2813 
32050000    1.0160593   -4.2882227      1728000    6380.8253       160250         2816 
32060000    1.0206445   -4.3639283      1728000    6382.8454       160300         2816 
32070000   0.94629943   -4.2757751      1728000    6384.9185       160350         2816 
32080000    1.0139432   -4.3204377      1728000    6386.8997       160400         2817 
32090000   0.99958176   -4.3188287      1728000    6388.9258       160450         2818 
32100000    1.0515429    -4.193772      1728000    6390.9857       160500         2819 
32110000    1.0089203   -4.3795738      1728000    6393.0034       160550         2821 
32120000   0.95822629   -4.3369421      1728000    6395.0394       160600         2822 
32130000    1.0446935   -4.2610322      1728000    6397.0654       160650         2823 
32140000   0.98417061   -4.3166059      1728000    6399.0834       160700         2824 
32150000    1.0196996   -4.4551306      1728000    6401.0807       160750         2825 
32160000    1.0151901   -4.3482708      1728000     6403.097       160800         2825 
32170000    1.0416121   -4.3116412      1728000    6405.0781       160850         2827 
32180000   0.99498365   -4.3783543      1728000    6407.0695       160900         2827 
32190000   0.98717339   -4.3313258      1728000    6409.1025       160950         2827 
32200000    0.9779769    -4.333111      1728000    6411.1237       161000         2827 
32210000    1.0029919   -4.2902187      1728000    6413.1484       161050         2827 
32220000    1.0580804   -4.2291168      1728000    6415.1737       161100         2827 
32230000    1.0085109    -4.282013      1728000    6417.2125       161150         2827 
32240000     1.014112   -4.3465127      1728000    6419.1585       161200         2828 
32250000   0.94201596   -4.3275707      1728000    6421.1752       161250         2828 
32260000    1.0248284   -4.3201195      1728000    6423.1903       161300         2830 
32270000   0.95512205   -4.4502445      1728000    6425.2288       161350         2830 
32280000   0.96538106   -4.3325706      1728000    6427.2707       161400         2831 
32290000    1.0575665   -4.3067994      1728000    6429.2757       161450         2832 
32300000    1.0074994   -4.2929869      1728000    6431.3149       161500         2833 
32310000    1.0460225   -4.3147583      1728000    6433.3329       161550         2833 
32320000   0.98813695   -4.4215868      1728000    6435.3813       161600         2833 
32330000    1.0487384   -4.3890812      1728000    6437.3945       161650         2834 
32340000    1.0048974   -4.4257191      1728000    6439.4056       161700         2834 
32350000    1.0303741   -4.2565871      1728000    6441.4429       161750         2834 
32360000    1.0129669   -4.4913312      1728000    6443.4806       161800         2834 
32370000   0.98802121    -4.325863      1728000    6445.4798       161850         2835 
32380000    1.0568224   -4.3635828      1728000    6447.4842       161900         2836 
32390000    0.9755408   -4.3299199      1728000    6449.5465       161950         2837 
32400000    1.0499116   -4.4524761      1728000    6451.5608       162000         2838 
32410000   0.99811145   -4.2808662      1728000    6453.5632       162050         2838 
32420000   0.99685205   -4.3361591      1728000    6455.5916       162100         2838 
32430000   0.95509256    -4.363617      1728000    6457.5834       162150         2839 
32440000    1.0327741    -4.240114      1728000    6459.6077       162200         2839 
32450000    0.9692683   -4.3881303      1728000    6461.6593       162250         2839 
32460000   0.94352334   -4.3084677      1728000    6463.6648       162300         2840 
32470000    1.1220226   -4.3188482      1728000    6465.6864       162350         2840 
32480000   0.98381879    -4.420187      1728000    6467.6917       162400         2840 
32490000   0.97826559   -4.4415557      1728000    6469.7645       162450         2841 
32500000   0.99446989   -4.2739486      1728000    6471.8438       162500         2842 
32510000    1.0077073   -4.3334146      1728000    6473.8158       162550         2842 
32520000    1.0065598   -4.4019968      1728000    6475.8768       162600         2842 
32530000    1.0567876   -4.2923455      1728000    6477.8689       162650         2844 
32540000    1.0082481   -4.3880882      1728000    6479.9214       162700         2844 
32550000      1.00867   -4.3396042      1728000    6481.9714       162750         2844 
32560000   0.97282214   -4.2633171      1728000    6483.9822       162800         2844 
32570000   0.98722103    -4.345279      1728000    6485.9904       162850         2845 
32580000   0.97859325   -4.3070616      1728000    6487.9984       162900         2845 
32590000   0.98352569   -4.3654414      1728000    6490.0286       162950         2845 
32600000    1.0380206   -4.3096402      1728000    6492.0605       163000         2845 
32610000   0.99677743   -4.3711646      1728000    6494.0403       163050         2845 
32620000   0.95091466   -4.3036982      1728000    6496.0677       163100         2846 
32630000    1.0133584   -4.3504132      1728000    6498.0738       163150         2846 
32640000    1.0021286   -4.3586109      1728000    6500.0965       163200         2847 
32650000    1.0871836   -4.3143479      1728000    6502.1426       163250         2847 
32660000   0.95637276   -4.3843279      1728000    6504.1675       163300         2848 
32670000   0.94303543   -4.4798656      1728000    6506.1907       163350         2850 
32680000    1.0026955   -4.4452837      1728000     6508.249       163400         2850 
32690000    1.0348455   -4.3288088      1728000    6510.2745       163450         2851 
32700000    1.0042953   -4.3703754      1728000    6512.2898       163500         2852 
32710000    1.0265425   -4.3383221      1728000    6514.3177       163550         2853 
32720000    1.0041266   -4.3671817      1728000    6516.3023       163600         2853 
32730000   0.97103547   -4.4549788      1728000    6518.3206       163650         2854 
32740000   0.94982142   -4.2255492      1728000    6520.3349       163700         2854 
32750000    1.0417503    -4.271583      1728000    6522.3924       163750         2855 
32760000     1.003657    -4.297457      1728000    6524.4016       163800         2855 
32770000      1.02354   -4.3663129      1728000    6526.4489       163850         2857 
32780000    0.9942748   -4.3174896      1728000    6528.4471       163900         2857 
32790000   0.95633495    -4.380038      1728000    6530.4326       163950         2858 
32800000    1.0035561   -4.2610117      1728000    6532.4649       164000         2859 
32810000    1.0102937   -4.3437022      1728000    6534.5107       164050         2859 
32820000    1.0465551   -4.3365068      1728000    6536.5106       164100         2859 
32830000    1.0845724   -4.4012241      1728000    6538.5029       164150         2859 
32840000   0.98792572   -4.4499955      1728000    6540.4946       164200         2859 
32850000    1.0447027   -4.2402299      1728000    6542.4795       164250         2860 
32860000    1.0779248   -4.4190106      1728000    6544.4993       164300         2861 
32870000   0.98269154   -4.3148369      1728000    6546.4806       164350         2861 
32880000    1.0084245   -4.2187301      1728000    6548.4971       164400         2863 
32890000    1.0432677   -4.2721845      1728000    6550.4895       164450         2864 
32900000    1.0014947   -4.3657898      1728000    6552.5428       164500         2864 
32910000   0.94259058   -4.2698538      1728000    6554.5617       164550         2865 
32920000    1.0012197   -4.3979249      1728000     6556.601       164600         2865 
32930000    0.9922219   -4.3484814      1728000    6558.6546       164650         2867 
32940000    1.0814607   -4.4551995      1728000    6560.6952       164700         2870 
32950000    1.0021544   -4.3633246      1728000    6562.7021       164750         2871 
32960000   0.97591827   -4.3329278      1728000    6564.6625       164800         2871 
32970000     1.000432   -4.3307141      1728000    6566.6678       164850         2872 
32980000   0.96673939   -4.3028078      1728000    6568.6646       164900         2873 
32990000   0.97826893   -4.4206456      1728000    6570.6797       164950         2873 
33000000   0.91787933    -4.355256      1728000    6572.7167       165000         2874 
33010000     1.035751   -4.3732856      1728000    6574.7528       165050         2874 
33020000    1.0237476   -4.3971308      1728000    6576.7987       165100         2875 
33030000    1.0081136   -4.4392051      1728000    6578.8246       165150         2875 
33040000    1.0224698   -4.2604095      1728000    6580.8294       165200         2875 
33050000    1.0301095   -4.3730995      1728000    6582.8216       165250         2876 
33060000   0.99635932    -4.379656      1728000    6584.8204       165300         2876 
33070000    1.0058174   -4.4897964      1728000    6586.8934       165350         2876 
33080000   0.97186115   -4.4152722      1728000    6588.8964       165400         2876 
33090000    1.0325994   -4.3554393      1728000    6590.9286       165450         2876 
33100000   0.98847191   -4.3875231      1728000    6592.9546       165500         2876 
33110000   0.96553167   -4.3673083      1728000    6594.9685       165550         2876 
33120000    1.0269923   -4.4066223      1728000    6596.9868       165600         2876 
33130000    1.0300087   -4.4240223      1728000    6598.9917       165650         2876 
33140000    1.0266037   -4.3588842      1728000    6600.9779       165700         2876 
33150000    1.0540911   -4.5142921      1728000    6603.0118       165750         2876 
33160000    1.0306711   -4.3134279      1728000    6605.0757       165800         2876 
33170000   0.97541865   -4.5024735      1728000    6607.1083       165850         2876 
33180000   0.99682155   -4.2964189      1728000    6609.1529       165900         2876 
33190000   0.99147704   -4.3540004      1728000    6611.1703       165950         2876 
33200000    1.0344666    -4.309748      1728000    6613.1682       166000         2876 
33210000    1.0495888   -4.3414942      1728000    6615.1761       166050         2877 
33220000    1.0120266   -4.3648609      1728000    6617.2076       166100         2878 
33230000   0.95780419   -4.2290519      1728000    6619.2952       166150         2878 
33240000   0.98602619   -4.2252128      1728000    6621.4051       166200         2879 
33250000    0.9468092   -4.3231109      1728000    6623.4825       166250         2880 
33260000    1.0213834   -4.2600903      1728000    6625.6078       166300         2880 
33270000    1.0299574   -4.3081037      1728000    6627.6639       166350         2880 
33280000   0.99377319   -4.3228005      1728000      6629.67       166400         2881 
33290000   0.98503265   -4.3642423      1728000    6631.7576       166450         2882 
33300000     1.091152   -4.3620032      1728000    6633.8486       166500         2883 
33310000     1.025685   -4.3473535      1728000    6635.8612       166550         2885 
33320000   0.96948226   -4.3039426      1728000    6637.8839       166600         2885 
33330000   0.99473251   -4.3753637      1728000    6639.9175       166650         2885 
33340000   0.98885334   -4.3414268      1728000    6641.9227       166700         2885 
33350000   0.98303691   -4.2749167      1728000    6643.9565       166750         2885 
33360000    1.1213154   -4.4059378      1728000    6645.9999       166800         2885 
33370000   0.96018245    -4.400584      1728000    6648.0116       166850         2885 
33380000   0.99766175    -4.357789      1728000    6650.0658       166900         2885 
33390000     0.931508   -4.2715787      1728000     6652.064       166950         2886 
33400000    1.0376861   -4.2519534      1728000    6654.1207       167000         2887 
33410000   0.97105174   -4.2984316      1728000    6656.0975       167050         2889 
33420000    1.0069093   -4.2937291      1728000    6658.1887       167100         2889 
33430000    1.0123331   -4.4123088      1728000    6660.2367       167150         2890 
33440000   0.92941017   -4.3701126      1728000    6662.2718       167200         2890 
33450000    1.0091601   -4.3485684      1728000    6664.3168       167250         2891 
33460000   0.97935485    -4.409213      1728000    6666.3725       167300         2891 
33470000    1.0376801   -4.3714429      1728000     6668.351       167350         2891 
33480000   0.99234581   -4.3905219      1728000    6670.4036       167400         2891 
33490000    0.9859353   -4.2780868      1728000      6672.42       167450         2891 
33500000    1.0391317   -4.2312893      1728000    6674.4636       167500         2891 
33510000    1.0028476   -4.2359249      1728000    6676.4988       167550         2891 
33520000   0.99360919   -4.2460628      1728000     6678.498       167600         2891 
33530000   0.97028616   -4.4589877      1728000    6680.5181       167650         2891 
33540000   0.99270076   -4.3549783      1728000     6682.532       167700         2892 
33550000   0.94410645   -4.4444488      1728000    6684.5213       167750         2893 
33560000    1.0230701   -4.4037972      1728000    6686.5436       167800         2893 
33570000    1.0502362   -4.3738171      1728000    6688.5438       167850         2894 
33580000    1.0198035   -4.4762207      1728000    6690.6059       167900         2894 
33590000    0.9782129   -4.3812995      1728000    6692.6233       167950         2895 
33600000    1.0259741   -4.4043545      1728000    6694.6723       168000         2895 
33610000    1.0331664   -4.3348478      1728000    6696.7367       168050         2895 
33620000     1.003534   -4.4115969      1728000    6698.7611       168100         2895 
33630000   0.99375302   -4.4539105      1728000    6700.7694       168150         2897 
33640000   0.99584194    -4.333215      1728000    6702.7991       168200         2897 
33650000    1.0853366   -4.3180247      1728000    6704.7901       168250         2897 
33660000    1.0261717      -4.4832      1728000    6706.8081       168300         2898 
33670000     1.024064   -4.3511694      1728000    6708.8481       168350         2898 
33680000   0.97255089   -4.3531094      1728000    6710.8982       168400         2899 
33690000    1.0065957   -4.4649251      1728000    6712.9156       168450         2900 
33700000   0.96650101   -4.2834974      1728000    6714.9299       168500         2901 
33710000    1.0400079    -4.392538      1728000    6716.9301       168550         2902 
33720000     1.071143   -4.3146915      1728000    6718.9416       168600         2902 
33730000   0.99281778   -4.4043241      1728000    6720.9831       168650         2902 
33740000    1.0009766     -4.28184      1728000    6723.0003       168700         2902 
33750000   0.96743322   -4.2238293      1728000    6725.0239       168750         2902 
33760000   0.94259943   -4.4316366      1728000    6727.0373       168800         2902 
33770000    1.0161309   -4.3482615      1728000    6729.0711       168850         2902 
33780000   0.98073041   -4.4089299      1728000    6731.1289       168900         2903 
33790000    1.0391487   -4.3389256      1728000    6733.1678       168950         2903 
33800000    1.0057938   -4.3656701      1728000    6735.2689       169000         2903 
33810000    1.0214281   -4.5539818      1728000    6737.3008       169050         2903 
33820000    1.0529421   -4.3889267      1728000    6739.3607       169100         2903 
33830000   0.96292595   -4.4144735      1728000    6741.4006       169150         2903 
33840000   0.97742489   -4.3423965      1728000    6743.3916       169200         2903 
33850000    1.0356307   -4.3003617      1728000    6745.4169       169250         2903 
33860000    1.0092283   -4.3246215      1728000    6747.4308       169300         2904 
33870000    1.0290974   -4.2824881      1728000    6749.4668       169350         2904 
33880000   0.98140013   -4.3625036      1728000    6751.4822       169400         2904 
33890000   0.96549183   -4.4275568      1728000    6753.4958       169450         2904 
33900000    1.0236538   -4.3823781      1728000    6755.5712       169500         2904 
33910000   0.93079062   -4.3177721      1728000    6757.6326       169550         2904 
33920000    1.0405979   -4.3374286      1728000    6759.6406       169600         2905 
33930000    0.9340996    -4.217737      1728000    6761.6542       169650         2906 
33940000   0.99496134    -4.277449      1728000    6763.6905       169700         2906 
33950000   0.97251459   -4.3256786      1728000    6765.7472       169750         2906 
33960000    0.9952748   -4.2724812      1728000    6767.7906       169800         2906 
33970000    1.0087791   -4.3658059      1728000    6769.8048       169850         2907 
33980000    1.0011969   -4.2820558      1728000     6771.821       169900         2907 
33990000    1.0279801   -4.2718307      1728000     6773.835       169950         2907 
34000000    1.0461129   -4.3382046      1728000    6775.8855       170000         2907 
34010000   0.98519287    -4.315761      1728000    6777.9244       170050         2907 
34020000    1.0139153   -4.2714336      1728000    6779.9383       170100         2908 
34030000    1.0010969   -4.4112677      1728000    6781.9917       170150         2908 
34040000   0.99966865   -4.3684036      1728000    6784.0142       170200         2908 
34050000   0.91462589   -4.3060039      1728000     6786.023       170250         2908 
34060000   0.94386931   -4.2931934      1728000    6788.0444       170300         2910 
34070000    1.0086633   -4.2062917      1728000    6790.0216       170350         2911 
34080000     1.069153   -4.3659418      1728000    6792.0131       170400         2914 
34090000   0.95650494   -4.3741988      1728000    6793.9708       170450         2914 
34100000    1.0095961   -4.3344821      1728000     6795.986       170500         2916 
34110000    1.0190776   -4.2981411      1728000    6797.9508       170550         2916 
34120000   0.97704823   -4.3062176      1728000    6799.9321       170600         2916 
34130000     1.001483   -4.3951309      1728000    6801.9285       170650         2917 
34140000   0.98997391   -4.2826945      1728000     6803.943       170700         2917 
34150000    1.0049198   -4.2925239      1728000    6805.9149       170750         2917 
34160000    1.0577265   -4.4077145      1728000    6807.9527       170800         2917 
34170000   0.94875935    -4.296517      1728000    6810.0014       170850         2917 
34180000    1.0164653   -4.4039887      1728000    6812.0509       170900         2919 
34190000     1.066265    -4.335187      1728000    6814.0563       170950         2919 
34200000    1.0008935   -4.2590763      1728000     6816.101       171000         2921 
34210000   0.96231862   -4.2340269      1728000    6818.0853       171050         2921 
34220000    0.9522858   -4.3728444      1728000    6820.0909       171100         2921 
34230000    1.0238394   -4.3450429      1728000    6822.1269       171150         2922 
34240000   0.99137126   -4.3377132      1728000    6824.1648       171200         2923 
34250000   0.97333874   -4.4700209      1728000    6826.1881       171250         2923 
34260000    1.0152643   -4.3189957      1728000     6828.268       171300         2924 
34270000   0.99808157   -4.2711574      1728000    6830.2897       171350         2926 
34280000    1.0197519   -4.3760743      1728000    6832.2802       171400         2926 
34290000    1.0378467   -4.3016273      1728000    6834.3412       171450         2926 
34300000   0.97814004   -4.2944085      1728000    6836.3801       171500         2927 
34310000    1.0224286   -4.3704313      1728000     6838.438       171550         2927 
34320000    1.0658871   -4.2382921      1728000    6840.4849       171600         2929 
34330000    0.9634729   -4.2540255      1728000    6842.5127       171650         2930 
34340000    1.0360935    -4.430084      1728000    6844.5234       171700         2930 
34350000   0.95571468   -4.3262662      1728000    6846.5359       171750         2930 
34360000    1.0201221   -4.2665997      1728000     6848.574       171800         2932 
34370000   0.96652536   -4.2555036      1728000    6850.5758       171850         2933 
34380000    1.0044601   -4.4171357      1728000      6852.61       171900         2935 
34390000   0.99316189   -4.2825136      1728000     6854.616       171950         2936 
34400000    1.0349471   -4.2919528      1728000    6856.6579       172000         2936 
34410000   0.99812744   -4.2826352      1728000    6858.6647       172050         2936 
34420000    1.0336256   -4.1886346      1728000    6860.7013       172100         2936 
34430000    1.0503363   -4.3958331      1728000    6862.7454       172150         2936 
34440000   0.97729305   -4.4318449      1728000    6864.7751       172200         2936 
34450000    1.0710993   -4.3446042      1728000    6866.8471       172250         2936 
34460000   0.96321963   -4.2277712      1728000    6868.8831       172300         2936 
34470000    1.0287319   -4.3807006      1728000    6870.9126       172350         2936 
34480000    0.9902665   -4.3598148      1728000    6872.8999       172400         2936 
34490000   0.97004376   -4.3926265      1728000    6874.9372       172450         2937 
34500000    1.0398479    -4.224158      1728000    6877.0038       172500         2938 
34510000    1.0049903   -4.3083023      1728000    6879.0241       172550         2939 
34520000   0.97461291   -4.3128507      1728000    6881.0383       172600         2939 
34530000    1.0019317   -4.4023216      1728000     6883.055       172650         2941 
34540000   0.97999567   -4.3721915      1728000    6885.0759       172700         2941 
34550000   0.98406162   -4.3664927      1728000    6887.1179       172750         2941 
34560000    1.0368645   -4.3452135      1728000     6889.163       172800         2942 
34570000    1.0084637   -4.3563503      1728000    6891.1781       172850         2943 
34580000   0.93932872    -4.265023      1728000    6893.2115       172900         2943 
34590000   0.99991639   -4.2975928      1728000    6895.2498       172950         2943 
34600000    1.0238849   -4.3769162      1728000    6897.2729       173000         2943 
34610000   0.97629123   -4.2916749      1728000    6899.3017       173050         2944 
34620000    1.0073344   -4.2551695      1728000    6901.2942       173100         2944 
34630000   0.92510802   -4.3932674      1728000     6903.303       173150         2945 
34640000    1.0039699   -4.3968482      1728000    6905.3129       173200         2946 
34650000    1.0055236   -4.3055885      1728000    6907.3381       173250         2949 
34660000    1.0391713   -4.3423561      1728000    6909.3346       173300         2949 
34670000    1.0280288   -4.3700278      1728000    6911.3666       173350         2950 
34680000    1.0215709   -4.3427487      1728000    6913.3713       173400         2950 
34690000    1.0314046    -4.415886      1728000     6915.404       173450         2950 
34700000   0.99096998    -4.319536      1728000    6917.4023       173500         2953 
34710000    1.0256284   -4.3277422      1728000    6919.4061       173550         2953 
34720000    1.0496756   -4.3280731      1728000    6921.4138       173600         2954 
34730000    1.0682257    -4.434687      1728000    6923.4516       173650         2954 
34740000    1.0288742   -4.3677862      1728000    6925.4583       173700         2955 
34750000   0.95781196   -4.3131734      1728000    6927.4763       173750         2955 
34760000   0.95326162   -4.3818806      1728000    6929.4691       173800         2957 
34770000    1.0320996   -4.3309367      1728000    6931.4703       173850         2957 
34780000    1.0118107   -4.2961951      1728000    6933.5133       173900         2957 
34790000    1.0337241   -4.4817747      1728000    6935.5247       173950         2957 
34800000    1.0238866    -4.269095      1728000    6937.5391       174000         2958 
34810000   0.99271899   -4.3244775      1728000    6939.5488       174050         2958 
34820000   0.99997747   -4.4269968      1728000    6941.5631       174100         2959 
34830000    1.0158411   -4.2977582      1728000    6943.6032       174150         2959 
34840000   0.98420961    -4.324027      1728000    6945.5512       174200         2960 
34850000    0.9770197    -4.233515      1728000    6947.5372       174250         2961 
34860000   0.95758741   -4.2753661      1728000    6949.5589       174300         2961 
34870000    1.0978869   -4.4184906      1728000    6951.5391       174350         2962 
34880000    1.0307012   -4.3050664      1728000    6953.5491       174400         2963 
34890000   0.99777013   -4.3041775      1728000    6955.5887       174450         2964 
34900000    1.0264131   -4.3799898      1728000    6957.6083       174500         2964 
34910000    1.0326271   -4.3236025      1728000    6959.5579       174550         2967 
34920000    1.0640663   -4.3400851      1728000    6961.5723       174600         2967 
34930000   0.98845127   -4.5074872      1728000    6963.5614       174650         2967 
34940000    1.0348575   -4.3954123      1728000    6965.5701       174700         2969 
34950000    1.0319262   -4.3270788      1728000    6967.5385       174750         2969 
34960000   0.99933251   -4.3736058      1728000    6969.5551       174800         2969 
34970000   0.98028752   -4.3291805      1728000    6971.5804       174850         2969 
34980000   0.96232278   -4.2675404      1728000    6973.6076       174900         2969 
34990000   0.94789355   -4.2266516      1728000     6975.645       174950         2969 
35000000    1.0358599   -4.2996708      1728000    6977.6717       175000         2971 
35010000    1.0389793   -4.2890134      1728000    6979.7031       175050         2971 
35020000    1.0040925   -4.2665558      1728000    6981.7585       175100         2971 
35030000    1.0313593   -4.2716416      1728000    6983.7531       175150         2972 
35040000    1.0228641   -4.3106468      1728000    6985.7751       175200         2973 
35050000     1.017424    -4.324364      1728000    6987.7851       175250         2973 
35060000    1.0237199   -4.4146232      1728000    6989.8027       175300         2973 
35070000    1.0127003   -4.3498854      1728000    6991.9171       175350         2973 
35080000   0.96524936    -4.312681      1728000    6993.9684       175400         2973 
35090000     1.036413   -4.2877388      1728000     6996.001       175450         2973 
35100000   0.98777246   -4.2856698      1728000    6998.0354       175500         2973 
35110000   0.98186683    -4.367088      1728000    7000.0635       175550         2974 
35120000    1.0570804     -4.34238      1728000    7002.0614       175600         2974 
35130000      1.04901   -4.2697226      1728000    7004.1264       175650         2975 
35140000   0.96688854    -4.316434      1728000    7006.1215       175700         2976 
35150000    1.0348388   -4.3526802      1728000    7008.1373       175750         2976 
35160000    1.0084374   -4.5375583      1728000    7010.1656       175800         2976 
35170000   0.92702625   -4.2606021      1728000    7012.1605       175850         2976 
35180000    1.0378451   -4.2637576      1728000    7014.1789       175900         2976 
35190000    1.0612913   -4.3669345      1728000    7016.2507       175950         2976 
35200000    0.9908444   -4.3744457      1728000    7018.2911       176000         2977 
35210000    1.0271052   -4.2820705      1728000     7020.286       176050         2977 
35220000   0.99162805    -4.343683      1728000    7022.3169       176100         2978 
35230000   0.95751239   -4.1814837      1728000    7024.3369       176150         2978 
35240000   0.95657183   -4.3570353      1728000    7026.3934       176200         2978 
35250000    1.0184683   -4.3329605      1728000    7028.3944       176250         2979 
35260000   0.97371004   -4.3092931      1728000    7030.4292       176300         2979 
35270000   0.95049777   -4.4354303      1728000    7032.4513       176350         2979 
35280000    1.0475041   -4.2918049      1728000    7034.4817       176400         2980 
35290000    1.0478568   -4.2035142      1728000    7036.4831       176450         2981 
35300000    1.0988591   -4.4963996      1728000    7038.5685       176500         2983 
35310000   0.99918398   -4.3334402      1728000    7040.5992       176550         2984 
35320000   0.99325557   -4.2552285      1728000    7042.6502       176600         2984 
35330000   0.95963999   -4.1682108      1728000    7044.6762       176650         2984 
35340000   0.98247966   -4.3157007      1728000    7046.6856       176700         2985 
35350000   0.98602967   -4.1911715      1728000    7048.6814       176750         2985 
35360000   0.98274119   -4.2959323      1728000    7050.6926       176800         2986 
35370000   0.96617701   -4.3397432      1728000    7052.7106       176850         2987 
35380000     1.007041   -4.3864446      1728000     7054.709       176900         2987 
35390000   0.98669038   -4.2107647      1728000    7056.7181       176950         2988 
35400000   0.95518278   -4.1843059      1728000    7058.7211       177000         2990 
35410000   0.99893738   -4.4730641      1728000     7060.753       177050         2992 
35420000   0.97894354   -4.3683173      1728000    7062.7581       177100         2992 
35430000   0.94833515   -4.2660073      1728000    7064.7754       177150         2992 
35440000    0.9660219   -4.3997088      1728000    7066.7744       177200         2992 
35450000   0.98129721    -4.327651      1728000     7068.806       177250         2992 
35460000     1.012062   -4.3660132      1728000    7070.8156       177300         2992 
35470000   0.98887083    -4.388907      1728000    7072.8173       177350         2993 
35480000   0.98442891   -4.3399192      1728000    7074.8651       177400         2994 
35490000   0.97571101    -4.343342      1728000    7076.9046       177450         2994 
35500000   0.97340625   -4.3059388      1728000    7078.9569       177500         2994 
35510000    0.9737406   -4.3123391      1728000    7080.9654       177550         2994 
35520000    1.0359402   -4.3956711      1728000    7082.9761       177600         2994 
35530000   0.99904453   -4.4256826      1728000    7084.9875       177650         2995 
35540000    1.0526971   -4.2251788      1728000    7087.0144       177700         2995 
35550000    1.0283857   -4.3529609      1728000    7089.0017       177750         2995 
35560000    0.9807267   -4.3268642      1728000    7091.0222       177800         2996 
35570000    1.0204118   -4.4282013      1728000    7093.0643       177850         2997 
35580000     1.043649   -4.4293095      1728000    7095.0863       177900         2997 
35590000   0.95916972   -4.2878679      1728000     7097.115       177950         2997 
35600000   0.96352321   -4.3195625      1728000    7099.0811       178000         2997 
35610000     1.006448   -4.4121171      1728000      7101.06       178050         2998 
35620000   0.89438412   -4.3059164      1728000    7103.0401       178100         2999 
35630000    1.0560518   -4.5210131      1728000    7105.0408       178150         3000 
35640000    1.0232964   -4.3026016      1728000    7107.0833       178200         3001 
35650000    1.0067813   -4.3187933      1728000    7109.1043       178250         3001 
35660000   0.99258465   -4.4218068      1728000    7111.1572       178300         3003 
35670000   0.94308902   -4.4201288      1728000    7113.2091       178350         3004 
35680000    1.0286129   -4.4596721      1728000    7115.2738       178400         3004 
35690000   0.97293925   -4.2728045      1728000    7117.3329       178450         3004 
35700000   0.99674239   -4.5138781      1728000     7119.359       178500         3004 
35710000   0.99370782   -4.3440452      1728000    7121.3424       178550         3004 
35720000    0.9704051   -4.3729365      1728000    7123.3455       178600         3004 
35730000    1.0557993   -4.4268641      1728000    7125.3881       178650         3004 
35740000   0.98885451   -4.3213689      1728000    7127.4328       178700         3004 
35750000   0.97381092   -4.3837218      1728000     7129.471       178750         3004 
35760000   0.98086069   -4.3960735      1728000    7131.5365       178800         3004 
35770000    1.0213724   -4.3811416      1728000    7133.5877       178850         3004 
35780000   0.98425878   -4.2227826      1728000    7135.6537       178900         3004 
35790000   0.99731487    -4.438962      1728000     7137.658       178950         3004 
35800000    1.0187831   -4.2820002      1728000    7139.7385       179000         3004 
35810000   0.95010048    -4.217809      1728000    7141.7583       179050         3004 
35820000    1.0409804   -4.3213692      1728000    7143.7859       179100         3004 
35830000    1.0474087   -4.3913106      1728000    7145.8064       179150         3004 
35840000    0.9695984   -4.4139561      1728000    7147.8314       179200         3004 
35850000    1.0073618    -4.426409      1728000    7149.8264       179250         3004 
35860000     1.002586   -4.3430007      1728000     7151.831       179300         3004 
35870000   0.93899175   -4.3463867      1728000    7153.8176       179350         3004 
35880000    1.0162845    -4.420594      1728000    7155.8644       179400         3004 
35890000   0.98024505   -4.3044285      1728000    7157.9045       179450         3004 
35900000   0.98853722   -4.3330023      1728000    7159.9568       179500         3005 
35910000   0.94516474   -4.2602761      1728000    7161.9639       179550         3005 
35920000    1.0631372   -4.3911268      1728000    7164.0185       179600         3006 
35930000    1.0042096   -4.4314387      1728000    7166.0184       179650         3006 
35940000    1.0215108   -4.3599781      1728000    7168.0422       179700         3006 
35950000    1.0069397   -4.3546811      1728000     7170.062       179750         3007 
35960000   0.93152157   -4.3179012      1728000    7172.1067       179800         3008 
35970000    1.0652405   -4.4582596      1728000    7174.1201       179850         3008 
35980000    0.9605059   -4.3466432      1728000    7176.1626       179900         3009 
35990000     1.002249   -4.4558096      1728000    7178.2383       179950         3010 
36000000    1.0257218   -4.2866539      1728000    7180.2848       180000         3010 
36010000    0.9662861   -4.2797449      1728000    7182.3121       180050         3010 
36020000     1.039086   -4.2359939      1728000    7184.3106       180100         3012 
36030000    1.0001315   -4.3692035      1728000    7186.3586       180150         3012 
36040000    1.0077636   -4.2321979      1728000    7188.3452       180200         3013 
36050000    1.0968302   -4.3366328      1728000     7190.374       180250         3013 
36060000   0.97629432   -4.2755368      1728000    7192.3704       180300         3013 
36070000   0.90210409    -4.251449      1728000    7194.4153       180350         3014 
36080000   0.98977882   -4.4066412      1728000    7196.4242       180400         3014 
36090000   0.95174918   -4.3018322      1728000    7198.4435       180450         3014 
36100000   0.99182427   -4.2702132      1728000    7200.5214       180500         3015 
36110000   0.99480018   -4.3083853      1728000    7202.5138       180550         3015 
36120000    1.0200445   -4.3138144      1728000    7204.5008       180600         3017 
36130000   0.96013766   -4.3642831      1728000    7206.5276       180650         3018 
36140000   0.97580551   -4.3045657      1728000    7208.5809       180700         3019 
36150000    1.0405877    -4.244295      1728000    7210.6251       180750         3022 
36160000   0.94788877   -4.3423922      1728000     7212.717       180800         3022 
36170000   0.97279521    -4.318392      1728000    7214.7354       180850         3023 
36180000   0.95768584    -4.291217      1728000    7216.7963       180900         3027 
36190000   0.94464704    -4.292797      1728000    7218.7972       180950         3028 
36200000   0.99080258   -4.3616724      1728000    7220.7816       181000         3029 
36210000     1.002874   -4.3589911      1728000     7222.815       181050         3030 
36220000    1.0209527   -4.2675343      1728000    7224.8462       181100         3030 
36230000    1.0399204   -4.2986781      1728000    7226.8849       181150         3031 
36240000    1.0325753   -4.2768769      1728000    7228.9155       181200         3031 
36250000    1.0597469   -4.4240632      1728000    7230.8805       181250         3032 
36260000   0.99015338   -4.4070469      1728000    7232.8396       181300         3032 
36270000    1.0807545   -4.2819505      1728000    7234.8525       181350         3032 
36280000   0.98984625   -4.3378164      1728000    7236.8803       181400         3033 
36290000   0.97501661   -4.2711574      1728000    7238.8773       181450         3034 
36300000   0.92382653   -4.4958464      1728000    7240.8473       181500         3034 
36310000   0.98166399   -4.3513574      1728000     7242.878       181550         3034 
36320000    1.1148709   -4.2891248      1728000    7244.8878       181600         3036 
36330000    1.0135854    -4.302021      1728000    7246.9245       181650         3037 
36340000   0.97070636   -4.2621796      1728000    7248.9268       181700         3038 
36350000    1.0551351   -4.3154456      1728000    7250.9674       181750         3038 
36360000   0.99838986   -4.3223887      1728000    7253.1423       181800         3038 
36370000    0.9395776   -4.3652961      1728000    7255.1715       181850         3039 
36380000    1.0074356   -4.2876865      1728000    7257.1525       181900         3040 
36390000   0.99183507    -4.476361      1728000    7259.1576       181950         3040 
36400000   0.98740402   -4.4181019      1728000    7261.1825       182000         3040 
36410000    1.0356544   -4.3845721      1728000    7263.1892       182050         3040 
36420000   0.93578781    -4.284697      1728000    7265.2066       182100         3041 
36430000    1.0463214   -4.3940296      1728000    7267.3397       182150         3041 
36440000    0.9997155   -4.3816797      1728000    7269.4327       182200         3042 
36450000   0.99137967   -4.3065553      1728000    7271.5924       182250         3042 
36460000    1.0019775   -4.4632867      1728000    7273.6149       182300         3042 
36470000   0.99588898   -4.4056099      1728000    7275.6851       182350         3042 
36480000   0.96701951   -4.4600695      1728000    7277.7407       182400         3042 
36490000    1.0335082   -4.4350693      1728000    7279.7728       182450         3042 
36500000    1.0411772   -4.3387677      1728000    7281.7828       182500         3042 
36510000   0.94446793    -4.344201      1728000    7283.7842       182550         3043 
36520000    1.0708849   -4.4420455      1728000    7285.7474       182600         3043 
36530000   0.99400015   -4.4156851      1728000    7287.7756       182650         3043 
36540000   0.95646536   -4.3556966      1728000    7289.8217       182700         3043 
36550000    1.0535841   -4.3405033      1728000    7291.8702       182750         3043 
36560000    1.0311214   -4.4459325      1728000    7293.9114       182800         3043 
36570000    1.0662109   -4.3470157      1728000    7295.9514       182850         3043 
36580000    0.9726131   -4.3918464      1728000    7297.9796       182900         3043 
36590000   0.98083625   -4.3206652      1728000    7299.9957       182950         3043 
36600000    1.0153388   -4.4604927      1728000    7302.0224       183000         3043 
36610000    1.0415643   -4.3663406      1728000    7304.0383       183050         3043 
36620000    1.0193503   -4.4475231      1728000    7306.0504       183100         3043 
36630000    0.9698226   -4.4958592      1728000    7308.1024       183150         3043 
36640000    0.9449269   -4.4742964      1728000    7310.1716       183200         3045 
36650000   0.94689918   -4.3194769      1728000    7312.2266       183250         3045 
36660000    1.0326051   -4.3591867      1728000    7314.2108       183300         3045 
36670000   0.95537902   -4.3767343      1728000    7316.2329       183350         3045 
36680000     1.041316   -4.3631555      1728000    7318.2418       183400         3045 
36690000   0.98106786   -4.3165889      1728000    7320.2836       183450         3046 
36700000    1.0022954   -4.4061254      1728000    7322.2915       183500         3046 
36710000    1.0080114   -4.4431406      1728000    7324.3464       183550         3046 
36720000   0.98153501   -4.3243314      1728000    7326.3276       183600         3047 
36730000    1.0428054   -4.3579901      1728000    7328.3287       183650         3047 
36740000   0.93568325   -4.3962891      1728000    7330.3175       183700         3047 
36750000    1.0108185   -4.3251699      1728000    7332.3369       183750         3048 
36760000    1.0710188   -4.3221651      1728000    7334.3593       183800         3048 
36770000   0.98248615   -4.2940911      1728000    7336.3552       183850         3048 
36780000   0.99407898   -4.3535255      1728000    7338.3645       183900         3048 
36790000    1.0011359   -4.3061029      1728000    7340.3993       183950         3050 
36800000   0.95734134   -4.4959611      1728000    7342.4138       184000         3050 
36810000   0.97584076   -4.4755148      1728000    7344.4344       184050         3050 
36820000   0.99988075   -4.2717159      1728000    7346.5003       184100         3050 
36830000    1.0039312    -4.413539      1728000    7348.5426       184150         3050 
36840000   0.95963527   -4.3514661      1728000    7350.5353       184200         3050 
36850000    1.0501849   -4.3398305      1728000    7352.5647       184250         3051 
36860000    1.0073577   -4.2467651      1728000    7354.5595       184300         3051 
36870000    1.0201831   -4.2842526      1728000    7356.6069       184350         3051 
36880000   0.95364136   -4.2881988      1728000    7358.6637       184400         3051 
36890000    1.0024666   -4.2046511      1728000    7360.6647       184450         3052 
36900000      1.00108   -4.3585839      1728000    7362.7015       184500         3052 
36910000   0.96605752    -4.356501      1728000    7364.7306       184550         3052 
36920000    1.0316271   -4.4360921      1728000    7366.7684       184600         3052 
36930000    1.0633317   -4.3983531      1728000    7368.8271       184650         3052 
36940000   0.97413195   -4.3635168      1728000     7370.823       184700         3052 
36950000   0.98490719   -4.3850532      1728000    7372.8461       184750         3053 
36960000    1.0256854   -4.4010171      1728000    7374.9157       184800         3056 
36970000   0.98808518   -4.4352195      1728000    7376.9657       184850         3056 
36980000    1.0504694   -4.3780154      1728000    7379.0115       184900         3057 
36990000   0.94397242   -4.3347873      1728000    7381.0192       184950         3057 
37000000    1.0259684   -4.3265519      1728000    7383.0983       185000         3058 
37010000    1.0020097   -4.2881731      1728000     7385.147       185050         3058 
37020000    1.0042516   -4.4978132      1728000    7387.1833       185100         3059 
37030000    1.0068148    -4.423012      1728000    7389.1663       185150         3059 
37040000   0.99518278   -4.3095702      1728000    7391.1621       185200         3059 
37050000   0.98899726   -4.2656446      1728000    7393.2063       185250         3060 
37060000   0.94463373   -4.3187884      1728000    7395.2161       185300         3060 
37070000   0.97732511   -4.3601348      1728000    7397.1925       185350         3060 
37080000     1.040348   -4.2862874      1728000    7399.1397       185400         3060 
37090000    1.0171943   -4.3436621      1728000    7401.1156       185450         3060 
37100000   0.98061874   -4.2866303      1728000    7403.1337       185500         3061 
37110000    0.9464779   -4.3723206      1728000     7405.138       185550         3062 
37120000   0.98775888   -4.4287483      1728000    7407.1298       185600         3062 
37130000   0.96373765    -4.394436      1728000    7409.1255       185650         3063 
37140000    1.0466677   -4.4084274      1728000     7411.166       185700         3063 
37150000   0.96462383   -4.3791432      1728000    7413.1846       185750         3063 
37160000   0.98734556   -4.3645699      1728000    7415.1528       185800         3064 
37170000   0.94505094   -4.2513768      1728000    7417.1304       185850         3064 
37180000   0.99639224   -4.3652128      1728000    7419.1496       185900         3065 
37190000   0.97913056   -4.3428898      1728000     7421.195       185950         3065 
37200000      1.01628   -4.3294912      1728000    7423.2086       186000         3065 
37210000    1.0021521   -4.3904845      1728000    7425.2114       186050         3066 
37220000   0.96690445   -4.3829322      1728000    7427.2178       186100         3066 
37230000   0.96522208   -4.3870706      1728000    7429.2554       186150         3066 
37240000   0.97631486    -4.405912      1728000     7431.346       186200         3066 
37250000    1.0148563    -4.397036      1728000    7433.3825       186250         3066 
37260000   0.99501278   -4.3250632      1728000    7435.4697       186300         3067 
37270000   0.99717761   -4.3662078      1728000    7437.4865       186350         3067 
37280000     1.013115   -4.3770439      1728000    7439.4678       186400         3067 
37290000   0.98915024   -4.4261838      1728000    7441.5162       186450         3067 
37300000   0.98965032    -4.365762      1728000    7443.5147       186500         3068 
37310000   0.94623489   -4.4386425      1728000    7445.5092       186550         3068 
37320000   0.96376002   -4.3943011      1728000    7447.5678       186600         3069 
37330000    1.0571346   -4.4054936      1728000    7449.6042       186650         3069 
37340000   0.96246836   -4.3564834      1728000    7451.5907       186700         3069 
37350000    1.0053555   -4.2196935      1728000    7453.5554       186750         3070 
37360000   0.99946829   -4.3779724      1728000      7455.51       186800         3070 
37370000   0.96932357   -4.3666163      1728000    7457.5299       186850         3070 
37380000    1.0311609   -4.4091715      1728000    7459.5846       186900         3070 
37390000   0.98074553   -4.4096641      1728000    7461.5875       186950         3070 
37400000    1.0394455   -4.3863392      1728000    7463.6224       187000         3071 
37410000   0.99505713   -4.3987125      1728000    7465.6829       187050         3071 
37420000    1.0566644   -4.3177456      1728000    7467.6925       187100         3071 
37430000   0.97065054   -4.3436302      1728000    7469.7357       187150         3071 
37440000    1.0162076   -4.4139103      1728000    7471.7296       187200         3072 
37450000   0.95159019   -4.6007415      1728000    7473.6946       187250         3072 
37460000   0.97711574   -4.3735494      1728000    7475.7236       187300         3072 
37470000   0.95181275   -4.4082001      1728000    7477.7294       187350         3073 
37480000    1.0276189   -4.3388886      1728000    7479.7919       187400         3073 
37490000   0.98712669   -4.2937927      1728000     7481.809       187450         3073 
37500000   0.97574683   -4.3256388      1728000    7483.8629       187500         3074 
37510000   0.96904366   -4.3961967      1728000    7485.9307       187550         3074 
37520000   0.99950214   -4.3246121      1728000    7487.9794       187600         3074 
37530000    0.9530311   -4.3237857      1728000     7490.019       187650         3074 
37540000   0.99885614   -4.4302506      1728000    7492.0744       187700         3075 
37550000   0.90631025   -4.3211237      1728000     7494.136       187750         3075 
37560000    1.0487855   -4.3296337      1728000    7496.1679       187800         3075 
37570000   0.98717161   -4.2643358      1728000    7498.1696       187850         3076 
37580000    1.0071131   -4.1827865      1728000    7500.1979       187900         3076 
37590000   0.96133016   -4.3610572      1728000    7502.2268       187950         3076 
37600000    1.0188856   -4.4406726      1728000    7504.2544       188000         3077 
37610000   0.93412412   -4.3893251      1728000    7506.3077       188050         3078 
37620000    0.9553386   -4.3817486      1728000    7508.3566       188100         3079 
37630000   0.99912707   -4.2084213      1728000    7510.3586       188150         3080 
37640000   0.99028517   -4.2979445      1728000    7512.3971       188200         3081 
37650000   0.98176038   -4.2343077      1728000    7514.3861       188250         3081 
37660000   0.97901024   -4.2566311      1728000     7516.345       188300         3081 
37670000   0.99580092   -4.2753217      1728000      7518.35       188350         3083 
37680000      1.01103   -4.2905074      1728000    7520.4032       188400         3083 
37690000    1.0023764   -4.2769698      1728000    7522.3695       188450         3085 
37700000   0.97260036   -4.2455381      1728000    7524.3695       188500         3087 
37710000    1.0120724    -4.299781      1728000    7526.4375       188550         3087 
37720000    1.0934235   -4.2779888      1728000    7528.4404       188600         3088 
37730000    1.0609532   -4.3405036      1728000    7530.4086       188650         3089 
37740000    1.0319705   -4.3192013      1728000    7532.4178       188700         3090 
37750000    1.0277483   -4.3652065      1728000    7534.4305       188750         3090 
37760000   0.94475889   -4.2742031      1728000    7536.4633       188800         3091 
37770000   0.99940072   -4.2971708      1728000     7538.484       188850         3092 
37780000     1.018287   -4.4480415      1728000    7540.5527       188900         3094 
37790000   0.97966634    -4.196446      1728000    7542.5485       188950         3094 
37800000   0.99314631   -4.2645723      1728000    7544.5757       189000         3095 
37810000   0.92183214    -4.176619      1728000    7546.5938       189050         3095 
37820000     1.024779   -4.2895492      1728000    7548.5744       189100         3095 
37830000    1.0297894   -4.2180938      1728000     7550.586       189150         3095 
37840000    1.0176056   -4.3849109      1728000      7552.55       189200         3097 
37850000    1.0246561   -4.2579161      1728000    7554.5683       189250         3099 
37860000     1.017155   -4.2376081      1728000    7556.6157       189300         3099 
37870000   0.99091986   -4.1592551      1728000    7558.6832       189350         3100 
37880000    1.0529469   -4.2481705      1728000    7560.6766       189400         3100 
37890000    1.0587144   -4.3963448      1728000    7562.6851       189450         3102 
37900000   0.97822216   -4.2722243      1728000    7564.7066       189500         3102 
37910000   0.95710229   -4.0712354      1728000    7566.7303       189550         3103 
37920000    0.9798134   -4.2971124      1728000    7568.7181       189600         3104 
37930000    1.0035439   -4.3068412      1728000    7570.6938       189650         3104 
37940000    1.0899425   -4.2078657      1728000    7572.6782       189700         3106 
37950000   0.99008459   -4.3272497      1728000    7574.6672       189750         3106 
37960000     1.019152    -4.251034      1728000    7576.6907       189800         3107 
37970000    1.0177849   -4.3459623      1728000    7578.7426       189850         3109 
37980000    1.0751723   -4.3402067      1728000     7580.763       189900         3110 
37990000    0.9118078   -4.2722801      1728000    7582.7598       189950         3110 
38000000    1.0389786   -4.1670606      1728000    7584.7787       190000         3110 
38010000    1.0117679   -4.3503037      1728000    7586.7731       190050         3112 
38020000   0.97376966    -4.223065      1728000    7588.7447       190100         3113 
38030000   0.98162242   -4.3171594      1728000    7590.7414       190150         3116 
38040000    1.0894826   -4.3286837      1728000     7592.746       190200         3116 
38050000   0.99726913   -4.2581611      1728000    7594.7672       190250         3117 
38060000    1.0006375    -4.299588      1728000    7596.8314       190300         3117 
38070000   0.99773531    -4.310437      1728000    7598.8838       190350         3119 
38080000   0.96696368   -4.2773691      1728000    7600.9162       190400         3119 
38090000    1.0697921   -4.3408745      1728000    7602.9038       190450         3119 
38100000     1.001622   -4.3149714      1728000    7604.9034       190500         3120 
38110000    1.0513258   -4.2784378      1728000    7606.9042       190550         3121 
38120000    1.0421031   -4.3233011      1728000    7608.9186       190600         3122 
38130000    1.0364786   -4.3755772      1728000    7610.9541       190650         3122 
38140000   0.93825028   -4.3920316      1728000    7612.9711       190700         3124 
38150000     1.051648   -4.3757131      1728000    7614.9608       190750         3125 
38160000    1.0488412   -4.2495898      1728000    7616.9818       190800         3127 
38170000    1.0416534   -4.3080316      1728000    7619.0213       190850         3127 
38180000   0.98929542   -4.3784772      1728000    7621.1177       190900         3128 
38190000   0.96782813   -4.2827997      1728000    7623.1722       190950         3128 
38200000    1.0211636   -4.2861339      1728000    7625.2507       191000         3128 
38210000   0.99449503   -4.2432711      1728000    7627.3058       191050         3129 
38220000    1.0243713   -4.3621276      1728000    7629.3578       191100         3130 
38230000   0.98069259   -4.4402932      1728000    7631.4235       191150         3130 
38240000    1.0158469   -4.3667931      1728000    7633.4855       191200         3132 
38250000   0.99396108   -4.3725622      1728000    7635.4829       191250         3132 
38260000     1.007592   -4.3473917      1728000     7637.483       191300         3132 
38270000    1.0024813   -4.2913104      1728000    7639.5206       191350         3132 
38280000    1.0549203   -4.4576148      1728000    7641.5178       191400         3132 
38290000    1.0235284   -4.3752472      1728000    7643.4944       191450         3133 
38300000    1.0728735   -4.3305543      1728000     7645.583       191500         3134 
38310000    1.0617026   -4.3279337      1728000    7647.5969       191550         3135 
38320000    1.0819954    -4.345176      1728000    7649.6053       191600         3135 
38330000    1.0306812   -4.2008933      1728000     7651.583       191650         3135 
38340000   0.99156111   -4.2965852      1728000    7653.5718       191700         3135 
38350000   0.95474254   -4.4104867      1728000    7655.5607       191750         3137 
38360000   0.96175527    -4.374446      1728000    7657.6358       191800         3137 
38370000    1.0281571   -4.4381141      1728000    7659.6208       191850         3138 
38380000    1.0312862   -4.3459772      1728000    7661.6756       191900         3138 
38390000    1.0408583   -4.3468952      1728000    7663.7305       191950         3138 
38400000   0.97076765   -4.4465446      1728000    7665.7913       192000         3138 
38410000   0.98373135   -4.4157865      1728000    7667.8244       192050         3138 
38420000   0.92945315    -4.282921      1728000    7669.9168       192100         3138 
38430000    0.9677589   -4.3486843      1728000    7671.9906       192150         3138 
38440000    0.9601759   -4.3776387      1728000    7674.0594       192200         3138 
38450000   0.99007277   -4.2957822      1728000    7676.1445       192250         3138 
38460000   0.99418465   -4.3262319      1728000    7678.1948       192300         3139 
38470000    1.0611294   -4.2609683      1728000     7680.268       192350         3140 
38480000    1.1065488   -4.3233723      1728000    7682.3049       192400         3140 
38490000    1.0030408   -4.2671667      1728000    7684.3166       192450         3140 
38500000   0.98213531   -4.3209614      1728000     7686.378       192500         3141 
38510000   0.99732972   -4.4157568      1728000     7688.409       192550         3141 
38520000   0.88816231   -4.2710293      1728000     7690.422       192600         3141 
38530000    1.0498821   -4.3486282      1728000    7692.4145       192650         3142 
38540000      0.97119   -4.3427029      1728000    7694.4455       192700         3142 
38550000    1.0023933   -4.4837961      1728000    7696.4929       192750         3142 
38560000    1.0002604   -4.3387847      1728000     7698.468       192800         3142 
38570000    1.0501909   -4.4019146      1728000    7700.5097       192850         3142 
38580000    0.9971198   -4.3569871      1728000    7702.5159       192900         3142 
38590000    1.0105012   -4.4071308      1728000    7704.5646       192950         3142 
38600000    1.0121795   -4.3871072      1728000    7706.6066       193000         3142 
38610000    1.0194419   -4.3702767      1728000    7708.6528       193050         3142 
38620000    1.0554489   -4.3924164      1728000    7710.6928       193100         3143 
38630000    1.0420178   -4.5144153      1728000    7712.7312       193150         3143 
38640000    1.0838883   -4.3107543      1728000     7714.708       193200         3144 
38650000   0.99091412   -4.3766963      1728000    7716.6859       193250         3144 
38660000     1.008181   -4.1795496      1728000     7718.715       193300         3147 
38670000    1.0187448   -4.2841892      1728000    7720.7361       193350         3147 
38680000    1.0394948   -4.3916156      1728000    7722.7768       193400         3147 
38690000   0.97979406   -4.3850007      1728000     7724.852       193450         3148 
38700000    1.0764023   -4.4584253      1728000    7726.8915       193500         3148 
38710000    1.0536884   -4.2902545      1728000    7728.8384       193550         3148 
38720000   0.99202089   -4.3555919      1728000    7730.8532       193600         3149 
38730000   0.94364603   -4.4574322      1728000    7732.8853       193650         3149 
38740000    1.0531477   -4.4848846      1728000     7734.866       193700         3152 
38750000    1.0411524   -4.2651054      1728000    7736.8925       193750         3153 
38760000    0.9672608   -4.3249286      1728000    7738.9398       193800         3153 
38770000   0.98222197   -4.4194174      1728000    7740.9438       193850         3155 
38780000    1.0091692   -4.2597532      1728000     7742.915       193900         3155 
38790000    1.0067521   -4.1905536      1728000    7744.9269       193950         3155 
38800000    1.0007983   -4.3486094      1728000    7746.9801       194000         3155 
38810000   0.98512046   -4.3550327      1728000     7749.021       194050         3155 
38820000    1.0164883   -4.2933192      1728000    7751.0601       194100         3155 
38830000    1.0215166    -4.348743      1728000    7753.0669       194150         3156 
38840000    1.0619353   -4.2501793      1728000     7755.036       194200         3156 
38850000   0.99866914   -4.2907647      1728000    7757.0112       194250         3157 
38860000    1.0052553   -4.2942769      1728000    7759.0248       194300         3158 
38870000   0.95766322   -4.2111579      1728000    7761.0382       194350         3158 
38880000   0.96795203   -4.3433634      1728000    7763.0264       194400         3158 
38890000    1.0552892   -4.2450733      1728000     7765.074       194450         3158 
38900000   0.92614261   -4.2758033      1728000    7767.1218       194500         3159 
38910000   0.94259449   -4.3079714      1728000    7769.1188       194550         3159 
38920000    1.0105722   -4.4481655      1728000    7771.1678       194600         3159 
38930000   0.98398194   -4.2264112      1728000    7773.2216       194650         3159 
38940000    1.0347512   -4.3476254      1728000    7775.2842       194700         3159 
38950000    1.0051895   -4.2782632      1728000    7777.3102       194750         3159 
38960000   0.95420205   -4.3337497      1728000    7779.2736       194800         3159 
38970000    1.0152048   -4.4001363      1728000    7781.2971       194850         3159 
38980000    1.0182816   -4.2592012      1728000     7783.379       194900         3159 
38990000    1.0549715   -4.3792616      1728000    7785.3947       194950         3159 
39000000    1.0230407   -4.4032342      1728000    7787.4285       195000         3160 
39010000    0.9981004   -4.4355002      1728000    7789.4592       195050         3161 
39020000   0.99708868   -4.3367073      1728000     7791.502       195100         3161 
39030000    1.0414076   -4.3166892      1728000    7793.5389       195150         3161 
39040000   0.96052566   -4.2904248      1728000     7795.586       195200         3162 
39050000    1.0079215    -4.387601      1728000    7797.5982       195250         3163 
39060000    1.0312791   -4.3754265      1728000    7799.6531       195300         3163 
39070000    1.0003522   -4.4565234      1728000    7801.6519       195350         3163 
39080000   0.94992872   -4.2598724      1728000     7803.662       195400         3165 
39090000   0.99144928   -4.2518384      1728000     7805.702       195450         3166 
39100000    1.0483236   -4.2558779      1728000    7807.6831       195500         3167 
39110000    0.9951286    -4.346333      1728000    7809.6745       195550         3168 
39120000   0.97100241   -4.3826295      1728000     7811.715       195600         3170 
39130000    1.0050208   -4.4769942      1728000     7813.735       195650         3170 
39140000   0.96324005   -4.2470188      1728000    7815.7838       195700         3171 
39150000    1.0097787   -4.3596529      1728000    7817.7669       195750         3171 
39160000    1.0036521   -4.3290657      1728000    7819.8049       195800         3171 
39170000   0.98269778   -4.2967348      1728000    7821.8516       195850         3172 
39180000   0.99562656   -4.2097204      1728000    7823.8877       195900         3172 
39190000     1.009029   -4.4323085      1728000    7825.9085       195950         3172 
39200000    1.0549804   -4.3797344      1728000     7827.944       196000         3172 
39210000   0.97554098   -4.2616115      1728000    7829.9431       196050         3172 
39220000    1.0782417   -4.3662556      1728000    7831.9481       196100         3172 
39230000    1.0902984   -4.3749844      1728000    7833.9439       196150         3172 
39240000    1.0026767    -4.335389      1728000    7835.9413       196200         3172 
39250000   0.98096501   -4.3363684      1728000    7837.9103       196250         3173 
39260000     1.034847   -4.3903408      1728000    7839.9426       196300         3174 
39270000   0.98941379   -4.3260916      1728000     7842.013       196350         3175 
39280000   0.96575054   -4.2109405      1728000    7844.0208       196400         3177 
39290000    1.0025295   -4.2248706      1728000     7846.032       196450         3178 
39300000    1.0302066   -4.2728434      1728000     7848.059       196500         3179 
39310000    1.0573818   -4.3975915      1728000    7850.0468       196550         3179 
39320000   0.98209414   -4.3330389      1728000    7852.0605       196600         3179 
39330000   0.98645927   -4.2427952      1728000    7854.0571       196650         3180 
39340000   0.95663102   -4.3056055      1728000    7856.0563       196700         3181 
39350000    1.0972624   -4.2655379      1728000    7858.0322       196750         3182 
39360000   0.93484169   -4.3192207      1728000    7860.0744       196800         3182 
39370000    1.0521301     -4.28508      1728000    7862.0644       196850         3183 
39380000   0.97360768   -4.3076858      1728000    7864.0463       196900         3184 
39390000    0.9893516   -4.2272463      1728000    7866.0622       196950         3184 
39400000    1.0209881   -4.3106735      1728000    7868.0935       197000         3184 
39410000    1.0369371   -4.2291571      1728000    7870.0838       197050         3184 
39420000    1.0228265   -4.3053581      1728000    7872.1292       197100         3186 
39430000   0.97495908   -4.3298797      1728000     7874.174       197150         3187 
39440000   0.97045347   -4.2540991      1728000    7876.2141       197200         3188 
39450000    1.0959842   -4.3665968      1728000     7878.235       197250         3189 
39460000   0.98117377    -4.325192      1728000    7880.2511       197300         3190 
39470000    1.0317901   -4.0670406      1728000     7882.214       197350         3190 
39480000    1.0220175   -4.2373057      1728000    7884.2299       197400         3190 
39490000     0.973913   -4.4127777      1728000    7886.2577       197450         3192 
39500000    1.0258094    -4.529418      1728000    7888.3508       197500         3193 
39510000    0.9628829    -4.312353      1728000    7890.4321       197550         3193 
39520000   0.98102643   -4.3563582      1728000    7892.4969       197600         3193 
39530000   0.96522491   -4.3685886      1728000    7894.4965       197650         3196 
39540000    0.9478423   -4.3225903      1728000    7896.5303       197700         3196 
39550000    1.0507033   -4.3934764      1728000    7898.5442       197750         3196 
39560000    1.0588423    -4.269032      1728000    7900.5072       197800         3197 
39570000    1.0141832   -4.3599916      1728000    7902.5573       197850         3197 
39580000    1.0055465   -4.2811713      1728000    7904.6907       197900         3197 
39590000    1.0182808   -4.3804723      1728000    7906.7433       197950         3198 
39600000   0.97856908    -4.414542      1728000     7908.939       198000         3199 
39610000   0.97490013   -4.3913215      1728000     7911.001       198050         3199 
39620000    1.0144412   -4.4029743      1728000    7913.0321       198100         3199 
39630000    0.9979344   -4.4297235      1728000     7915.075       198150         3200 
39640000    1.0284112   -4.3655048      1728000    7917.1299       198200         3200 
39650000    1.0882668   -4.3471441      1728000    7919.1777       198250         3201 
39660000    1.0412697   -4.3385408      1728000    7921.2161       198300         3202 
39670000   0.94410416   -4.3909201      1728000    7923.2327       198350         3202 
39680000    1.0166838   -4.2997217      1728000    7925.2362       198400         3204 
39690000    1.0165022   -4.1985704      1728000    7927.2573       198450         3204 
39700000    1.0225293   -4.4157188      1728000    7929.2472       198500         3204 
39710000    1.0207312   -4.2518102      1728000    7931.2391       198550         3204 
39720000   0.94191887   -4.2396459      1728000    7933.2652       198600         3204 
39730000    1.0562731   -4.3220979      1728000    7935.2605       198650         3205 
39740000   0.98875252   -4.3123512      1728000    7937.2628       198700         3206 
39750000     1.069009   -4.3809341      1728000    7939.2789       198750         3206 
39760000    1.0124325   -4.2949225      1728000    7941.3026       198800         3206 
39770000   0.99163472   -4.3363798      1728000    7943.3118       198850         3206 
39780000   0.97161045   -4.3256241      1728000    7945.3091       198900         3207 
39790000    1.0089656   -4.2475803      1728000    7947.2682       198950         3209 
39800000    1.0192997   -4.2989273      1728000    7949.2541       199000         3210 
39810000   0.94115924   -4.2985767      1728000     7951.264       199050         3211 
39820000     1.000706   -4.3805536      1728000    7953.3068       199100         3211 
39830000   0.98772817   -4.2413442      1728000    7955.2558       199150         3211 
39840000    1.0529913    -4.357435      1728000    7957.2795       199200         3212 
39850000   0.96232492   -4.3327521      1728000    7959.2605       199250         3212 
39860000   0.99148444   -4.4185488      1728000    7961.2177       199300         3213 
39870000    1.0337239   -4.3753937      1728000    7963.1863       199350         3214 
39880000    1.0102567   -4.4050274      1728000    7965.1719       199400         3214 
39890000    1.0000589   -4.2158965      1728000    7967.2257       199450         3215 
39900000   0.99282444   -4.3497265      1728000    7969.2582       199500         3215 
39910000    1.0943356   -4.3255224      1728000    7971.2721       199550         3217 
39920000    1.0184956    -4.368038      1728000    7973.2371       199600         3217 
39930000    1.0212117   -4.3147756      1728000      7975.21       199650         3220 
39940000   0.97130353   -4.3070913      1728000    7977.1902       199700         3222 
39950000    1.0048244   -4.2800479      1728000      7979.19       199750         3223 
39960000    0.9571306   -4.2686088      1728000    7981.2463       199800         3223 
39970000   0.98790185   -4.3293101      1728000    7983.2421       199850         3223 
39980000   0.97757695   -4.2090533      1728000    7985.2278       199900         3223 
39990000    1.0199241   -4.1353327      1728000    7987.2291       199950         3223 
40000000    1.0070362   -4.3351075      1728000    7989.2596       200000         3223 
40010000   0.98548351   -4.3153944      1728000    7991.2815       200050         3223 
40020000   0.99662918   -4.3594612      1728000    7993.3013       200100         3225 
40030000   0.97710335   -4.3918757      1728000    7995.3072       200150         3225 
40040000   0.99888722   -4.2569596      1728000    7997.3237       200200         3226 
40050000    1.0052977   -4.2482249      1728000    7999.3285       200250         3226 
40060000    1.0169259   -4.3182555      1728000    8001.3062       200300         3226 
40070000    1.0246458   -4.2992921      1728000    8003.3337       200350         3227 
40080000    1.0475765   -4.2542639      1728000    8005.3374       200400         3227 
40090000    1.0691956   -4.3479752      1728000    8007.3232       200450         3227 
40100000    0.9904315   -4.2929823      1728000    8009.3172       200500         3227 
40110000   0.97113103   -4.2737867      1728000    8011.3434       200550         3227 
40120000   0.96392238   -4.2366145      1728000    8013.3543       200600         3228 
40130000   0.95922709   -4.3386565      1728000    8015.4204       200650         3228 
40140000    1.0195554   -4.3077589      1728000    8017.4204       200700         3228 
40150000    1.0316834   -4.3287026      1728000    8019.4341       200750         3228 
40160000   0.98046823    -4.344872      1728000    8021.4365       200800         3228 
40170000     1.027219   -4.3490459      1728000    8023.4395       200850         3228 
40180000    1.0573718   -4.2664619      1728000    8025.4472       200900         3229 
40190000    1.0988502   -4.2739903      1728000    8027.4198       200950         3230 
40200000    1.0141039   -4.3490587      1728000    8029.4673       201000         3230 
40210000   0.97217059   -4.3719277      1728000    8031.4989       201050         3231 
40220000   0.99767811   -4.3547899      1728000    8033.4701       201100         3232 
40230000    1.0378026   -4.3345083      1728000     8035.447       201150         3233 
40240000    1.0569082   -4.2349111      1728000    8037.4648       201200         3234 
40250000    1.0659517   -4.2882286      1728000    8039.4534       201250         3235 
40260000   0.96680021   -4.2751414      1728000    8041.4826       201300         3235 
40270000    0.9991144   -4.3697036      1728000    8043.4842       201350         3236 
40280000    1.0579763   -4.2215096      1728000    8045.4584       201400         3238 
40290000    1.0777995   -4.2599659      1728000    8047.4565       201450         3238 
40300000    0.9748569   -4.2403286      1728000    8049.4592       201500         3239 
40310000   0.99800925   -4.2596387      1728000    8051.4346       201550         3239 
40320000    1.0549415     -4.18024      1728000    8053.4232       201600         3239 
40330000    1.0278524   -4.2603961      1728000    8055.4715       201650         3239 
40340000   0.97978518   -4.2199588      1728000    8057.4395       201700         3239 
40350000    1.0063314   -4.2330735      1728000    8059.4953       201750         3241 
40360000   0.95182825   -4.1364327      1728000    8061.4834       201800         3242 
40370000    1.0810033   -4.3399726      1728000     8063.485       201850         3243 
40380000   0.99747501   -4.3786719      1728000    8065.5132       201900         3244 
40390000    1.0599014   -4.3455382      1728000    8067.5527       201950         3244 
40400000   0.96807895   -4.2203868      1728000    8069.5511       202000         3244 
40410000   0.99237722   -4.2501766      1728000    8071.5412       202050         3244 
40420000    1.0658968   -4.3187169      1728000    8073.5594       202100         3248 
40430000    1.0081154   -4.3665516      1728000    8075.6013       202150         3249 
40440000    1.0142663   -4.2243015      1728000    8077.6488       202200         3251 
40450000    1.0230321   -4.2862522      1728000    8079.6772       202250         3252 
40460000   0.98938541   -4.4103056      1728000    8081.7165       202300         3253 
40470000    1.0440795   -4.2863671      1728000    8083.7383       202350         3255 
40480000    1.0238342   -4.3399174      1728000    8085.7303       202400         3256 
40490000    1.0051972   -4.2611415      1728000    8087.7274       202450         3257 
40500000    1.0116573   -4.2242262      1728000    8089.7935       202500         3258 
40510000    1.0161946   -4.3617149      1728000    8091.7962       202550         3258 
40520000   0.97282418   -4.2969345      1728000    8093.8305       202600         3260 
40530000   0.97568554    -4.272398      1728000    8095.8462       202650         3260 
40540000    1.0434602   -4.3090954      1728000    8097.8015       202700         3261 
40550000   0.96046096   -4.3455432      1728000    8099.7967       202750         3261 
40560000   0.95133134   -4.1843599      1728000    8101.8255       202800         3261 
40570000    1.0096208   -4.3143286      1728000    8103.8445       202850         3261 
40580000    1.0003676   -4.4228298      1728000    8105.8824       202900         3262 
40590000    1.0225044   -4.3485693      1728000    8107.9053       202950         3263 
40600000    1.0415644   -4.3277899      1728000    8109.9599       203000         3263 
40610000   0.95937634   -4.3440348      1728000    8112.0261       203050         3263 
40620000   0.99485591   -4.4305126      1728000    8114.0776       203100         3263 
40630000    1.0550842   -4.2052558      1728000    8116.1109       203150         3263 
40640000    1.0267949   -4.3763251      1728000    8118.1345       203200         3264 
40650000   0.94915096   -4.2621271      1728000    8120.1514       203250         3264 
40660000   0.97402727   -4.2470566      1728000    8122.1963       203300         3264 
40670000   0.97235121   -4.3259411      1728000    8124.1783       203350         3264 
40680000   0.97682386   -4.3654848      1728000    8126.1968       203400         3266 
40690000   0.94330955   -4.2262278      1728000    8128.2097       203450         3267 
40700000   0.98661159   -4.3743686      1728000    8130.3172       203500         3269 
40710000    1.0976081   -4.2977389      1728000    8132.3432       203550         3269 
40720000   0.98273468   -4.3414898      1728000    8134.2778       203600         3269 
40730000   0.98309734    -4.344087      1728000    8136.2396       203650         3270 
40740000    1.0741254   -4.4281136      1728000    8138.2536       203700         3270 
40750000    1.0046091   -4.3009768      1728000    8140.2574       203750         3270 
40760000    0.9985285   -4.4088487      1728000    8142.2676       203800         3271 
40770000    1.0463772   -4.3215519      1728000    8144.3107       203850         3271 
40780000   0.96385096   -4.3616361      1728000    8146.3163       203900         3271 
40790000    1.0456067   -4.1762836      1728000    8148.3283       203950         3272 
40800000    0.9890325   -4.3787125      1728000    8150.3347       204000         3272 
40810000    1.0531516   -4.3443464      1728000    8152.3344       204050         3272 
40820000    0.9889898   -4.4348782      1728000    8154.3257       204100         3272 
40830000    1.0141879   -4.2715567      1728000    8156.3704       204150         3273 
40840000   0.99877555   -4.2614351      1728000    8158.3363       204200         3273 
40850000   0.99003916   -4.3403927      1728000    8160.3439       204250         3276 
40860000   0.98909335   -4.4894192      1728000    8162.3564       204300         3277 
40870000    1.0048705   -4.2838874      1728000    8164.3857       204350         3278 
40880000   0.95954678   -4.2687506      1728000    8166.4182       204400         3278 
40890000    0.9803052   -4.3129079      1728000    8168.4453       204450         3278 
40900000    1.0250111   -4.3164189      1728000    8170.4674       204500         3278 
40910000    1.0299968   -4.3817214      1728000    8172.4432       204550         3278 
40920000    1.0486716   -4.2492903      1728000    8174.4366       204600         3278 
40930000   0.99132434   -4.3122767      1728000    8176.3956       204650         3279 
40940000    1.0459583   -4.3007851      1728000    8178.3826       204700         3279 
40950000    1.0271541   -4.4831812      1728000    8180.4748       204750         3280 
40960000    1.0038577   -4.3916859      1728000    8182.4862       204800         3280 
40970000    1.0255383   -4.3246842      1728000     8184.519       204850         3280 
40980000    1.0366607   -4.3609803      1728000    8186.5697       204900         3280 
40990000   0.99987132   -4.3719054      1728000    8188.6119       204950         3280 
41000000    1.0033022   -4.4632722      1728000    8190.6502       205000         3281 
41010000    1.0142111   -4.3667374      1728000    8192.6674       205050         3281 
41020000    1.0733297    -4.439813      1728000    8194.7035       205100         3282 
41030000    1.0393732   -4.3244777      1728000    8196.7378       205150         3282 
41040000    1.0361788   -4.3356316      1728000    8198.7833       205200         3282 
41050000   0.96836338   -4.3596485      1728000    8200.8004       205250         3282 
41060000   0.92972392   -4.2686913      1728000    8202.8061       205300         3282 
41070000   0.93860285   -4.3579604      1728000    8204.8367       205350         3284 
41080000    1.0126788   -4.4145804      1728000    8206.8962       205400         3284 
41090000    1.0133507   -4.3059188      1728000    8208.9363       205450         3284 
41100000   0.98394843   -4.4102183      1728000    8210.9504       205500         3284 
41110000   0.98607456   -4.3587158      1728000     8213.088       205550         3284 
41120000   0.93902618    -4.282947      1728000    8215.0983       205600         3284 
41130000   0.98010005   -4.2730345      1728000    8217.0983       205650         3285 
41140000   0.95589467    -4.452652      1728000    8219.1438       205700         3286 
41150000    1.0067682   -4.3495765      1728000    8221.3246       205750         3286 
41160000    1.0011794    -4.342186      1728000    8223.4642       205800         3286 
41170000   0.98688797   -4.3688297      1728000    8225.5035       205850         3286 
41180000   0.98469605   -4.3497201      1728000    8227.5243       205900         3286 
41190000    1.0351601   -4.3246192      1728000    8229.5223       205950         3286 
41200000    1.0720876   -4.4214345      1728000    8231.5188       206000         3286 
41210000    1.0331151   -4.3299873      1728000    8233.4823       206050         3286 
41220000    1.0475191   -4.2564971      1728000    8235.4899       206100         3286 
41230000   0.98080217   -4.3969645      1728000    8237.5085       206150         3286 
41240000    1.0073352   -4.4115104      1728000    8239.5224       206200         3286 
41250000   0.98555691   -4.2485727      1728000    8241.5354       206250         3286 
41260000    1.0491678   -4.3312161      1728000    8243.5434       206300         3286 
41270000   0.96397778   -4.3548562      1728000    8245.6162       206350         3286 
41280000     0.995259   -4.3734014      1728000    8247.6072       206400         3286 
41290000    1.0314831   -4.4550818      1728000    8249.6364       206450         3286 
41300000   0.98340775   -4.4471172      1728000    8251.6564       206500         3286 
41310000    1.0540653   -4.2793299      1728000    8253.6888       206550         3287 
41320000    1.0121298   -4.3628398      1728000    8255.7057       206600         3287 
41330000   0.98984836   -4.3496878      1728000    8257.7398       206650         3287 
41340000    1.0460903   -4.3427949      1728000    8259.7387       206700         3287 
41350000    1.0483952   -4.2979004      1728000    8261.7639       206750         3287 
41360000    1.0114799   -4.4610636      1728000    8263.8175       206800         3288 
41370000    1.0251385   -4.4168502      1728000    8265.8531       206850         3288 
41380000    1.0893134   -4.3836284      1728000    8267.9134       206900         3288 
41390000    1.0316507   -4.2579363      1728000    8269.9462       206950         3289 
41400000    1.0283099   -4.3186715      1728000    8272.0036       207000         3289 
41410000    1.0321629   -4.3375213      1728000    8274.0433       207050         3291 
41420000    0.9804521   -4.3667697      1728000    8276.0627       207100         3291 
41430000   0.97308414   -4.4428649      1728000    8278.0651       207150         3295 
41440000   0.99977068   -4.3135383      1728000    8280.1115       207200         3295 
41450000   0.98755681   -4.3950795      1728000    8282.0826       207250         3295 
41460000    1.0199248   -4.4123983      1728000    8284.1487       207300         3295 
41470000    1.0384373   -4.4394197      1728000    8286.1522       207350         3296 
41480000   0.97634484   -4.3561677      1728000    8288.1521       207400         3296 
41490000   0.97968506   -4.2069191      1728000    8290.1187       207450         3296 
41500000   0.93508938   -4.3961504      1728000     8292.176       207500         3296 
41510000    1.0284424   -4.4177246      1728000    8294.1871       207550         3296 
41520000    0.9805196   -4.3131842      1728000    8296.2218       207600         3296 
41530000   0.94396321   -4.3649332      1728000    8298.2308       207650         3297 
41540000    1.0014963   -4.3557422      1728000    8300.2413       207700         3297 
41550000   0.98045242   -4.4081451      1728000    8302.2168       207750         3297 
41560000    1.0945026   -4.5325315      1728000    8304.2316       207800         3300 
41570000   0.97648669   -4.3030427      1728000    8306.2685       207850         3300 
41580000    1.0042083   -4.4257597      1728000    8308.2908       207900         3301 
41590000    1.0255762   -4.3620182      1728000    8310.3063       207950         3301 
41600000    1.0300524   -4.4275995      1728000    8312.2901       208000         3301 
41610000    1.0565932   -4.3801069      1728000    8314.3175       208050         3303 
41620000   0.99017352   -4.4646058      1728000    8316.3464       208100         3304 
41630000    1.0149418   -4.3101618      1728000    8318.3527       208150         3304 
41640000   0.96100247   -4.2998792      1728000    8320.3426       208200         3304 
41650000   0.99771138   -4.2884264      1728000    8322.3324       208250         3304 
41660000     1.005829   -4.3360224      1728000    8324.3393       208300         3304 
41670000   0.99415731   -4.3422326      1728000    8326.3732       208350         3304 
41680000   0.95990122   -4.3914228      1728000     8328.379       208400         3304 
41690000    1.0233267   -4.4268997      1728000    8330.3874       208450         3305 
41700000    1.0166274   -4.4466814      1728000     8332.397       208500         3305 
41710000   0.94219683   -4.3225898      1728000    8334.4227       208550         3305 
41720000    1.0421045   -4.3046209      1728000    8336.4679       208600         3306 
41730000    1.0002804   -4.4730725      1728000    8338.4356       208650         3307 
41740000     1.032702   -4.3366811      1728000    8340.4617       208700         3307 
41750000    1.0297923    -4.314787      1728000     8342.464       208750         3307 
41760000   0.99223862   -4.3578925      1728000    8344.4892       208800         3307 
41770000    0.9868227   -4.4117203      1728000    8346.5347       208850         3307 
41780000   0.98080786   -4.4247782      1728000    8348.5774       208900         3307 
41790000   0.99068086   -4.3966007      1728000    8350.5975       208950         3308 
41800000    0.9813915    -4.499671      1728000    8352.5847       209000         3308 
41810000    1.0429299   -4.4384287      1728000    8354.6056       209050         3308 
41820000     1.025002   -4.3673161      1728000    8356.5996       209100         3308 
41830000    1.0551466   -4.4565857      1728000    8358.6492       209150         3308 
41840000   0.97189274   -4.5222465      1728000    8360.6726       209200         3310 
41850000   0.96001575   -4.3987457      1728000    8362.7215       209250         3311 
41860000    0.9862783   -4.4362155      1728000    8364.7753       209300         3312 
41870000    1.0396071   -4.4415013      1728000    8366.7971       209350         3312 
41880000   0.97173212   -4.3264248      1728000    8368.8489       209400         3312 
41890000    1.0919722   -4.5021671      1728000    8370.9126       209450         3312 
41900000   0.96882636   -4.3914663      1728000    8372.9598       209500         3313 
41910000    1.0615514    -4.306342      1728000    8374.9809       209550         3313 
41920000    1.0329502   -4.3843813      1728000    8376.9982       209600         3313 
41930000   0.94520546   -4.3091729      1728000    8378.9903       209650         3313 
41940000    1.0292812   -4.4888871      1728000    8381.0488       209700         3313 
41950000   0.98664742   -4.3639191      1728000    8383.0789       209750         3313 
41960000     1.039537   -4.2988779      1728000    8385.0838       209800         3313 
41970000   0.92869836    -4.370625      1728000    8387.1094       209850         3313 
41980000    1.0751654   -4.4998393      1728000    8389.1255       209900         3313 
41990000    0.9979029   -4.2941756      1728000    8391.1086       209950         3314 
42000000   0.98150832   -4.3865251      1728000    8393.1218       210000         3314 
42010000   0.95351349   -4.3380705      1728000    8395.1504       210050         3314 
42020000   0.87153103   -4.3502546      1728000    8397.1179       210100         3314 
42030000   0.97732958   -4.3299755      1728000    8399.0783       210150         3314 
42040000    1.1035545   -4.3113481      1728000    8401.0688       210200         3314 
42050000   0.98375186   -4.4395807      1728000    8403.0583       210250         3314 
42060000   0.95333069   -4.2140972      1728000    8405.0371       210300         3314 
42070000   0.98954946   -4.3836025      1728000    8407.0815       210350         3314 
42080000   0.98080472   -4.2037905      1728000    8409.0794       210400         3314 
42090000    1.0484569   -4.3497226      1728000    8411.0955       210450         3314 
42100000   0.96310243   -4.3188369      1728000    8413.1153       210500         3315 
42110000   0.98015905    -4.455354      1728000    8415.0946       210550         3315 
42120000    0.9982431   -4.3445265      1728000    8417.0629       210600         3315 
42130000    1.0400157   -4.3161583      1728000    8419.0742       210650         3315 
42140000   0.97873615   -4.4531003      1728000    8421.0962       210700         3315 
42150000   0.95480003   -4.3427943      1728000    8423.1121       210750         3315 
42160000    1.0104354   -4.3899093      1728000    8425.1356       210800         3316 
42170000    1.0507591   -4.3476108      1728000    8427.1696       210850         3316 
42180000   0.95712548    -4.364907      1728000    8429.2184       210900         3316 
42190000    1.0155472   -4.3289394      1728000    8431.2848       210950         3316 
42200000    1.0228647   -4.2892713      1728000    8433.3131       211000         3316 
42210000   0.99440938   -4.3521186      1728000    8435.3486       211050         3316 
42220000   0.99989188    -4.468516      1728000    8437.3154       211100         3316 
42230000    1.0398288   -4.3727377      1728000    8439.3718       211150         3318 
42240000   0.99005288   -4.4780333      1728000      8441.43       211200         3318 
42250000    1.0051064   -4.4068493      1728000    8443.4844       211250         3318 
42260000     1.022423   -4.3505468      1728000    8445.5164       211300         3318 
42270000    0.9644964   -4.5156148      1728000     8447.535       211350         3318 
42280000    1.0019521   -4.3496162      1728000    8449.5358       211400         3318 
42290000    1.0113757   -4.4595793      1728000     8451.568       211450         3318 
42300000   0.97568322    -4.359721      1728000    8453.5823       211500         3319 
42310000   0.98460728   -4.4039627      1728000    8455.6198       211550         3320 
42320000   0.97176644   -4.2639601      1728000    8457.6578       211600         3320 
42330000    1.0367046   -4.4473744      1728000    8459.6983       211650         3320 
42340000   0.97440263   -4.2901141      1728000      8461.75       211700         3320 
42350000   0.98280213   -4.2945078      1728000    8463.7865       211750         3320 
42360000    1.0362362   -4.4502658      1728000    8465.7805       211800         3321 
42370000    0.9721554   -4.4516395      1728000    8467.8011       211850         3321 
42380000   0.98085845   -4.3324249      1728000    8469.7657       211900         3321 
42390000    1.0135277   -4.3378737      1728000    8471.7677       211950         3321 
42400000   0.99638734   -4.3412021      1728000    8473.8181       212000         3321 
42410000    1.0165906   -4.2852027      1728000    8475.8509       212050         3321 
42420000    1.0468592   -4.3701419      1728000    8477.8594       212100         3322 
42430000    1.0344131   -4.3977158      1728000    8479.8805       212150         3322 
42440000   0.96275734   -4.2748871      1728000    8481.9033       212200         3323 
42450000    1.0212259   -4.3385128      1728000    8483.9034       212250         3324 
42460000    1.0265222   -4.3045353      1728000    8485.9242       212300         3324 
42470000    0.9289032   -4.4267143      1728000     8487.928       212350         3324 
42480000   0.99924159   -4.4769501      1728000    8489.9773       212400         3324 
42490000    1.0413785   -4.3969765      1728000    8492.0583       212450         3326 
42500000    1.0109044    -4.380977      1728000    8494.0595       212500         3327 
42510000   0.99916044    -4.313475      1728000     8496.085       212550         3327 
42520000   0.96249703    -4.208583      1728000    8498.1359       212600         3328 
42530000   0.96974281   -4.3032816      1728000    8500.1437       212650         3328 
42540000   0.94301276   -4.3521546      1728000    8502.1133       212700         3328 
42550000    0.9521144   -4.3705635      1728000    8504.0842       212750         3328 
42560000    1.0114459   -4.2809784      1728000     8506.051       212800         3328 
42570000   0.93545494   -4.3568816      1728000    8508.0804       212850         3329 
42580000   0.95608981    -4.434324      1728000     8510.109       212900         3329 
42590000   0.99552726    -4.179256      1728000    8512.1051       212950         3331 
42600000    1.0242182   -4.3317612      1728000    8514.1215       213000         3332 
42610000   0.99200467   -4.3415239      1728000     8516.207       213050         3332 
42620000   0.95322562   -4.3467708      1728000    8518.2256       213100         3332 
42630000   0.98107938   -4.3684327      1728000    8520.2616       213150         3332 
42640000    1.0638532    -4.286812      1728000     8522.298       213200         3334 
42650000    0.9397184   -4.3518485      1728000    8524.3211       213250         3336 
42660000    1.0053885   -4.3826411      1728000    8526.3541       213300         3338 
42670000    1.0008789   -4.2481738      1728000    8528.3698       213350         3338 
42680000   0.98037068   -4.3500307      1728000    8530.4278       213400         3338 
42690000    1.0071257   -4.3688679      1728000    8532.4408       213450         3340 
42700000    1.0750285   -4.3260941      1728000    8534.4999       213500         3341 
42710000   0.96251917   -4.3914853      1728000    8536.4915       213550         3343 
42720000    1.0252292   -4.3544533      1728000    8538.5407       213600         3345 
42730000   0.98942666    -4.343545      1728000    8540.5465       213650         3345 
42740000    1.0135143   -4.3977454      1728000    8542.5398       213700         3345 
42750000    1.0173048   -4.3097434      1728000    8544.5261       213750         3345 
42760000   0.96738569   -4.3807719      1728000    8546.5704       213800         3345 
42770000    1.0742102   -4.2782207      1728000    8548.5873       213850         3347 
42780000   0.95269401   -4.4161477      1728000    8550.6117       213900         3347 
42790000    1.0089355   -4.4623124      1728000    8552.6397       213950         3348 
42800000   0.99265998    -4.380188      1728000     8554.672       214000         3349 
42810000   0.96992945   -4.4512715      1728000    8556.7312       214050         3351 
42820000   0.94700772   -4.4645473      1728000    8558.8046       214100         3351 
42830000    1.0077088   -4.3865092      1728000    8560.8595       214150         3352 
42840000   0.95718486   -4.3398681      1728000    8562.9306       214200         3352 
42850000    1.0364229   -4.3482403      1728000    8564.9637       214250         3353 
42860000    1.0069992   -4.3651454      1728000    8566.9487       214300         3354 
42870000   0.96057391   -4.3249312      1728000    8568.9536       214350         3354 
42880000    1.0447807   -4.4101729      1728000    8570.9714       214400         3354 
42890000    1.0059355    -4.374242      1728000    8573.0085       214450         3354 
42900000     1.002018   -4.3838436      1728000    8575.0953       214500         3355 
42910000   0.96633056   -4.4035435      1728000    8577.1188       214550         3356 
42920000    1.0217328   -4.3933604      1728000    8579.1197       214600         3356 
42930000   0.97370401   -4.3132714      1728000    8581.1658       214650         3357 
42940000   0.96831927   -4.4386093      1728000    8583.1727       214700         3357 
42950000    1.0735003   -4.4075114      1728000    8585.2589       214750         3357 
42960000    1.0199038   -4.2969855      1728000    8587.3929       214800         3358 
42970000    0.9927769   -4.3840794      1728000    8589.4784       214850         3358 
42980000   0.99852802   -4.3345897      1728000     8591.666       214900         3358 
42990000    1.0087514   -4.1882154      1728000    8593.6819       214950         3359 
43000000    1.0309828   -4.3154502      1728000     8595.676       215000         3360 
43010000    1.0317932   -4.1739273      1728000    8597.7152       215050         3361 
43020000    1.0165878   -4.2293757      1728000    8599.7306       215100         3362 
43030000   0.99984948   -4.4109189      1728000    8601.7692       215150         3364 
43040000    1.0443713   -4.4122407      1728000    8603.7931       215200         3364 
43050000   0.98916146   -4.3667968      1728000    8605.7627       215250         3364 
43060000   0.91033631   -4.0926067      1728000    8607.7976       215300         3365 
43070000    1.0329471   -4.2078613      1728000    8609.7886       215350         3365 
43080000    1.0612143   -4.2129712      1728000    8611.8567       215400         3366 
43090000   0.97376891   -4.3453656      1728000     8613.867       215450         3367 
43100000    1.0187754   -4.3902236      1728000    8615.9277       215500         3369 
43110000   0.96099205   -4.2912087      1728000    8617.9289       215550         3369 
43120000    1.0211009   -4.3642387      1728000    8619.9638       215600         3369 
43130000    1.0328488   -4.1755448      1728000    8622.0057       215650         3370 
43140000   0.96880724   -4.1868942      1728000    8624.0207       215700         3370 
43150000    1.0101761   -4.4364208      1728000    8626.0456       215750         3371 
43160000   0.95377125    -4.280469      1728000    8628.0482       215800         3371 
43170000    0.9622994   -4.2596931      1728000    8630.1026       215850         3371 
43180000   0.98725614   -4.1994363      1728000    8632.1366       215900         3373 
43190000   0.98075109   -4.3271136      1728000    8634.1428       215950         3373 
43200000   0.98542291   -4.3725036      1728000     8636.175       216000         3373 
43210000   0.96475897   -4.2277581      1728000    8638.1842       216050         3373 
43220000    1.0189108   -4.2655281      1728000    8640.2056       216100         3373 
43230000    1.0076924   -4.3008229      1728000    8642.2058       216150         3373 
43240000    1.0513612   -4.2759121      1728000    8644.1578       216200         3374 
43250000    1.0161427   -4.2423116      1728000    8646.1518       216250         3375 
43260000     1.014826   -4.3198568      1728000    8648.1558       216300         3376 
43270000    1.0449686   -4.3896867      1728000    8650.1852       216350         3377 
43280000    1.0129111   -4.3020155      1728000    8652.1802       216400         3377 
43290000    1.0087382   -4.4274625      1728000    8654.2096       216450         3377 
43300000   0.99816298   -4.2727382      1728000    8656.2327       216500         3378 
43310000    1.0075514   -4.3215699      1728000    8658.2226       216550         3380 
43320000    1.0285523   -4.4329715      1728000    8660.1924       216600         3380 
43330000   0.98190618   -4.4185451      1728000    8662.2513       216650         3380 
43340000    1.0078828   -4.3119002      1728000    8664.2409       216700         3381 
43350000    0.9820473   -4.2422625      1728000    8666.2509       216750         3381 
43360000   0.99409875   -4.3036443      1728000    8668.2178       216800         3382 
43370000    1.0280771   -4.3058743      1728000    8670.2171       216850         3384 
43380000    0.9867762    -4.358293      1728000    8672.1923       216900         3384 
43390000    0.9855226    -4.357619      1728000    8674.1578       216950         3385 
43400000   0.97756044   -4.3873547      1728000      8676.15       217000         3385 
43410000   0.97995644   -4.3694513      1728000     8678.186       217050         3385 
43420000   0.97502133   -4.4179352      1728000     8680.221       217100         3386 
43430000   0.97281586   -4.2595115      1728000    8682.2222       217150         3386 
43440000     1.002699   -4.3533684      1728000    8684.2598       217200         3387 
43450000    1.0007376    -4.411542      1728000     8686.256       217250         3387 
43460000    1.0007895   -4.2164977      1728000    8688.2663       217300         3387 
43470000   0.97124621   -4.3112693      1728000    8690.2461       217350         3387 
43480000   0.98420662   -4.3948801      1728000    8692.2902       217400         3387 
43490000    1.0561982   -4.2695164      1728000    8694.3351       217450         3388 
43500000   0.98503731   -4.3092717      1728000    8696.3928       217500         3388 
43510000    1.0025523   -4.2774322      1728000    8698.3889       217550         3388 
43520000     1.022514   -4.3997399      1728000     8700.398       217600         3388 
43530000    1.0552682   -4.1429743      1728000    8702.3968       217650         3389 
43540000   0.99758429   -4.3186099      1728000     8704.455       217700         3389 
43550000    1.0275928   -4.4505773      1728000    8706.5082       217750         3389 
43560000   0.99526616   -4.3597207      1728000    8708.5042       217800         3390 
43570000   0.98724596   -4.2814442      1728000    8710.5078       217850         3390 
43580000   0.99778899   -4.3845758      1728000    8712.5258       217900         3390 
43590000    1.0902784   -4.2848239      1728000    8714.5405       217950         3390 
43600000   0.98345503   -4.3698904      1728000    8716.5773       218000         3390 
43610000   0.98865874   -4.3548011      1728000    8718.5828       218050         3390 
43620000    1.0015469   -4.3993804      1728000    8720.5819       218100         3390 
43630000   0.97512127   -4.3405222      1728000    8722.5153       218150         3390 
43640000    1.0052725   -4.3271879      1728000    8724.4859       218200         3390 
43650000   0.94355049   -4.2554692      1728000    8726.5211       218250         3390 
43660000   0.97480961   -4.3178743      1728000     8728.511       218300         3390 
43670000    1.0078472   -4.3059707      1728000    8730.5066       218350         3390 
43680000   0.97457755   -4.3990974      1728000    8732.5592       218400         3390 
43690000   0.97375638    -4.310111      1728000    8734.6222       218450         3390 
43700000   0.94845567   -4.3943412      1728000    8736.6923       218500         3390 
43710000     1.009818   -4.3500898      1728000    8738.7603       218550         3390 
43720000   0.96247877   -4.3710714      1728000    8740.8073       218600         3390 
43730000     1.020601   -4.3852465      1728000    8742.8326       218650         3390 
43740000   0.95340545   -4.3355371      1728000    8744.8449       218700         3390 
43750000    1.0384034   -4.4034623      1728000    8746.8547       218750         3391 
43760000    1.0019815   -4.2152276      1728000    8748.8858       218800         3393 
43770000    1.0061264   -4.4147657      1728000    8750.9405       218850         3394 
43780000     1.001924   -4.4147487      1728000    8752.9451       218900         3394 
43790000    1.0061405   -4.4148238      1728000    8754.9753       218950         3394 
43800000    1.0631808   -4.4626745      1728000     8757.006       219000         3395 
43810000    1.0097313    -4.396163      1728000      8759.05       219050         3395 
43820000   0.98977713   -4.2770039      1728000    8761.1132       219100         3395 
43830000    1.0180831   -4.4306871      1728000    8763.1244       219150         3395 
43840000   0.94883162   -4.2873897      1728000    8765.1094       219200         3395 
43850000   0.99036271   -4.2943979      1728000     8767.142       219250         3395 
43860000   0.99388471   -4.4896233      1728000    8769.1348       219300         3395 
43870000    1.0122195   -4.3985964      1728000    8771.1514       219350         3395 
43880000   0.99971878    -4.377562      1728000    8773.1841       219400         3396 
43890000   0.99752892   -4.4085258      1728000    8775.1779       219450         3396 
43900000   0.97830126   -4.2716979      1728000    8777.2141       219500         3396 
43910000    1.0476472    -4.376189      1728000    8779.2303       219550         3396 
43920000   0.97639272   -4.5332153      1728000    8781.2399       219600         3396 
43930000     1.003613   -4.4076705      1728000    8783.2732       219650         3396 
43940000    0.9816869   -4.2261284      1728000    8785.3132       219700         3396 
43950000   0.93234369   -4.4626727      1728000    8787.3196       219750         3396 
43960000    1.0384916   -4.3189885      1728000    8789.3439       219800         3396 
43970000   0.99401667   -4.3837707      1728000    8791.3974       219850         3396 
43980000    1.0019005   -4.5496147      1728000    8793.4371       219900         3396 
43990000    1.0024188   -4.4420966      1728000    8795.3989       219950         3397 
44000000    1.0084333   -4.4436535      1728000    8797.4717       220000         3397 
44010000     1.007814   -4.4604388      1728000    8799.5319       220050         3397 
44020000    1.0264289   -4.2779211      1728000    8801.5472       220100         3397 
44030000   0.99713459   -4.3089966      1728000    8803.5181       220150         3397 
44040000    1.0137799   -4.4820245      1728000     8805.558       220200         3397 
44050000    1.0073733   -4.3937143      1728000    8807.5352       220250         3397 
44060000     1.024387   -4.4011583      1728000    8809.5426       220300         3397 
44070000   0.98836705   -4.3510734      1728000     8811.552       220350         3397 
44080000   0.96218119   -4.2915857      1728000    8813.5795       220400         3397 
44090000    1.0844736   -4.4186971      1728000    8815.6301       220450         3397 
44100000   0.94972549   -4.4256178      1728000    8817.7114       220500         3398 
44110000   0.99968609   -4.4261847      1728000    8819.7587       220550         3398 
44120000   0.94497125   -4.5170409      1728000    8821.8379       220600         3398 
44130000     1.034993    -4.365919      1728000    8823.8819       220650         3399 
44140000     1.027452   -4.3168196      1728000    8825.8983       220700         3399 
44150000   0.92250963   -4.3377337      1728000    8827.8944       220750         3399 
44160000    1.0045729    -4.401857      1728000    8829.9177       220800         3401 
44170000   0.99591026    -4.343792      1728000    8831.9032       220850         3401 
44180000    1.0165156   -4.2722004      1728000    8834.0088       220900         3401 
44190000    1.0377131   -4.2899651      1728000    8836.1225       220950         3402 
44200000    1.0007085   -4.2418762      1728000    8838.2471       221000         3402 
44210000    1.0623787   -4.2229648      1728000    8840.2443       221050         3403 
44220000    1.0382615   -4.4220931      1728000    8842.2388       221100         3403 
44230000   0.98630196   -4.3554052      1728000    8844.2345       221150         3403 
44240000   0.98611924   -4.2633831      1728000    8846.2673       221200         3403 
44250000   0.99245867   -4.2706362      1728000    8848.2612       221250         3405 
44260000   0.98992462   -4.2534744      1728000     8850.271       221300         3406 
44270000     1.077158   -4.2884612      1728000    8852.2958       221350         3407 
44280000    1.0109237   -4.2973867      1728000    8854.3132       221400         3407 
44290000    1.0120658   -4.3881778      1728000    8856.3472       221450         3407 
44300000   0.98277774   -4.2582281      1728000    8858.3853       221500         3409 
44310000   0.97143984   -4.4049826      1728000     8860.438       221550         3409 
44320000   0.99129135   -4.2193932      1728000    8862.4157       221600         3409 
44330000    1.0157811   -4.1672206      1728000    8864.3814       221650         3410 
44340000    1.0156999   -4.2572777      1728000    8866.3613       221700         3411 
44350000    1.0033175   -4.3415626      1728000    8868.3512       221750         3412 
44360000    1.0621336   -4.3210402      1728000    8870.3543       221800         3412 
44370000   0.96115015   -4.1910923      1728000     8872.371       221850         3412 
44380000    1.0091017   -4.4168174      1728000    8874.3842       221900         3413 
44390000   0.96260537   -4.4815766      1728000     8876.384       221950         3414 
44400000    1.0192827    -4.276488      1728000     8878.336       222000         3415 
44410000    1.0368926   -4.3309088      1728000    8880.3525       222050         3416 
44420000   0.92747908   -4.1977742      1728000    8882.3484       222100         3417 
44430000   0.97314431   -4.2915451      1728000    8884.4248       222150         3417 
44440000    1.0275856   -4.3534288      1728000    8886.4554       222200         3418 
44450000   0.98438325   -4.3692685      1728000    8888.4788       222250         3418 
44460000   0.95615787    -4.284973      1728000    8890.5246       222300         3418 
44470000   0.99745375   -4.3010642      1728000    8892.5338       222350         3419 
44480000    1.0137839   -4.3736633      1728000    8894.5739       222400         3420 
44490000   0.98091699   -4.4022246      1728000    8896.5871       222450         3420 
44500000    1.0656571   -4.3788115      1728000    8898.6111       222500         3420 
44510000   0.97182135   -4.4210505      1728000    8900.6335       222550         3420 
44520000    1.0126752   -4.3455902      1728000    8902.6201       222600         3420 
44530000   0.94518264    -4.367998      1728000    8904.6559       222650         3420 
44540000    1.0279509   -4.3008583      1728000    8906.6781       222700         3420 
44550000    1.0286514   -4.4089892      1728000    8908.7101       222750         3420 
44560000    1.0267819   -4.3680972      1728000    8910.7348       222800         3420 
44570000    1.0863272   -4.3974974      1728000    8912.7993       222850         3420 
44580000     1.080967   -4.3416834      1728000     8914.821       222900         3421 
44590000   0.98524049   -4.2892413      1728000    8916.7917       222950         3421 
44600000    1.0254077   -4.2793402      1728000     8918.778       223000         3421 
44610000    1.0081781   -4.4085067      1728000    8920.8228       223050         3423 
44620000    1.0392118   -4.3298716      1728000    8922.8487       223100         3423 
44630000     1.048324   -4.3685848      1728000    8924.8504       223150         3423 
44640000    1.0704805   -4.4535681      1728000    8926.8521       223200         3423 
44650000    1.0379416   -4.4297867      1728000    8928.8408       223250         3423 
44660000    1.1267802   -4.2909463      1728000    8930.8822       223300         3424 
44670000   0.97201131   -4.4112937      1728000    8932.9439       223350         3424 
44680000    1.0416079   -4.2976828      1728000    8934.9402       223400         3424 
44690000   0.99113833   -4.2851461      1728000    8936.9744       223450         3424 
44700000    1.0153034   -4.2527383      1728000    8938.9604       223500         3424 
44710000   0.99648201   -4.3518857      1728000    8940.9389       223550         3424 
44720000    1.0378064   -4.2603088      1728000    8942.9081       223600         3424 
44730000   0.99090453   -4.3741927      1728000    8944.9444       223650         3425 
44740000   0.95494556   -4.3416896      1728000    8946.9597       223700         3425 
44750000   0.97121218   -4.4234494      1728000    8948.9607       223750         3425 
44760000    1.0671477    -4.413317      1728000    8950.8971       223800         3426 
44770000    1.0449394   -4.3546964      1728000    8952.9371       223850         3426 
44780000   0.94679416   -4.4552909      1728000    8954.9604       223900         3426 
44790000    1.0445298   -4.4018558      1728000    8957.0245       223950         3426 
44800000   0.99630963   -4.4171734      1728000    8959.0802       224000         3426 
44810000    1.0288726   -4.3892295      1728000       8961.1       224050         3426 
44820000    1.0423157   -4.4367371      1728000    8963.1135       224100         3426 
44830000   0.95705409   -4.3827569      1728000    8965.1306       224150         3426 
44840000    1.0040721   -4.3486866      1728000    8967.1499       224200         3426 
44850000    1.0028148   -4.4049171      1728000    8969.1737       224250         3426 
44860000    1.0459985   -4.3184815      1728000    8971.1735       224300         3426 
44870000   0.99507887   -4.4636073      1728000    8973.1934       224350         3426 
44880000   0.97147875   -4.4454998      1728000    8975.2392       224400         3426 
44890000   0.98093316   -4.5363952      1728000    8977.2814       224450         3427 
44900000   0.95941551   -4.3418906      1728000     8979.295       224500         3427 
44910000    1.0721082   -4.2885317      1728000     8981.331       224550         3427 
44920000   0.98247973   -4.4402459      1728000     8983.387       224600         3427 
44930000    1.0302003   -4.4752245      1728000     8985.437       224650         3427 
44940000   0.94452562   -4.4027397      1728000    8987.4506       224700         3427 
44950000   0.95913441   -4.3831538      1728000    8989.4422       224750         3427 
44960000   0.97301039   -4.4710986      1728000    8991.4592       224800         3427 
44970000    1.0530336   -4.4564732      1728000    8993.4373       224850         3427 
44980000    1.0257955   -4.4517192      1728000    8995.4277       224900         3427 
44990000   0.96414742     -4.46801      1728000    8997.4324       224950         3427 
45000000   0.98185228   -4.4482804      1728000    8999.5219       225000         3427 
45010000    1.0763977   -4.2786757      1728000    9001.6094       225050         3427 
45020000    1.0594267   -4.4263126      1728000    9003.6593       225100         3427 
45030000    1.0034988   -4.3983769      1728000    9005.6977       225150         3427 
45040000    1.0464803   -4.4556123      1728000    9007.6649       225200         3427 
45050000   0.99892039   -4.3307306      1728000    9009.6232       225250         3427 
45060000    1.0210505   -4.3521328      1728000    9011.6793       225300         3427 
45070000   0.99218817   -4.4526691      1728000    9013.6795       225350         3427 
45080000   0.98080149   -4.3921222      1728000    9015.6413       225400         3427 
45090000   0.97407482   -4.3735624      1728000    9017.6821       225450         3427 
45100000   0.96826222   -4.3018017      1728000    9019.7394       225500         3427 
45110000    1.0684366    -4.444408      1728000    9021.7972       225550         3428 
45120000   0.97843037   -4.3341377      1728000    9023.8275       225600         3429 
45130000    1.0709916     -4.30226      1728000    9025.8453       225650         3430 
45140000    1.0429687   -4.3241817      1728000    9027.8632       225700         3431 
45150000    1.0392325   -4.3769054      1728000    9029.8822       225750         3431 
45160000   0.97599463   -4.3830964      1728000    9031.9295       225800         3431 
45170000    1.0149617   -4.3344301      1728000    9033.9604       225850         3431 
45180000   0.99417052   -4.3337727      1728000    9036.0162       225900         3431 
45190000    1.0410608   -4.4075025      1728000    9038.0235       225950         3431 
45200000    1.0146842   -4.3807116      1728000    9040.0852       226000         3431 
45210000   0.98880281   -4.2528543      1728000     9042.095       226050         3431 
45220000    1.0211894   -4.4929261      1728000    9044.0792       226100         3431 
45230000    1.0229588   -4.3487624      1728000    9046.0701       226150         3431 
45240000    1.0349654   -4.4348827      1728000    9048.0414       226200         3431 
45250000     1.015867   -4.3608863      1728000    9050.0748       226250         3431 
45260000    1.0468258    -4.293817      1728000    9052.0863       226300         3431 
45270000   0.95526879   -4.3803524      1728000    9054.0715       226350         3431 
45280000   0.98626477   -4.2416674      1728000    9056.0932       226400         3431 
45290000    1.0215825   -4.2748329      1728000    9058.0915       226450         3431 
45300000   0.95901214   -4.3688064      1728000    9060.1172       226500         3433 
45310000    0.9920913   -4.4016702      1728000    9062.1298       226550         3433 
45320000   0.97590509   -4.3514296      1728000    9064.1273       226600         3433 
45330000   0.99947581   -4.1882145      1728000    9066.1708       226650         3433 
45340000   0.98384399   -4.4524243      1728000    9068.1873       226700         3436 
45350000    1.0588453    -4.360554      1728000    9070.1904       226750         3438 
45360000   0.97393601   -4.4009427      1728000    9072.2186       226800         3439 
45370000   0.98688551    -4.266127      1728000    9074.2478       226850         3439 
45380000    1.0044243   -4.2119262      1728000    9076.2935       226900         3439 
45390000   0.99843218   -4.2971343      1728000    9078.2782       226950         3439 
45400000    1.0127319   -4.3072057      1728000    9080.3135       227000         3440 
45410000   0.96447564   -4.3621464      1728000    9082.3133       227050         3440 
45420000   0.92897798   -4.2245568      1728000    9084.3111       227100         3442 
45430000    1.0010789   -4.3257821      1728000    9086.3033       227150         3442 
45440000   0.98250365   -4.2779785      1728000    9088.2872       227200         3442 
45450000    1.0544223   -4.3026738      1728000    9090.3367       227250         3442 
45460000     1.013431   -4.3009474      1728000    9092.3284       227300         3443 
45470000    1.0249351   -4.2577398      1728000    9094.3195       227350         3445 
45480000    1.0640824   -4.3452093      1728000    9096.3875       227400         3449 
45490000   0.97106398   -4.2583727      1728000    9098.3542       227450         3449 
45500000    1.0228989   -4.4407809      1728000    9100.3418       227500         3449 
45510000   0.96138849   -4.4006153      1728000    9102.3623       227550         3449 
45520000   0.96557245    -4.323891      1728000    9104.3803       227600         3450 
45530000    1.0120365   -4.2453401      1728000    9106.3649       227650         3451 
45540000   0.97281485   -4.3182007      1728000     9108.336       227700         3451 
45550000   0.99790108   -4.2855457      1728000    9110.3386       227750         3453 
45560000   0.95081684   -4.2935104      1728000    9112.3222       227800         3453 
45570000   0.99759531   -4.3005291      1728000    9114.3305       227850         3454 
45580000     1.018844   -4.2988405      1728000    9116.3653       227900         3454 
45590000    1.0034739   -4.3693815      1728000     9118.362       227950         3454 
45600000    1.0505803   -4.2485472      1728000    9120.4164       228000         3454 
45610000   0.97894629   -4.1978134      1728000    9122.4293       228050         3455 
45620000   0.95024975   -4.1989618      1728000    9124.3848       228100         3455 
45630000    1.0331198   -4.1804129      1728000    9126.4065       228150         3455 
45640000   0.99535529   -4.3179879      1728000    9128.4121       228200         3457 
45650000    1.0240821   -4.2531474      1728000    9130.4114       228250         3457 
45660000    1.0335281   -4.2170538      1728000    9132.3972       228300         3457 
45670000   0.99548588   -4.3242432      1728000    9134.4203       228350         3461 
45680000   0.94929922   -4.3293666      1728000    9136.4385       228400         3461 
45690000    1.0355137   -4.3690963      1728000    9138.4988       228450         3461 
45700000    1.0530064   -4.2718896      1728000    9140.5127       228500         3461 
45710000   0.99336815    -4.235535      1728000    9142.5003       228550         3462 
45720000   0.94546161   -4.3260524      1728000    9144.5053       228600         3463 
45730000    1.0207096   -4.2560131      1728000    9146.4999       228650         3464 
45740000   0.99732138   -4.4424501      1728000    9148.5198       228700         3464 
45750000    0.9916057   -4.3130357      1728000    9150.5605       228750         3464 
45760000    1.0192861   -4.3604773      1728000    9152.5323       228800         3465 
45770000    1.0362053   -4.3823502      1728000    9154.5665       228850         3466 
45780000   0.97700823   -4.3002879      1728000    9156.5536       228900         3466 
45790000   0.96660156   -4.2588703      1728000    9158.5306       228950         3467 
45800000   0.99531094   -4.2498036      1728000    9160.5234       229000         3469 
45810000    1.1146477   -4.2563002      1728000    9162.4984       229050         3469 
45820000   0.91862277   -4.3702321      1728000    9164.5095       229100         3471 
45830000   0.97954726    -4.282706      1728000    9166.4804       229150         3471 
45840000   0.98592218   -4.3201825      1728000    9168.4766       229200         3471 
45850000    1.0310188   -4.3756985      1728000    9170.5154       229250         3471 
45860000     1.030887   -4.2453748      1728000    9172.5444       229300         3471 
45870000     1.039345   -4.1270725      1728000    9174.5362       229350         3471 
45880000    1.0337504   -4.4081617      1728000    9176.5206       229400         3474 
45890000   0.95436313   -4.3049566      1728000    9178.5197       229450         3477 
45900000    1.0001858   -4.2954099      1728000    9180.5419       229500         3478 
45910000    1.0449837   -4.2965626      1728000    9182.4928       229550         3478 
45920000   0.98125658   -4.2695625      1728000    9184.4285       229600         3479 
45930000    1.0083696   -4.3590421      1728000    9186.3986       229650         3479 
45940000    1.0808185   -4.3795547      1728000    9188.4331       229700         3479 
45950000    1.0384516   -4.4230574      1728000    9190.5715       229750         3479 
45960000   0.99154772   -4.2995196      1728000     9192.756       229800         3480 
45970000    1.0238834   -4.4330642      1728000    9194.6337       229850         3481 
45980000   0.96714628   -4.4373222      1728000    9196.5431       229900         3481 
45990000   0.99809482   -4.4272775      1728000    9198.4874       229950         3481 
46000000    1.0121004   -4.2222322      1728000    9200.3825       230000         3482 
46010000    1.0189137   -4.3035055      1728000    9202.2684       230050         3482 
46020000   0.97679112   -4.3655049      1728000    9204.1534       230100         3482 
46030000    1.0765485   -4.1906803      1728000    9206.0274       230150         3482 
46040000    1.0249776   -4.3139251      1728000    9207.9369       230200         3482 
46050000    1.0563197   -4.3488344      1728000    9209.9274       230250         3482 
46060000   0.97505114   -4.3309861      1728000    9211.9699       230300         3483 
46070000   0.91845676   -4.3267704      1728000    9214.0336       230350         3484 
46080000    1.0875028   -4.3438278      1728000    9216.0165       230400         3484 
46090000   0.98955043   -4.3477802      1728000    9217.9971       230450         3484 
46100000   0.98716346    -4.276196      1728000    9219.9975       230500         3484 
46110000    1.0145356   -4.3736451      1728000     9222.042       230550         3484 
46120000   0.97333615   -4.3735582      1728000    9224.0571       230600         3484 
46130000    1.0131555   -4.3365001      1728000     9226.061       230650         3485 
46140000    1.0187321   -4.4267909      1728000     9228.069       230700         3486 
46150000   0.99918603   -4.3248837      1728000    9230.1244       230750         3487 
46160000   0.99658807   -4.3396225      1728000     9232.192       230800         3488 
46170000   0.89375739   -4.3772366      1728000    9234.1963       230850         3488 
46180000    1.0309682   -4.3288671      1728000    9236.2141       230900         3488 
46190000   0.94380734   -4.4337679      1728000    9238.2219       230950         3491 
46200000   0.92725396   -4.2472633      1728000     9240.261       231000         3491 
46210000    1.0603934   -4.2934458      1728000    9242.2408       231050         3491 
46220000    1.0210702   -4.2780447      1728000    9244.2515       231100         3492 
46230000   0.95402212   -4.3318515      1728000    9246.2863       231150         3495 
46240000   0.97892884   -4.2504002      1728000    9248.2629       231200         3495 
46250000   0.95698848   -4.2404943      1728000    9250.2792       231250         3496 
46260000    1.0561864   -4.1741351      1728000    9252.2905       231300         3497 
46270000    1.0157753    -4.278392      1728000    9254.2858       231350         3497 
46280000    1.0097916   -4.3093756      1728000    9256.2974       231400         3498 
46290000    1.0212026   -4.2570569      1728000    9258.4386       231450         3498 
46300000    1.0110181   -4.4194421      1728000    9260.4735       231500         3500 
46310000    1.0204928   -4.3436995      1728000    9262.4755       231550         3500 
46320000    1.0004689   -4.2469777      1728000    9264.4695       231600         3502 
46330000      1.00375    -4.162339      1728000    9266.5504       231650         3502 
46340000    1.0167537   -4.2780751      1728000    9268.6145       231700         3502 
46350000   0.96269642   -4.2171128      1728000    9270.6268       231750         3503 
46360000    1.0574741   -4.1991299      1728000    9272.6384       231800         3503 
46370000    1.0493811   -4.2168052      1728000    9274.6614       231850         3503 
46380000    1.0109271   -4.2373256      1728000    9276.6888       231900         3503 
46390000   0.95343208   -4.3007897      1728000    9278.6788       231950         3505 
46400000    1.0299325   -4.2914105      1728000    9280.7503       232000         3507 
46410000     1.014979   -4.2448143      1728000    9282.7903       232050         3508 
46420000    1.0356702   -4.1959726      1728000    9284.9303       232100         3509 
46430000   0.95522871    -4.269623      1728000    9287.0178       232150         3510 
46440000   0.98042279   -4.3586694      1728000    9289.1569       232200         3511 
46450000   0.97818242   -4.1263426      1728000    9291.1587       232250         3511 
46460000    1.0141012   -4.1960672      1728000    9293.1461       232300         3513 
46470000    1.0087035   -4.2735612      1728000    9295.0876       232350         3513 
46480000    1.0168795     -4.27143      1728000    9297.0813       232400         3513 
46490000    1.0105291   -4.2183538      1728000      9299.09       232450         3515 
46500000    1.0884177   -4.1755615      1728000    9301.0946       232500         3515 
46510000   0.99046086   -4.3055518      1728000    9303.1116       232550         3516 
46520000    1.0132271   -4.1777607      1728000    9305.1047       232600         3517 
46530000    1.0573253   -4.2661333      1728000    9307.1116       232650         3518 
46540000    1.0472866   -4.2961933      1728000    9309.1042       232700         3519 
46550000   0.97295099   -4.2373533      1728000    9311.1251       232750         3519 
46560000      1.00517   -4.0849781      1728000    9313.1628       232800         3520 
46570000   0.95643187    -4.362435      1728000    9315.1525       232850         3521 
46580000   0.99762702   -4.2163563      1728000    9317.1668       232900         3524 
46590000   0.98773631   -4.1513492      1728000    9319.1658       232950         3526 
46600000   0.98189266   -4.0946773      1728000    9321.1715       233000         3528 
46610000   0.94864924    -4.221904      1728000    9323.2081       233050         3528 
46620000    0.9679199   -4.2293308      1728000    9325.1947       233100         3530 
46630000    1.0344541   -4.3258334      1728000    9327.1828       233150         3532 
46640000   0.98118574   -4.2336563      1728000    9329.1259       233200         3534 
46650000    1.0117116   -4.2764327      1728000    9331.0875       233250         3534 
46660000    1.0348785   -4.3104874      1728000    9333.0665       233300         3534 
46670000    1.0362373   -4.2772468      1728000    9335.0668       233350         3534 
46680000   0.97553414   -4.3750249      1728000     9337.036       233400         3535 
46690000   0.99815295   -4.4090829      1728000    9339.1045       233450         3536 
46700000    1.0573283   -4.3023046      1728000    9341.1533       233500         3536 
46710000    1.0185216   -4.3383773      1728000    9343.1339       233550         3537 
46720000     1.019834   -4.2658259      1728000    9345.1401       233600         3538 
46730000   0.98192693   -4.3558499      1728000      9347.13       233650         3539 
46740000   0.98643902   -4.2858178      1728000    9349.1755       233700         3539 
46750000    1.0243163   -4.3582528      1728000    9351.2222       233750         3539 
46760000   0.99302476   -4.2916398      1728000    9353.2558       233800         3540 
46770000    1.0111383   -4.2801438      1728000    9355.2934       233850         3542 
46780000    1.0469487   -4.2947889      1728000    9357.3686       233900         3542 
46790000   0.92353828   -4.3474845      1728000     9359.378       233950         3542 
46800000    1.0231847   -4.3682784      1728000    9361.3814       234000         3542 
46810000   0.97760796   -4.2685423      1728000    9363.3874       234050         3542 
46820000   0.93767271   -4.2406915      1728000    9365.4185       234100         3542 
46830000    1.0320042   -4.3256694      1728000    9367.3528       234150         3542 
46840000   0.98541593   -4.3135974      1728000    9369.3549       234200         3542 
46850000    1.0452831   -4.3485682      1728000     9371.402       234250         3542 
46860000    1.0174476   -4.4094227      1728000    9373.4156       234300         3543 
46870000    1.0344428   -4.2401676      1728000    9375.4265       234350         3543 
46880000    1.0094322   -4.2203121      1728000    9377.4427       234400         3544 
46890000    1.0137814   -4.3318447      1728000    9379.4661       234450         3546 
46900000    1.0160423   -4.4141115      1728000    9381.5104       234500         3547 
46910000    1.0589719   -4.3901151      1728000    9383.5058       234550         3547 
46920000    1.0195366   -4.3008546      1728000    9385.5158       234600         3547 
46930000   0.97219541   -4.2411826      1728000    9387.5157       234650         3548 
46940000    1.0129785   -4.2514103      1728000    9389.4926       234700         3549 
46950000   0.96327461   -4.3848038      1728000    9391.5049       234750         3550 
46960000    1.0484932   -4.2213514      1728000    9393.5044       234800         3550 
46970000   0.96435533   -4.2614388      1728000    9395.4832       234850         3550 
46980000   0.99578291   -4.1611614      1728000    9397.4928       234900         3550 
46990000   0.96251027   -4.1523277      1728000    9399.5374       234950         3550 
47000000   0.98751031    -4.247608      1728000    9401.5925       235000         3550 
47010000   0.95833253   -4.3032984      1728000    9403.5789       235050         3550 
47020000    1.0521806   -4.2805431      1728000    9405.5744       235100         3550 
47030000    1.0173715   -4.3514848      1728000    9407.5405       235150         3550 
47040000    1.0113856    -4.293213      1728000    9409.5297       235200         3551 
47050000   0.96945444    -4.315117      1728000    9411.5336       235250         3553 
47060000    1.0037756   -4.2335167      1728000    9413.5669       235300         3554 
47070000    1.0403789   -4.1816551      1728000    9415.5725       235350         3555 
47080000   0.99478557    -4.290358      1728000    9417.5952       235400         3557 
47090000   0.97951106   -4.3384371      1728000    9419.5875       235450         3558 
47100000    1.0577386   -4.2708396      1728000    9421.6042       235500         3558 
47110000    1.0299146   -4.4024948      1728000    9423.6016       235550         3559 
47120000    1.0226029   -4.2800081      1728000    9425.5953       235600         3559 
47130000   0.97619863   -4.3873966      1728000    9427.5535       235650         3562 
47140000    1.0157583    -4.314616      1728000    9429.5927       235700         3563 
47150000   0.97412162   -4.3449226      1728000    9431.6038       235750         3565 
47160000   0.98505042   -4.2304814      1728000    9433.6148       235800         3566 
47170000    1.0085279   -4.4577723      1728000    9435.5817       235850         3566 
47180000   0.99663146   -4.2945524      1728000    9437.5799       235900         3568 
47190000   0.96350001   -4.3595191      1728000     9439.575       235950         3568 
47200000   0.97136803   -4.3770487      1728000    9441.6145       236000         3568 
47210000     0.980098   -4.3267636      1728000    9443.6408       236050         3568 
47220000    1.0296229   -4.3583429      1728000    9445.6696       236100         3571 
47230000    1.0012495    -4.393167      1728000    9447.7052       236150         3573 
47240000   0.99508482   -4.2957676      1728000    9449.7685       236200         3573 
47250000    1.0005789   -4.4912803      1728000    9451.8168       236250         3573 
47260000     1.025112   -4.2512161      1728000    9453.8451       236300         3573 
47270000    1.0084513    -4.456607      1728000    9455.8901       236350         3574 
47280000    1.0429576   -4.2294389      1728000    9457.9155       236400         3575 
47290000   0.96012913   -4.3444214      1728000    9459.9084       236450         3575 
47300000    1.0629211   -4.4243708      1728000     9461.965       236500         3576 
47310000    1.0528892   -4.2919505      1728000    9463.9864       236550         3576 
47320000    1.0002799   -4.2831298      1728000    9465.9968       236600         3576 
47330000   0.96916245   -4.2708947      1728000    9468.0087       236650         3577 
47340000    0.9904886   -4.2549511      1728000    9470.0336       236700         3578 
47350000   0.96245924   -4.3643361      1728000    9472.0428       236750         3578 
47360000    1.0157484   -4.2949302      1728000     9474.035       236800         3579 
47370000     1.002521   -4.3769704      1728000    9476.0757       236850         3579 
47380000   0.97124226    -4.348414      1728000    9478.1127       236900         3579 
47390000    1.0668846   -4.3384186      1728000    9480.1094       236950         3579 
47400000   0.98481866   -4.3242372      1728000    9482.1498       237000         3579 
47410000    1.0009588    -4.221445      1728000    9484.1959       237050         3581 
47420000    1.0046111    -4.390582      1728000    9486.2296       237100         3581 
47430000   0.99976798   -4.3192324      1728000    9488.2438       237150         3581 
47440000    1.0459873   -4.2920187      1728000    9490.2447       237200         3581 
47450000   0.95498794   -4.2168453      1728000    9492.2289       237250         3582 
47460000    1.0228874   -4.3259651      1728000    9494.2207       237300         3582 
47470000   0.99284991   -4.2600145      1728000     9496.241       237350         3583 
47480000   0.99932278   -4.4017764      1728000    9498.2211       237400         3584 
47490000    1.0062767   -4.3145513      1728000    9500.2397       237450         3586 
47500000    1.0328259   -4.4659039      1728000    9502.2919       237500         3586 
47510000   0.95587552   -4.3154431      1728000    9504.2896       237550         3586 
47520000   0.99149857   -4.2882354      1728000    9506.2997       237600         3588 
47530000   0.99739522   -4.2857446      1728000    9508.2883       237650         3588 
47540000    1.0003914   -4.3123394      1728000    9510.2794       237700         3589 
47550000    1.0152732   -4.3269549      1728000    9512.2803       237750         3589 
47560000    1.0037825   -4.5061837      1728000    9514.2866       237800         3589 
47570000    1.0048332   -4.2736979      1728000    9516.2806       237850         3590 
47580000   0.97886149   -4.3844379      1728000    9518.3187       237900         3591 
47590000   0.99202614   -4.3550963      1728000    9520.3808       237950         3592 
47600000   0.97114909   -4.3025596      1728000    9522.4108       238000         3593 
47610000    1.0138137   -4.3217575      1728000    9524.4377       238050         3593 
47620000    1.0306884   -4.3697858      1728000    9526.4477       238100         3593 
47630000   0.95774017    -4.369133      1728000    9528.4705       238150         3593 
47640000   0.99710645   -4.2391712      1728000    9530.4764       238200         3594 
47650000    1.0381548   -4.2985428      1728000    9532.4617       238250         3596 
47660000   0.97205894   -4.3841983      1728000    9534.4359       238300         3596 
47670000    1.0385706   -4.4457893      1728000    9536.4581       238350         3596 
47680000   0.97140587   -4.5208447      1728000    9538.4748       238400         3596 
47690000     1.000901   -4.1596606      1728000    9540.4971       238450         3596 
47700000    1.0466129   -4.3705772      1728000    9542.5413       238500         3596 
47710000    1.0030123   -4.3833066      1728000    9544.5571       238550         3597 
47720000    1.0170175   -4.4052374      1728000    9546.5517       238600         3597 
47730000   0.97647687   -4.3638797      1728000    9548.5527       238650         3597 
47740000    1.0401245   -4.3892363      1728000    9550.5775       238700         3597 
47750000    1.0476043   -4.3741829      1728000     9552.581       238750         3598 
47760000   0.99461674    -4.297211      1728000     9554.604       238800         3598 
47770000    1.0442834   -4.3360056      1728000    9556.6111       238850         3599 
47780000    1.0180588   -4.2880492      1728000    9558.5839       238900         3599 
47790000    1.0247279   -4.4013236      1728000     9560.558       238950         3599 
47800000   0.98534357   -4.3437415      1728000      9562.58       239000         3599 
47810000   0.98321606   -4.3440206      1728000    9564.5817       239050         3601 
47820000   0.98129571   -4.2073607      1728000     9566.593       239100         3601 
47830000   0.96834863   -4.2519081      1728000    9568.5957       239150         3603 
47840000   0.99973719   -4.3492151      1728000    9570.6228       239200         3603 
47850000    1.0159395   -4.3450572      1728000    9572.6424       239250         3603 
47860000     1.034341   -4.3274491      1728000    9574.6826       239300         3603 
47870000   0.98837945   -4.3923002      1728000    9576.7137       239350         3603 
47880000   0.96400607   -4.4318938      1728000    9578.7154       239400         3605 
47890000    1.0421051   -4.3865784      1728000    9580.7402       239450         3606 
47900000    1.0017971   -4.2892529      1728000     9582.697       239500         3607 
47910000     1.027133    -4.230084      1728000    9584.6983       239550         3607 
47920000    0.9957456   -4.2530981      1728000    9586.8298       239600         3608 
47930000    0.9382104   -4.2998333      1728000    9588.8348       239650         3609 
47940000    1.1149743   -4.4495773      1728000    9590.8321       239700         3611 
47950000    1.0273115   -4.3696458      1728000    9592.8577       239750         3612 
47960000    0.9643051   -4.3470018      1728000    9594.8733       239800         3612 
47970000    1.0977794   -4.3184495      1728000     9596.887       239850         3613 
47980000    1.0226953   -4.3632894      1728000    9598.8891       239900         3613 
47990000     1.034685   -4.4052096      1728000    9600.8653       239950         3613 
48000000    1.0308996   -4.4029172      1728000    9602.8453       240000         3614 
48010000   0.99538587   -4.3059789      1728000    9604.8494       240050         3614 
48020000    0.9626646   -4.4093504      1728000     9606.875       240100         3616 
48030000    1.0157802   -4.2718191      1728000    9608.8767       240150         3618 
48040000   0.97161585   -4.2329125      1728000    9610.8829       240200         3619 
48050000    1.0476941   -4.3578975      1728000    9612.8868       240250         3622 
48060000    0.9460939   -4.3404909      1728000    9614.8887       240300         3622 
48070000    1.0044696   -4.2213845      1728000    9616.9487       240350         3622 
48080000    1.0088671   -4.1797605      1728000     9619.007       240400         3622 
48090000    1.0470117   -4.2887674      1728000    9620.9786       240450         3622 
48100000   0.99065084    -4.286666      1728000    9622.9679       240500         3623 
48110000    1.0268611    -4.207799      1728000    9625.0266       240550         3623 
48120000    1.0307226   -4.3651766      1728000     9627.058       240600         3624 
48130000   0.94069148    -4.272538      1728000    9629.0834       240650         3624 
48140000   0.92799919   -4.3783147      1728000    9631.0684       240700         3625 
48150000   0.95224309   -4.3651349      1728000    9633.0733       240750         3625 
48160000     1.018274   -4.2728382      1728000      9635.09       240800         3626 
48170000    1.0730805   -4.2853489      1728000    9637.0471       240850         3627 
48180000   0.97182963   -4.2365704      1728000     9638.968       240900         3628 
48190000    1.0577903   -4.3309282      1728000    9640.9209       240950         3629 
48200000    1.0115007   -4.1047312      1728000     9642.864       241000         3630 
48210000   0.98895046   -4.4749744      1728000    9644.8259       241050         3633 
48220000    1.0800044    -4.211322      1728000     9646.826       241100         3635 
48230000    1.0267657   -4.3826355      1728000     9648.856       241150         3635 
48240000    1.0441563   -4.3114326      1728000    9650.8846       241200         3636 
48250000    1.0065356   -4.2618612      1728000    9652.9008       241250         3636 
48260000   0.96658249   -4.2938933      1728000    9654.9185       241300         3637 
48270000    1.0397985   -4.4030113      1728000     9656.935       241350         3638 
48280000   0.96358114   -4.2508214      1728000    9658.9321       241400         3640 
48290000    1.0444094   -4.3402562      1728000    9660.9358       241450         3640 
48300000   0.98632785   -4.3000003      1728000    9662.9909       241500         3640 
48310000   0.96198005   -4.2046549      1728000    9665.0208       241550         3640 
48320000    1.0783595   -4.2861362      1728000     9667.048       241600         3640 
48330000   0.98050377   -4.2307206      1728000    9669.0409       241650         3640 
48340000   0.97871122   -4.4232045      1728000     9671.012       241700         3641 
48350000   0.95257055   -4.2871321      1728000    9672.9762       241750         3642 
48360000   0.96163737   -4.4369101      1728000    9674.9301       241800         3643 
48370000    1.0436097   -4.4863564      1728000    9676.9451       241850         3643 
48380000    1.0648023   -4.3451223      1728000    9678.9531       241900         3643 
48390000    1.0221851    -4.370824      1728000     9680.922       241950         3643 
48400000    0.9721423   -4.3557751      1728000    9682.8963       242000         3644 
48410000    1.0021981   -4.3789806      1728000    9684.9011       242050         3644 
48420000    1.0630649   -4.3324215      1728000    9686.9102       242100         3645 
48430000    1.0054326   -4.3893646      1728000    9688.9155       242150         3646 
48440000     1.008366   -4.4254137      1728000    9690.9103       242200         3647 
48450000    1.0084994   -4.4079628      1728000    9692.9481       242250         3647 
48460000    1.0414556   -4.4386872      1728000     9694.989       242300         3647 
48470000   0.98380753   -4.4427372      1728000    9696.9487       242350         3647 
48480000   0.98998278   -4.3637111      1728000    9698.9101       242400         3647 
48490000    1.0345708    -4.311096      1728000    9701.0018       242450         3647 
48500000   0.99402469   -4.4082772      1728000    9703.0552       242500         3647 
48510000    1.0098205   -4.2326984      1728000    9705.0813       242550         3647 
48520000    1.0111527   -4.3551766      1728000     9707.178       242600         3647 
48530000    0.9683972   -4.2513393      1728000    9709.2251       242650         3647 
48540000   0.95623432   -4.3316917      1728000    9711.2698       242700         3647 
48550000   0.96016515   -4.3114338      1728000    9713.2896       242750         3648 
48560000    1.0342262   -4.4552884      1728000    9715.2377       242800         3648 
48570000   0.99815473   -4.4182252      1728000    9717.1521       242850         3648 
48580000   0.98645941   -4.4789414      1728000    9719.1391       242900         3648 
48590000   0.99882472   -4.3075261      1728000    9721.1306       242950         3648 
48600000    1.0233962   -4.3222489      1728000    9723.1231       243000         3649 
48610000   0.98800667   -4.3240822      1728000    9725.1442       243050         3649 
48620000    1.0170589   -4.1839792      1728000    9727.1305       243100         3651 
48630000   0.99710315   -4.4116927      1728000    9729.1157       243150         3651 
48640000    1.0018484   -4.4264334      1728000     9731.126       243200         3651 
48650000     1.030664   -4.3867164      1728000    9733.1057       243250         3651 
48660000    1.0162661   -4.4061809      1728000    9735.1251       243300         3652 
48670000    1.0435415   -4.1915873      1728000    9737.0977       243350         3653 
48680000   0.99041552   -4.3252765      1728000    9739.0573       243400         3654 
48690000   0.98259699   -4.3474854      1728000     9741.066       243450         3654 
48700000   0.95613712   -4.2682171      1728000    9743.0844       243500         3654 
48710000    1.0174181   -4.3825502      1728000    9745.1161       243550         3654 
48720000    1.0235001   -4.2270501      1728000    9747.1536       243600         3654 
48730000    1.0348214   -4.2054966      1728000     9749.128       243650         3656 
48740000    1.0139493   -4.2372184      1728000    9751.1223       243700         3656 
48750000   0.96799305   -4.2830316      1728000    9753.1022       243750         3656 
48760000    1.0705329   -4.1705787      1728000    9755.1307       243800         3656 
48770000    1.0006648    -4.399971      1728000    9757.1632       243850         3658 
48780000   0.98775655   -4.3268121      1728000     9759.179       243900         3658 
48790000    1.0020847   -4.1584581      1728000    9761.2074       243950         3658 
48800000   0.97943654   -4.3071498      1728000    9763.2541       244000         3658 
48810000    1.0754581   -4.2934459      1728000    9765.2829       244050         3659 
48820000    1.0365104   -4.3546127      1728000    9767.2735       244100         3660 
48830000    1.0224745   -4.3043102      1728000    9769.2263       244150         3661 
48840000    1.0585964   -4.2697809      1728000    9771.2592       244200         3662 
48850000    1.0178748   -4.4269026      1728000    9773.2574       244250         3662 
48860000   0.98863715   -4.2745238      1728000    9775.2781       244300         3662 
48870000    1.0592886   -4.3301845      1728000    9777.2697       244350         3662 
48880000     1.056568   -4.3890679      1728000    9779.2353       244400         3662 
48890000   0.95534602   -4.3835416      1728000    9781.2272       244450         3662 
48900000    1.0007953   -4.3523769      1728000    9783.1935       244500         3662 
48910000   0.98293493   -4.3727235      1728000    9785.1495       244550         3664 
48920000    1.0702292   -4.2043177      1728000    9787.1658       244600         3664 
48930000   0.97215742   -4.3675414      1728000    9789.2115       244650         3664 
48940000    1.0350869   -4.3749945      1728000     9791.222       244700         3664 
48950000    1.0459959   -4.2012719      1728000      9793.23       244750         3664 
48960000   0.99854993   -4.2776106      1728000    9795.2613       244800         3665 
48970000   0.98341339   -4.3172316      1728000    9797.2769       244850         3665 
48980000   0.99426359   -4.2774958      1728000    9799.2362       244900         3665 
48990000    1.0337808   -4.3607525      1728000    9801.1706       244950         3665 
49000000    1.0540902   -4.1898365      1728000    9803.1553       245000         3665 
49010000   0.97123701    -4.288918      1728000    9805.1315       245050         3666 
49020000    1.0519196   -4.3448059      1728000    9807.1717       245100         3666 
49030000   0.97739478   -4.3315944      1728000    9809.1564       245150         3666 
49040000    1.0358092   -4.3101406      1728000    9811.1909       245200         3667 
49050000    1.0769663   -4.3264713      1728000    9813.2548       245250         3669 
49060000     1.075629   -4.3106877      1728000    9815.2501       245300         3669 
49070000   0.96355698   -4.2992514      1728000    9817.2122       245350         3670 
49080000   0.96412171   -4.3232146      1728000    9819.2254       245400         3671 
49090000    1.0521669   -4.2495271      1728000    9821.2371       245450         3672 
49100000   0.98178609   -4.2983854      1728000    9823.2532       245500         3672 
49110000   0.97732194   -4.2588544      1728000     9825.292       245550         3673 
49120000   0.98895102   -4.3731804      1728000    9827.3051       245600         3674 
49130000    1.0253956   -4.2876485      1728000    9829.2734       245650         3674 
49140000    1.0111938   -4.4265595      1728000    9831.2371       245700         3675 
49150000   0.95326346   -4.2306121      1728000    9833.2761       245750         3676 
49160000   0.99246991   -4.1834093      1728000    9835.2969       245800         3676 
49170000   0.99213428   -4.2263697      1728000    9837.3468       245850         3676 
49180000    1.0391569   -4.2683644      1728000    9839.3443       245900         3677 
49190000   0.96565896   -4.3708454      1728000    9841.3446       245950         3677 
49200000     1.012586   -4.4417119      1728000    9843.3416       246000         3680 
49210000    1.0195498   -4.3331135      1728000    9845.3536       246050         3682 
49220000    1.0184222   -4.2306555      1728000    9847.3433       246100         3683 
49230000   0.93229243   -4.2714762      1728000    9849.3299       246150         3683 
49240000    1.0306316   -4.3967153      1728000    9851.3161       246200         3683 
49250000   0.97755943   -4.2601774      1728000    9853.3028       246250         3684 
49260000    1.0085439   -4.3662508      1728000    9855.3143       246300         3685 
49270000   0.97470285   -4.4385847      1728000    9857.4431       246350         3686 
49280000   0.94091565   -4.2519617      1728000    9859.6225       246400         3686 
49290000   0.99634307   -4.3340383      1728000    9861.7206       246450         3686 
49300000    1.0147383   -4.4305685      1728000    9863.7503       246500         3687 
49310000   0.99912831   -4.3179841      1728000    9865.7791       246550         3688 
49320000    1.0206594   -4.2769156      1728000    9867.7952       246600         3689 
49330000    1.0167027   -4.2577431      1728000    9869.8824       246650         3690 
49340000   0.94207914   -4.1432751      1728000     9871.835       246700         3691 
49350000    1.0078445   -4.3412362      1728000    9873.8441       246750         3692 
49360000    1.0172213   -4.1884345      1728000    9875.8558       246800         3692 
49370000   0.97271481   -4.2861838      1728000    9877.7849       246850         3692 
49380000    1.0464544   -4.3399925      1728000    9879.7711       246900         3693 
49390000    1.0216885   -4.2246613      1728000    9881.7473       246950         3693 
49400000    1.0335096   -4.3023306      1728000    9883.7544       247000         3695 
49410000   0.97240191   -4.3575907      1728000    9885.7397       247050         3696 
49420000    1.0774233   -4.3174188      1728000    9887.7062       247100         3697 
49430000   0.99227807    -4.407736      1728000    9889.7012       247150         3699 
49440000     1.010172   -4.3938211      1728000    9891.7572       247200         3699 
49450000    1.0396189   -4.3074005      1728000    9893.8024       247250         3701 
49460000    1.0026224   -4.3667259      1728000    9895.8503       247300         3701 
49470000    1.0616337   -4.4721297      1728000    9897.8163       247350         3701 
49480000   0.98267844   -4.3333329      1728000    9899.7834       247400         3701 
49490000   0.97775018   -4.4556952      1728000    9901.8355       247450         3701 
49500000    1.0596807   -4.4283685      1728000    9903.9411       247500         3701 
49510000   0.98435437   -4.4879191      1728000    9906.0254       247550         3702 
49520000   0.97379104   -4.3822484      1728000    9908.1501       247600         3702 
49530000    1.0646543   -4.3661013      1728000    9910.2002       247650         3702 
49540000    1.0109755   -4.3865093      1728000    9912.2386       247700         3702 
49550000    1.0685226   -4.2585723      1728000    9914.2521       247750         3703 
49560000    1.0390477    -4.294104      1728000    9916.2852       247800         3703 
49570000   0.95484004   -4.2602038      1728000    9918.3087       247850         3703 
49580000    1.0781246   -4.4540153      1728000    9920.3582       247900         3703 
49590000    1.0172375   -4.3512813      1728000    9922.4142       247950         3704 
49600000   0.98072451   -4.4316859      1728000    9924.4649       248000         3704 
49610000   0.96585223    -4.417206      1728000    9926.4842       248050         3704 
49620000    1.0184084   -4.3728243      1728000     9928.461       248100         3705 
49630000    1.0159111   -4.3313968      1728000    9930.4685       248150         3706 
49640000   0.96776733   -4.4443784      1728000    9932.4925       248200         3706 
49650000    1.0114549   -4.2784936      1728000    9934.5138       248250         3706 
49660000    1.0473584   -4.3870195      1728000    9936.5281       248300         3706 
49670000    1.0328085   -4.4677234      1728000    9938.4806       248350         3706 
49680000    0.9306339   -4.3678081      1728000    9940.5424       248400         3706 
49690000   0.93610718   -4.4398432      1728000    9942.5342       248450         3706 
49700000    1.0580487   -4.3720747      1728000     9944.549       248500         3706 
49710000    1.0155119   -4.2798776      1728000    9946.5521       248550         3706 
49720000    1.0072492   -4.3885974      1728000    9948.5297       248600         3706 
49730000    1.0088883   -4.4234764      1728000    9950.5367       248650         3707 
49740000    1.0395664   -4.2997619      1728000    9952.4869       248700         3707 
49750000    1.0516577   -4.4554915      1728000    9954.4555       248750         3708 
49760000    1.0364137    -4.299037      1728000    9956.4842       248800         3708 
49770000   0.93059176   -4.2803983      1728000    9958.4726       248850         3709 
49780000    1.0645858    -4.285984      1728000    9960.5173       248900         3711 
49790000   0.99950035   -4.2511931      1728000    9962.5542       248950         3711 
49800000   0.94462465   -4.4235902      1728000    9964.5623       249000         3711 
49810000   0.93521442   -4.2917449      1728000     9966.616       249050         3711 
49820000   0.97109146   -4.3684906      1728000    9968.6327       249100         3711 
49830000   0.93677767   -4.3022638      1728000    9970.6251       249150         3711 
49840000    1.0449947   -4.3578225      1728000     9972.572       249200         3711 
49850000    1.0780161   -4.3293665      1728000    9974.5186       249250         3711 
49860000   0.92600045   -4.3246969      1728000    9976.4555       249300         3711 
49870000    1.0409511   -4.4207969      1728000    9978.4058       249350         3711 
49880000    1.0225709   -4.3895678      1728000     9980.428       249400         3711 
49890000    1.0269253   -4.3733304      1728000    9982.4101       249450         3713 
49900000   0.98084613   -4.2562462      1728000    9984.3873       249500         3713 
49910000   0.98741075   -4.2538075      1728000    9986.3984       249550         3713 
49920000   0.97154031   -4.3281124      1728000    9988.3958       249600         3714 
49930000   0.99169953   -4.3611117      1728000    9990.3655       249650         3714 
49940000   0.99341585   -4.2251755      1728000    9992.3195       249700         3714 
49950000    1.0115691   -4.4258096      1728000    9994.3365       249750         3715 
49960000    1.0131637   -4.2055352      1728000    9996.3316       249800         3716 
49970000    1.0157198   -4.3024772      1728000    9998.3394       249850         3717 
49980000   0.94114631    -4.353174      1728000     10000.36       249900         3718 
49990000    1.0248823   -4.2803975      1728000    10002.397       249950         3718 
50000000    1.0187981   -4.2663815      1728000    10004.372       250000         3718 
Loop time of 10004.4 on 1 procs for 50000000 steps with 500 atoms

Performance: 4318111.831 tau/day, 4997.815 timesteps/s
99.4% CPU use with 1 MPI tasks x 1 OpenMP threads

MPI task timing breakdown:
Section |  min time  |  avg time  |  max time  |%varavg| %total
---------------------------------------------------------------
Pair    | 5185.1     | 5185.1     | 5185.1     |   0.0 | 51.83
Bond    | 1135.1     | 1135.1     | 1135.1     |   0.0 | 11.35
Neigh   | 1718.1     | 1718.1     | 1718.1     |   0.0 | 17.17
Comm    | 38.444     | 38.444     | 38.444     |   0.0 |  0.38
Output  | 16.267     | 16.267     | 16.267     |   0.0 |  0.16
Modify  | 1833.8     | 1833.8     | 1833.8     |   0.0 | 18.33
Other   |            | 77.56      |            |       |  0.78

Nlocal:    500 ave 500 max 500 min
Histogram: 1 0 0 0 0 0 0 0 0 0
Nghost:    0 ave 0 max 0 min
Histogram: 1 0 0 0 0 0 0 0 0 0
Neighs:    15371 ave 15371 max 15371 min
Histogram: 1 0 0 0 0 0 0 0 0 0

Total # of neighbors = 15371
Ave neighs/atom = 30.742
Ave special neighs/atom = 5.976
Neighbor list builds = 2478988
Dangerous builds = 0

################
## ULOOP    ####
################
clear
OMP_NUM_THREADS environment is not set. Defaulting to 1 thread. (../comm.cpp:87)
  using 1 OpenMP thread(s) per MPI task
variable rname delete
variable simname delete
variable folder delete
variable seed delete
variable E delete
variable RW delete
variable SimOutType delete
variable SimInType delete
variable jn delete
variable jf delete

next jbn
Increment via next: value 2 on partition 0
jump SELF #last line!!!

### If e.g. I run this on 10 partitions of 1 processor,
### and initialise the variable with 'uloop N'
### it will run 10 simulations with 'jobnumber' taking
### values 1-10. Then when a particular simulation finishes, the
### script will be run again with the next value of jobnumber,
### until N simulations have been run.
## SO ULOOP IS "SERIAL" BUT FOR SURE 10x1 PROCs ARE ALWAYS BUSY
Total wall time: 2:46:55
