LAMMPS (1 Feb 2019)
OMP_NUM_THREADS environment is not set. Defaulting to 1 thread. (../comm.cpp:87)
  using 1 OpenMP thread(s) per MPI task
####################################
####	ULOOP			####
####################################
variable jbn uloop 1  # run n simulations
variable startfrom equal 0
variable jn equal ${jbn}+${startfrom}
variable jn equal 1+${startfrom}
variable jn equal 1+0
print ${jn}
print 1
1
variable seed equal (9+4)*51-2*9
variable seedr equal (9+2)*22

#
variable N equal 2000
timestep 0.01
variable Dt equal 100000
variable Temp equal 1.0
variable Norm equal 0.88585294441338
if "${jn} <= 20" then "variable E equal 1.2"
variable E equal 1.2
#if "${jn} > 2 && ${jn} <= 4" then "variable E equal 1.5"
#if "${jn} > 4 && ${jn} <= 6" then "variable E equal 2.0"
#if "${jn} > 6 && ${jn} <= 8" then "variable E equal 2.5"
#if "${jn} > 8 && ${jn} <= 10" then "variable E equal 3.0"
#if "${jn} > 10 && ${jn} <= 12" then "variable E equal 3.5"
#if "${jn} > 12 && ${jn} <= 14" then "variable E equal 4.0"
#if "${jn} > 14 && ${jn} <= 16" then "variable E equal 4.5"
#if "${jn} > 16 && ${jn} <= 18" then "variable E equal 5.0"

#
####################################
####	DEFINTIONS 	########
####################################
#
variable N equal 500
variable folder index RW_Dt${Dt}_E${E}
variable folder index RW_Dt100000_E${E}
variable folder index RW_Dt100000_E1.2
shell mkdir ${folder}
shell mkdir RW_Dt100000_E1.2
variable SimOutType index RW${jn}Dt${Dt}E${E}
variable SimOutType index RW1Dt${Dt}E${E}
variable SimOutType index RW1Dt100000E${E}
variable SimOutType index RW1Dt100000E1.2
variable rname index INIT/Poly.N${N}.dat
variable rname index INIT/Poly.N500.dat
variable simname index Poly.N${N}.${SimOutType}
variable simname index Poly.N500.${SimOutType}
variable simname index Poly.N500.RW1Dt100000E1.2
#
units lj
atom_style angle
boundary        p p p
neighbor 1.3 bin
neigh_modify every 5 delay 5 check yes
#
restart 1000000 ${folder}/Restart.neutr.${simname}.
restart 1000000 RW_Dt100000_E1.2/Restart.neutr.${simname}.
restart 1000000 RW_Dt100000_E1.2/Restart.neutr.Poly.N500.RW1Dt100000E1.2.
print ${rname}
print INIT/Poly.N500.dat
INIT/Poly.N500.dat
read_data ${rname}
read_data INIT/Poly.N500.dat
  orthogonal box = (-50 -50 -50) to (50 50 50)
  1 by 1 by 1 MPI processor grid
  reading atoms ...
  500 atoms
  scanning bonds ...
  1 = max bonds/atom
  scanning angles ...
  1 = max angles/atom
  reading bonds ...
  499 bonds
  reading angles ...
  498 angles
  2 = max # of 1-2 neighbors
  2 = max # of 1-3 neighbors
  4 = max # of 1-4 neighbors
  6 = max # of special neighbors

####################################
####	GROUPS	             #######
####################################
group blue type 1
500 atoms in group blue
group red type 2
0 atoms in group red
group grey type 3
0 atoms in group grey

change_box all x final -60 60 y final -60 60 z final -60 60 boundary f f f units box
  orthogonal box = (-60 -50 -50) to (60 50 50)
  orthogonal box = (-60 -60 -50) to (60 60 50)
  orthogonal box = (-60 -60 -60) to (60 60 60)

####################################
####	ANGLE	             #######
####################################
angle_style   cosine
angle_coeff  1 3.0  #20 sigma for realistic DNA (1 bead = 2.5 nm)

####################################
####	PAIRS	             #######
####################################
pair_style  soft 2.5
pair_modify     shift yes
pair_coeff      * * 20 1.12246152962189

variable prefactor equal ramp(0,50)
fix pushapart all adapt 1 pair soft a * * v_prefactor

####################################
####	FENE	             #######
####################################
bond_style   fene
special_bonds fene#<=== I M P O R T A N T (new command)
  2 = max # of 1-2 neighbors
  6 = max # of special neighbors
bond_coeff   1  30.0   1.6  1.0  1.0

####################################
####	FIXES	             #######
####################################
fix 1 all   nve
fix 2 all  langevin   1.0 1.0   1.0   ${seed}
fix 2 all  langevin   1.0 1.0   1.0   645

####################################
####	WALL	             #######
####################################
fix WALL all wall/lj126 xhi EDGE 1.0 1.0 1.122462048 xlo EDGE 1.0 1.0 1.122462048 yhi EDGE 1.0 1.0 1.122462048 ylo EDGE 1.0 1.0 1.122462048 zhi EDGE 1.0 1.0 1.122462048 zlo EDGE 1.0 1.0 1.122462048 units box

####################################
####	RESET TIME             #######
####################################
reset_timestep 0

####################################
####	SWAP - ATOMS         #######
####################################
##HERE I USE fix atom/swap to attempt an atom swap between types
## In theory, I don't need to do a loop as the fix does it every
## N timesteps
##FIRST Dt IS NOT SWAPPING ANYWAY!
group Polymer type 1 2 3
500 atoms in group Polymer
fix Aswap Polymer atom/swap ${Dt} ${N} ${seed} ${Temp} semi-grand yes types 1 2 3 mu 0.0 0.0 0.0
fix Aswap Polymer atom/swap 100000 ${N} ${seed} ${Temp} semi-grand yes types 1 2 3 mu 0.0 0.0 0.0
fix Aswap Polymer atom/swap 100000 500 ${seed} ${Temp} semi-grand yes types 1 2 3 mu 0.0 0.0 0.0
fix Aswap Polymer atom/swap 100000 500 645 ${Temp} semi-grand yes types 1 2 3 mu 0.0 0.0 0.0
fix Aswap Polymer atom/swap 100000 500 645 1 semi-grand yes types 1 2 3 mu 0.0 0.0 0.0
variable Swaps equal f_Aswap[2]/1.0
variable Attempts equal f_Aswap[1]/1.0

####################################
####    THERMO AND INTEGRATION
####################################
timestep 0.01
thermo 10000
thermo_style   custom   step  temp  epair vol cpu v_Attempts v_Swaps

####################################
####	EQUILIBRATION        #######
####################################
#THIS IS TO TEST
#PUT LARGER NUMBER WHEN DOING ACTUAL SIMULATIONS
run 100000
Neighbor list info ...
  update every 5 steps, delay 5 steps, check yes
  max neighbors/atom: 2000, page size: 100000
  master list distance cutoff = 2.42246
  ghost atom cutoff = 2.42246
  binsize = 1.21123, bins = 100 100 100
  1 neighbor lists, perpetual/occasional/extra = 1 0 0
  (1) pair soft, perpetual
      attributes: half, newton on
      pair build: half/bin/newton
      stencil: half/bin/3d/newton
      bin: standard
Per MPI rank memory allocation (min/avg/max) = 9.234 | 9.234 | 9.234 Mbytes
Step Temp E_pair Volume CPU v_Attempts v_Swaps 
       0            0            0      1728000            0            0            0 
   10000    1.0276007 0.0018015669      1728000    1.0573082          500          500 
   20000    1.0077966 0.00057601169      1728000    1.9283931          500          500 
   30000    1.0219316 0.0058523598      1728000    2.7825172          500          500 
   40000    1.0067777 0.0022477798      1728000    3.6291111          500          500 
   50000    1.0042472 0.0031524335      1728000     4.478286          500          500 
   60000    0.9740897  0.001107363      1728000    5.3774381          500          500 
   70000     1.022064 0.00058993564      1728000    6.2592602          500          500 
   80000    1.0528225  0.001587787      1728000     7.119385          500          500 
   90000    1.0316721            0      1728000    8.0100951          500          500 
  100000     1.026371 0.0043018279      1728000    8.9364061          500          500 
Loop time of 8.9384 on 1 procs for 100000 steps with 500 atoms

Performance: 9666155.076 tau/day, 11187.679 timesteps/s
98.9% CPU use with 1 MPI tasks x 1 OpenMP threads

MPI task timing breakdown:
Section |  min time  |  avg time  |  max time  |%varavg| %total
---------------------------------------------------------------
Pair    | 0.66923    | 0.66923    | 0.66923    |   0.0 |  7.49
Bond    | 2.5946     | 2.5946     | 2.5946     |   0.0 | 29.03
Neigh   | 2.6292     | 2.6292     | 2.6292     |   0.0 | 29.41
Comm    | 0.11814    | 0.11814    | 0.11814    |   0.0 |  1.32
Output  | 0.018947   | 0.018947   | 0.018947   |   0.0 |  0.21
Modify  | 2.7903     | 2.7903     | 2.7903     |   0.0 | 31.22
Other   |            | 0.118      |            |       |  1.32

Nlocal:    500 ave 500 max 500 min
Histogram: 1 0 0 0 0 0 0 0 0 0
Nghost:    0 ave 0 max 0 min
Histogram: 1 0 0 0 0 0 0 0 0 0
Neighs:    849 ave 849 max 849 min
Histogram: 1 0 0 0 0 0 0 0 0 0

Total # of neighbors = 849
Ave neighs/atom = 1.698
Ave special neighs/atom = 1.996
Neighbor list builds = 4492
Dangerous builds = 0


unfix pushapart
unfix Aswap
reset_timestep 0

#######################################################
####	PAIRS -- REPULSIVE + REDS FERROMAGN 	#######
#######################################################
#ENERGYSCALE
variable Et equal ${E}/${Norm}
variable Et equal 1.2/${Norm}
variable Et equal 1.2/0.88585294441338

pair_style  lj/cut 1.8
pair_modify     shift yes
pair_coeff      * *  1.0 1.0 1.12246152962189

pair_coeff      1 1  ${Et} 1.0 1.8
pair_coeff      1 1  1.35462664268125 1.0 1.8
pair_coeff      1 2  1.0 1.0 1.12246152962189
pair_coeff      1 3  1.0 1.0 1.12246152962189

pair_coeff      2 2  ${Et} 1.0 1.8
pair_coeff      2 2  1.35462664268125 1.0 1.8
pair_coeff      2 3  1.0 1.0 1.12246152962189

pair_coeff      3 3  1.0 1.0 1.12246152962189
#######################################################


########################
## PER PRIMI VICINI   ##
########################
bond_style harmonic
special_bonds lj 1 1 1
  2 = max # of 1-2 neighbors
  2 = max # of 1-3 neighbors
  4 = max # of 1-4 neighbors
  6 = max # of special neighbors
bond_coeff 1 200 1.12246
#bond_style fene
#special_bonds fene
#bond_coeff 1 30 1.6 1.0 1.0

########################
## RECOLOR #############
########################
group Polymer type 1 2 3
500 atoms in group Polymer
variable smooth equal 10
variable dtsmooth equal ${Dt}/${smooth}
variable dtsmooth equal 100000/${smooth}
variable dtsmooth equal 100000/10
variable Nsmooth equal ${N}/${smooth}
variable Nsmooth equal 500/${smooth}
variable Nsmooth equal 500/10
fix Aswap Polymer atom/swap ${dtsmooth} ${Nsmooth} ${seedr} ${Temp} semi-grand yes types 1 2 3 mu 0.0 0.0 0.0
fix Aswap Polymer atom/swap 10000 ${Nsmooth} ${seedr} ${Temp} semi-grand yes types 1 2 3 mu 0.0 0.0 0.0
fix Aswap Polymer atom/swap 10000 50 ${seedr} ${Temp} semi-grand yes types 1 2 3 mu 0.0 0.0 0.0
fix Aswap Polymer atom/swap 10000 50 242 ${Temp} semi-grand yes types 1 2 3 mu 0.0 0.0 0.0
fix Aswap Polymer atom/swap 10000 50 242 1 semi-grand yes types 1 2 3 mu 0.0 0.0 0.0
variable Swaps equal f_Aswap[2]/1.0
variable Attempts equal f_Aswap[1]/1.0

####################################
####    DUMPS                 #######
####################################
##VMD
#dump 1 all custom 1000 ${folder}/${simname}.lammpstrj id mol type x y z
#dump_modify  1   format "%d %d %d %.5f %.5f %.5f"

##DAT
dump 2 all custom 100000 ${folder}/${simname}.* id type x y z ix iy iz
dump 2 all custom 100000 RW_Dt100000_E1.2/${simname}.* id type x y z ix iy iz
dump 2 all custom 100000 RW_Dt100000_E1.2/Poly.N500.RW1Dt100000E1.2.* id type x y z ix iy iz
#dump_modify   2   format "%d %d %.5f %.5f %.5f %d %d %d"

##CFG
#dump 3 all cfg 1000 ${folder}/CFG/${simname}.tot.*.cfg mass type xs ys zs id mol type
#dump_modify 3 element N C O Ca Xe

##XYZ
dump 4 all xyz 100000 XYZ_${simname}.xyz
dump 4 all xyz 100000 XYZ_Poly.N500.RW1Dt100000E1.2.xyz
dump_modify 4 element C O N Xe

###########################
thermo 10000
thermo_style   custom   step  temp  epair vol cpu v_Attempts v_Swaps
run 50000000
Neighbor list info ...
  update every 5 steps, delay 5 steps, check yes
  max neighbors/atom: 2000, page size: 100000
  master list distance cutoff = 3.1
  ghost atom cutoff = 3.1
  binsize = 1.55, bins = 78 78 78
  1 neighbor lists, perpetual/occasional/extra = 1 0 0
  (1) pair lj/cut, perpetual
      attributes: half, newton on
      pair build: half/bin/newton
      stencil: half/bin/3d/newton
      bin: standard
Per MPI rank memory allocation (min/avg/max) = 9.566 | 9.566 | 9.566 Mbytes
Step Temp E_pair Volume CPU v_Attempts v_Swaps 
       0     1.026371    2.0051684      1728000            0            0            0 
   10000    1.0203246  -0.34913749      1728000   0.85212803           50           41 
   20000   0.95708464  -0.36926797      1728000    1.7002711          100           78 
   30000     1.038169  -0.38162927      1728000     2.540493          150          114 
   40000   0.96521972  -0.37031412      1728000    3.3758421          200          142 
   50000    1.0266353   -0.4279928      1728000     4.208101          250          174 
   60000   0.95501594  -0.47152793      1728000     5.030792          300          205 
   70000   0.98741991   -0.5090706      1728000     5.899333          350          234 
   80000    0.9463942  -0.51597174      1728000      6.77161          400          262 
   90000    1.0076988  -0.53420802      1728000    7.6577151          450          289 
  100000   0.94008086   -0.4990911      1728000    8.5657849          500          321 
  110000    1.0939681  -0.61076239      1728000     9.421041          550          350 
  120000    1.0230154  -0.57874644      1728000    10.285745          600          378 
  130000   0.96825807  -0.55681169      1728000    11.165865          650          408 
  140000   0.90495481  -0.60779697      1728000    12.056953          700          436 
  150000    1.0302561  -0.73056212      1728000    12.962026          750          459 
  160000    1.0574584  -0.81577749      1728000    13.896105          800          485 
  170000    1.0426193  -0.82899624      1728000    14.825141          850          508 
  180000    1.0372207   -0.8242121      1728000    15.774279          900          527 
  190000     1.030073  -0.89761511      1728000    16.694736          950          552 
  200000    1.0129082  -0.90260851      1728000     17.63102         1000          572 
  210000    1.0490267  -0.82867675      1728000    18.561105         1050          594 
  220000     1.014524  -0.93027203      1728000    19.520941         1100          616 
  230000   0.99554321  -0.88590962      1728000    20.483001         1150          633 
  240000    1.0269705  -0.85568009      1728000    21.421768         1200          660 
  250000    1.0125855  -0.86390568      1728000    22.368003         1250          680 
  260000    1.0535708  -0.96593708      1728000    23.363005         1300          699 
  270000    1.0423591  -0.98153266      1728000    24.368867         1350          714 
  280000    1.0278998   -1.0582429      1728000    25.384876         1400          731 
  290000    1.0062284   -1.1379304      1728000    26.408555         1450          752 
  300000   0.97987553   -1.2305302      1728000    27.479865         1500          775 
  310000    1.0350953   -1.2382225      1728000    28.614041         1550          793 
  320000   0.96743315   -1.2305291      1728000    29.746863         1600          811 
  330000    1.0244092    -1.289464      1728000    30.815823         1650          829 
  340000    1.0199797   -1.2420342      1728000    31.884965         1700          848 
  350000   0.98189634   -1.2657331      1728000    32.999568         1750          865 
  360000   0.96888298   -1.4893519      1728000    34.131974         1800          882 
  370000     1.032683    -1.632098      1728000    35.327597         1850          903 
  380000    1.0360547   -1.5256303      1728000    36.498792         1900          918 
  390000    1.0025374   -1.6029279      1728000    37.702862         1950          933 
  400000   0.97434967   -1.6484474      1728000    38.914904         2000          948 
  410000   0.99385468   -1.6779408      1728000    40.078744         2050          964 
  420000   0.94855327    -1.734192      1728000     41.26096         2100          979 
  430000   0.99397629   -1.8616158      1728000    42.494696         2150          993 
  440000     1.079888   -1.8514543      1728000    43.778438         2200         1002 
  450000    1.0495125   -1.7438447      1728000    45.030915         2250         1018 
  460000    1.0149728   -1.8024815      1728000    46.269134         2300         1027 
  470000    1.0943251   -1.9458529      1728000    47.499126         2350         1038 
  480000    1.0306263   -1.9419136      1728000    48.815799         2400         1047 
  490000   0.98461894     -1.85013      1728000    50.121477         2450         1061 
  500000   0.95943364   -1.9032014      1728000    51.429138         2500         1076 
  510000   0.98194326   -1.9193544      1728000    52.729568         2550         1088 
  520000    1.0861819    -1.939817      1728000    54.029288         2600         1102 
  530000   0.95107398   -1.8820945      1728000    55.379013         2650         1116 
  540000   0.99175891    -2.056161      1728000    56.704751         2700         1133 
  550000   0.96699226   -2.0845428      1728000    58.103699         2750         1144 
  560000    1.0212228   -1.9019812      1728000    59.435656         2800         1156 
  570000    1.0237456   -1.9878098      1728000    60.739828         2850         1166 
  580000    1.0407494   -2.1902294      1728000    62.063788         2900         1179 
  590000    1.0226295   -2.1582158      1728000    63.442988         2950         1193 
  600000   0.99051273   -2.2249037      1728000    64.817664         3000         1204 
  610000    1.0194465   -2.2046282      1728000    66.151922         3050         1212 
  620000   0.96371749   -2.1752004      1728000    67.502702         3100         1225 
  630000    1.0305411   -2.2882043      1728000    68.901893         3150         1234 
  640000    1.0604981   -2.3025011      1728000    70.260955         3200         1248 
  650000   0.97413638   -2.2123865      1728000    71.685802         3250         1259 
  660000    1.0044455   -2.3709138      1728000    73.066864         3300         1266 
  670000   0.99186576   -2.2765703      1728000    74.445716         3350         1270 
  680000   0.93871075   -2.2257387      1728000    75.799888         3400         1279 
  690000    0.9556796   -2.4521447      1728000    77.190089         3450         1288 
  700000   0.99410535   -2.3259685      1728000    78.631785         3500         1297 
  710000    1.0182506   -2.3269729      1728000    80.026535         3550         1305 
  720000    1.0198274   -2.4235083      1728000     81.48508         3600         1319 
  730000    1.0881039   -2.5017522      1728000     82.92273         3650         1324 
  740000    1.0308794   -2.4743182      1728000    84.329919         3700         1330 
  750000   0.97145266   -2.6126052      1728000    85.755608         3750         1339 
  760000    1.0363713   -2.5822657      1728000    87.220664         3800         1346 
  770000   0.98576451   -2.4528146      1728000     88.68516         3850         1351 
  780000   0.96902267   -2.4793236      1728000    90.106784         3900         1364 
  790000   0.92510492   -2.7394084      1728000    91.537769         3950         1369 
  800000    1.0226697   -2.6312533      1728000    92.990635         4000         1378 
  810000    1.0283683   -2.5903998      1728000     94.45107         4050         1384 
  820000   0.96067051    -2.356945      1728000    95.924711         4100         1389 
  830000   0.94880169   -2.5558092      1728000    97.336001         4150         1402 
  840000   0.98316803   -2.5351039      1728000    98.813698         4200         1408 
  850000   0.97946854   -2.6827579      1728000    100.31874         4250         1415 
  860000   0.99933866   -2.9080836      1728000    101.93009         4300         1418 
  870000    1.0414866    -2.869448      1728000     103.8731         4350         1422 
  880000    1.0020809   -2.7442064      1728000    105.48152         4400         1426 
  890000   0.99498532   -2.8465057      1728000    107.11108         4450         1430 
  900000    1.0233851    -2.906401      1728000    108.70898         4500         1436 
  910000    1.0233421     -2.90889      1728000    110.32904         4550         1441 
  920000    1.0153742   -2.8321741      1728000    111.95256         4600         1447 
  930000   0.98975724   -3.0778268      1728000    113.56578         4650         1454 
  940000   0.98054029   -2.8849253      1728000    115.20031         4700         1462 
  950000    1.0099351   -3.0784256      1728000    116.80842         4750         1468 
  960000    1.0050242   -3.1634446      1728000     118.4515         4800         1473 
  970000   0.99519262   -3.0442588      1728000     120.0889         4850         1477 
  980000   0.99734544   -3.0944264      1728000    121.73313         4900         1480 
  990000   0.94609449   -3.1955817      1728000    123.46836         4950         1483 
 1000000    1.0030098   -3.0613871      1728000    125.36941         5000         1485 
 1010000   0.96257285   -3.0915195      1728000    127.21963         5050         1488 
 1020000   0.94383318   -3.0413195      1728000    128.88918         5100         1499 
 1030000    1.0241589   -3.1776565      1728000    130.53667         5150         1501 
 1040000     1.005541   -3.0893009      1728000    132.23709         5200         1508 
 1050000   0.97198982   -3.2703433      1728000    134.06323         5250         1511 
 1060000   0.98255473   -3.2857871      1728000    135.84625         5300         1520 
 1070000   0.98065162   -3.0730569      1728000    137.52402         5350         1530 
 1080000    1.0263937   -3.0552381      1728000    139.20352         5400         1534 
 1090000    1.0255682   -3.1437014      1728000    140.82377         5450         1538 
 1100000   0.99440415   -3.1328722      1728000    142.44982         5500         1544 
 1110000    1.0040986   -3.1016723      1728000    144.10361         5550         1547 
 1120000    1.0417339   -3.0579537      1728000    145.74975         5600         1550 
 1130000   0.99666848   -3.1325455      1728000     147.3937         5650         1556 
 1140000    1.0455567    -3.068704      1728000    149.03182         5700         1560 
 1150000   0.99203349    -3.101432      1728000    150.76745         5750         1563 
 1160000    1.0191256   -3.0888976      1728000    152.45091         5800         1566 
 1170000   0.95247457   -3.1550953      1728000    154.16215         5850         1571 
 1180000    0.9432816   -3.0659249      1728000    156.10616         5900         1577 
 1190000   0.98779902   -3.1825502      1728000    157.77651         5950         1582 
 1200000   0.95828204   -3.0887782      1728000    159.47997         6000         1587 
 1210000    1.0075081   -3.2262877      1728000     161.1243         6050         1588 
 1220000    1.0101061   -3.1704091      1728000    162.81356         6100         1592 
 1230000    1.0567921   -3.1248128      1728000    164.51881         6150         1594 
 1240000    1.0060267   -3.1870521      1728000    166.20408         6200         1599 
 1250000    1.0322441   -3.1122811      1728000    167.92332         6250         1604 
 1260000   0.96879919   -3.2228064      1728000    169.60572         6300         1607 
 1270000    1.0500025   -3.2695064      1728000    171.29247         6350         1608 
 1280000   0.96583831   -3.3049281      1728000    172.96136         6400         1611 
 1290000   0.97626161   -3.1590359      1728000    174.61899         6450         1613 
 1300000    1.0226509   -3.1225626      1728000    176.27967         6500         1616 
 1310000   0.95820963   -3.2570791      1728000    177.91569         6550         1622 
 1320000   0.94661754   -3.3138703      1728000    179.55075         6600         1631 
 1330000    1.0645859   -3.1677151      1728000    181.21711         6650         1635 
 1340000    1.0740352    -3.266309      1728000     182.8898         6700         1641 
 1350000    1.0387167   -3.2650429      1728000    184.54078         6750         1645 
 1360000    1.0840248   -3.2318181      1728000    186.19546         6800         1649 
 1370000    1.1300113   -3.2689844      1728000    187.86914         6850         1653 
 1380000    1.0284778   -3.2184833      1728000    189.56497         6900         1657 
 1390000    1.0162513   -3.2879908      1728000    191.23836         6950         1660 
 1400000    1.0042972   -3.3857785      1728000    192.93915         7000         1662 
 1410000   0.99948862   -3.1579806      1728000    194.69591         7050         1664 
 1420000   0.98595799   -3.3110842      1728000     196.4042         7100         1666 
 1430000    1.0247676   -3.1461654      1728000    198.08048         7150         1669 
 1440000   0.99085666   -3.3309895      1728000    199.76645         7200         1672 
 1450000   0.91541462   -3.3193211      1728000    201.49372         7250         1677 
 1460000    1.1029654   -3.3149826      1728000    203.23233         7300         1682 
 1470000    1.0191375   -3.3338082      1728000    204.97975         7350         1687 
 1480000     1.053045    -3.348209      1728000    206.68352         7400         1689 
 1490000    0.9975629   -3.2267057      1728000    208.37234         7450         1690 
 1500000   0.99142206   -3.3137174      1728000    210.04772         7500         1693 
 1510000    1.0164496   -3.1889983      1728000    211.73969         7550         1697 
 1520000   0.97611437   -3.3550077      1728000    213.48546         7600         1698 
 1530000   0.99056917   -3.1935829      1728000    215.18384         7650         1702 
 1540000    1.0030794   -3.2891638      1728000    216.85883         7700         1706 
 1550000   0.99387431   -3.1703785      1728000    218.56405         7750         1713 
 1560000   0.99485654   -3.2462209      1728000    220.25864         7800         1714 
 1570000    0.8964774    -3.383381      1728000    221.94726         7850         1716 
 1580000    1.0341234   -3.4222366      1728000    223.73144         7900         1718 
 1590000   0.99010969   -3.3427334      1728000    225.52076         7950         1723 
 1600000    1.0040169   -3.3341592      1728000    227.28795         8000         1727 
 1610000   0.99259537   -3.3400892      1728000    229.13006         8050         1728 
 1620000    0.9301337   -3.1842041      1728000    230.82143         8100         1729 
 1630000   0.97188588   -3.2649612      1728000    232.49457         8150         1733 
 1640000    1.0316657   -3.3121377      1728000    234.18481         8200         1737 
 1650000    0.9917082   -3.3293817      1728000    235.91041         8250         1737 
 1660000    1.0371238   -3.1434438      1728000    237.55147         8300         1742 
 1670000     1.012011   -3.2915932      1728000    239.19764         8350         1746 
 1680000   0.92080093   -3.2915947      1728000    240.86252         8400         1747 
 1690000    1.0618715   -3.3361037      1728000    242.53547         8450         1751 
 1700000   0.97543062   -3.3472828      1728000     244.2315         8500         1753 
 1710000   0.98697923    -3.329051      1728000    245.98162         8550         1754 
 1720000   0.98736334   -3.2382733      1728000    247.67754         8600         1759 
 1730000    1.0647836   -3.1475267      1728000    249.37144         8650         1762 
 1740000    1.0871117    -3.237192      1728000    251.08654         8700         1768 
 1750000    1.0558747   -3.2800129      1728000    252.76127         8750         1771 
 1760000   0.89044935    -3.444195      1728000    254.46943         8800         1774 
 1770000   0.96499318   -3.3810804      1728000    256.20842         8850         1777 
 1780000    1.0692444   -3.2956319      1728000    257.90457         8900         1779 
 1790000    1.0340299   -3.3927622      1728000    259.58972         8950         1780 
 1800000    0.9951959   -3.3006138      1728000     261.2814         9000         1784 
 1810000    1.0146279   -3.4471151      1728000    262.99653         9050         1787 
 1820000    1.0684196   -3.3131237      1728000    264.72759         9100         1788 
 1830000    1.0034633   -3.4133644      1728000     266.4206         9150         1791 
 1840000    1.0081237   -3.2368608      1728000    268.09547         9200         1792 
 1850000    1.0343838   -3.3301671      1728000    269.77763         9250         1797 
 1860000    0.9547985   -3.3653716      1728000    271.48144         9300         1800 
 1870000   0.91787235   -3.3744173      1728000    273.20474         9350         1804 
 1880000   0.96228271   -3.2481545      1728000    274.89762         9400         1806 
 1890000   0.99295361   -3.3528495      1728000    276.58254         9450         1807 
 1900000   0.99223676   -3.4015564      1728000    278.27453         9500         1807 
 1910000   0.98857863    -3.415752      1728000    279.98248         9550         1810 
 1920000    1.0151161   -3.3828107      1728000    281.69548         9600         1814 
 1930000   0.96384396   -3.4609482      1728000    283.43224         9650         1816 
 1940000   0.99753424   -3.2833847      1728000    285.17048         9700         1818 
 1950000    1.0308248   -3.4979084      1728000    286.92459         9750         1822 
 1960000   0.99378046   -3.5016457      1728000    288.62652         9800         1823 
 1970000   0.99315324   -3.3972706      1728000    290.31691         9850         1823 
 1980000    0.9634923   -3.4130164      1728000    292.04115         9900         1829 
 1990000   0.98111507   -3.2597104      1728000    293.74425         9950         1829 
 2000000    1.0147629   -3.2506622      1728000    295.49171        10000         1832 
 2010000   0.94189591   -3.4300199      1728000    297.18554        10050         1834 
 2020000    0.9723571   -3.3492052      1728000    298.90278        10100         1837 
 2030000   0.99109064   -3.4347559      1728000    300.62118        10150         1840 
 2040000   0.99153518   -3.3944829      1728000     302.3557        10200         1842 
 2050000   0.98797531   -3.5276968      1728000    304.09963        10250         1845 
 2060000    1.0575423   -3.5415024      1728000     305.8017        10300         1848 
 2070000   0.98258055   -3.4658969      1728000    307.53661        10350         1848 
 2080000    1.0165233     -3.50766      1728000    309.41189        10400         1852 
 2090000   0.96557264   -3.6549191      1728000     311.1572        10450         1853 
 2100000    1.0415734   -3.3868054      1728000    312.88945        10500         1856 
 2110000    1.0031252   -3.5568427      1728000    314.59755        10550         1857 
 2120000   0.99711568   -3.5681092      1728000    316.33836        10600         1859 
 2130000     1.012626   -3.5419456      1728000    318.06455        10650         1859 
 2140000   0.99529284   -3.3005146      1728000     319.8153        10700         1860 
 2150000   0.99176654      -3.5171      1728000    321.54955        10750         1865 
 2160000    1.1420333   -3.5729353      1728000     323.2843        10800         1866 
 2170000    1.0791271   -3.4191619      1728000    325.02541        10850         1867 
 2180000     1.005086   -3.5354933      1728000    326.74735        10900         1868 
 2190000    1.0097397   -3.4564719      1728000    328.47527        10950         1870 
 2200000    1.0037448   -3.5670917      1728000    330.23043        11000         1872 
 2210000    1.0065529   -3.4569113      1728000    332.00439        11050         1872 
 2220000    1.0714906   -3.5044455      1728000    333.78695        11100         1872 
 2230000    1.0389622    -3.575068      1728000    335.55027        11150         1873 
 2240000   0.99312555   -3.4616472      1728000    337.31022        11200         1875 
 2250000   0.99909949   -3.5563627      1728000    339.05657        11250         1876 
 2260000   0.95217096   -3.4874866      1728000    340.80826        11300         1879 
 2270000    1.0009303   -3.4846677      1728000    342.56152        11350         1880 
 2280000    1.0256626   -3.3933263      1728000    344.45259        11400         1882 
 2290000    1.0545039   -3.3860647      1728000    346.22377        11450         1885 
 2300000    1.0169898   -3.5463139      1728000    347.95236        11500         1889 
 2310000   0.99065972   -3.3838505      1728000    349.71437        11550         1890 
 2320000     1.017026   -3.4934142      1728000     351.4524        11600         1891 
 2330000    0.9757082   -3.5475707      1728000     353.1771        11650         1893 
 2340000   0.97566326   -3.5871822      1728000    354.88162        11700         1895 
 2350000    1.0321752   -3.3919832      1728000     356.6105        11750         1897 
 2360000    1.0258846   -3.4589536      1728000    358.32377        11800         1899 
 2370000    1.0005109   -3.5179623      1728000    360.03955        11850         1901 
 2380000   0.95402714   -3.5443917      1728000    361.76445        11900         1903 
 2390000   0.92387157   -3.5749703      1728000    363.53644        11950         1903 
 2400000    1.0081782   -3.5669751      1728000    365.30573        12000         1904 
 2410000    1.0012164   -3.4888728      1728000    367.07946        12050         1906 
 2420000    1.0046867   -3.5411472      1728000     368.8624        12100         1907 
 2430000    1.0016567   -3.5809212      1728000    370.67127        12150         1908 
 2440000    1.0154319   -3.5042786      1728000    372.45514        12200         1908 
 2450000      1.02512   -3.5062977      1728000    374.24849        12250         1908 
 2460000    1.0521288   -3.5683509      1728000    376.02829        12300         1908 
 2470000   0.96304002   -3.4922118      1728000    377.83628        12350         1910 
 2480000    1.0484911    -3.626607      1728000    379.61929        12400         1912 
 2490000   0.98893778   -3.5172389      1728000    381.40753        12450         1913 
 2500000     1.014746   -3.5764541      1728000    383.30692        12500         1913 
 2510000   0.98019326   -3.4616202      1728000    385.08634        12550         1913 
 2520000    1.0465539   -3.5187901      1728000    386.85463        12600         1917 
 2530000    1.0435793   -3.6300624      1728000     388.6333        12650         1919 
 2540000    1.0100573   -3.4326275      1728000    390.41734        12700         1923 
 2550000    1.0392407   -3.4328253      1728000    392.19397        12750         1925 
 2560000    1.0094538   -3.4934512      1728000    393.97335        12800         1926 
 2570000    1.0502958   -3.5879589      1728000    395.74593        12850         1927 
 2580000    1.0009903   -3.4501666      1728000    397.51628        12900         1929 
 2590000     1.007102   -3.5020239      1728000    399.29138        12950         1932 
 2600000   0.95445268   -3.4230637      1728000    401.05414        13000         1935 
 2610000   0.97937062    -3.586444      1728000    402.81485        13050         1940 
 2620000    0.9404319    -3.542978      1728000    404.58806        13100         1941 
 2630000    1.0548736   -3.4124903      1728000    406.38626        13150         1944 
 2640000    1.0161123   -3.4046631      1728000    408.18342        13200         1947 
 2650000    1.0042288   -3.6329437      1728000    409.96959        13250         1948 
 2660000   0.98263843   -3.4917128      1728000    411.74585        13300         1951 
 2670000      1.01167   -3.5223819      1728000    413.50126        13350         1952 
 2680000    1.0024768   -3.5127325      1728000    415.26313        13400         1952 
 2690000   0.95202295   -3.5878337      1728000    416.97306        13450         1953 
 2700000     1.001597   -3.5883841      1728000    418.70995        13500         1957 
 2710000    1.0055876   -3.4818217      1728000    420.42699        13550         1961 
 2720000    1.0356327   -3.5470661      1728000    422.17929        13600         1962 
 2730000   0.99058157   -3.5281365      1728000    423.92339        13650         1965 
 2740000    1.0975374   -3.5104735      1728000     425.6723        13700         1966 
 2750000   0.97016466   -3.5124644      1728000    427.46135        13750         1966 
 2760000    1.0547287   -3.5011288      1728000    429.22729        13800         1967 
 2770000    1.0483776   -3.5618244      1728000    430.98207        13850         1969 
 2780000    1.0157945    -3.504942      1728000    432.78314        13900         1969 
 2790000    1.0811629   -3.4485735      1728000    434.51539        13950         1970 
 2800000    1.0093007   -3.4176993      1728000    436.25316        14000         1975 
 2810000   0.98371867   -3.5147778      1728000    437.98352        14050         1976 
 2820000    1.0336489    -3.626655      1728000    439.78615        14100         1979 
 2830000    1.0375513   -3.3699528      1728000    441.55171        14150         1980 
 2840000   0.93432889   -3.6510815      1728000     443.2973        14200         1981 
 2850000    1.0080765   -3.5482902      1728000     445.1068        14250         1981 
 2860000    1.0271768    -3.554431      1728000    446.87913        14300         1983 
 2870000    1.0104479   -3.6084818      1728000    448.64732        14350         1983 
 2880000    1.0412469   -3.6178005      1728000    450.41367        14400         1985 
 2890000    1.0353935   -3.4376109      1728000    452.18599        14450         1987 
 2900000    1.0290446   -3.6303285      1728000    454.05558        14500         1989 
 2910000    0.9950819    -3.587925      1728000     455.8341        14550         1989 
 2920000    1.0587708   -3.5487695      1728000    457.58741        14600         1990 
 2930000   0.90196408   -3.5482662      1728000    459.31216        14650         1991 
 2940000    0.9911753   -3.5310793      1728000    461.08333        14700         1994 
 2950000    1.0477278    -3.656876      1728000    462.83583        14750         1994 
 2960000    1.0004723   -3.5386598      1728000    464.61414        14800         1995 
 2970000    1.0144556   -3.4176814      1728000    466.42534        14850         1998 
 2980000     1.002163   -3.5484816      1728000    468.29943        14900         1998 
 2990000   0.99689405    -3.550027      1728000    470.11357        14950         1999 
 3000000    1.0095404   -3.6396507      1728000    471.91308        15000         2001 
 3010000    1.0053645   -3.6927289      1728000    473.77601        15050         2001 
 3020000   0.99888276   -3.5714795      1728000     475.5177        15100         2003 
 3030000   0.97969932   -3.4702644      1728000    477.39105        15150         2006 
 3040000   0.95343802   -3.6356018      1728000    479.12104        15200         2007 
 3050000    1.0171207   -3.5204126      1728000    480.95604        15250         2009 
 3060000    1.0486156   -3.5350325      1728000    482.77418        15300         2009 
 3070000   0.93375874   -3.5393226      1728000    484.52135        15350         2012 
 3080000     1.010056   -3.4567992      1728000    486.31095        15400         2014 
 3090000    1.0232228   -3.6342737      1728000    488.12894        15450         2016 
 3100000    1.0357997   -3.5423138      1728000    489.99802        15500         2017 
 3110000    1.0337486   -3.5639641      1728000    491.75517        15550         2020 
 3120000   0.94907703   -3.6064866      1728000    493.49225        15600         2021 
 3130000   0.96224575   -3.5179448      1728000    495.26635        15650         2021 
 3140000   0.95512904    -3.622985      1728000     497.0132        15700         2021 
 3150000   0.99853177   -3.5091034      1728000    498.76423        15750         2022 
 3160000    0.9896611   -3.5227147      1728000    500.49911        15800         2025 
 3170000   0.97148794   -3.5396179      1728000    502.26522        15850         2027 
 3180000    1.0108997   -3.5147034      1728000    504.03519        15900         2028 
 3190000    1.0903761   -3.5853142      1728000    505.79647        15950         2031 
 3200000   0.95769024   -3.5257987      1728000    507.57981        16000         2032 
 3210000    1.0873133   -3.4783892      1728000    509.36429        16050         2033 
 3220000    1.0095811   -3.4298525      1728000    511.13138        16100         2035 
 3230000    1.0185101   -3.5735059      1728000    512.88376        16150         2035 
 3240000    1.0555843   -3.5328681      1728000    514.68295        16200         2036 
 3250000    1.0009588   -3.4624384      1728000    516.44918        16250         2036 
 3260000   0.98699201    -3.577951      1728000    518.22247        16300         2036 
 3270000   0.97414546   -3.5937094      1728000     519.9835        16350         2037 
 3280000    1.0236869    -3.568035      1728000    521.73218        16400         2039 
 3290000   0.99168406   -3.5740458      1728000    523.53264        16450         2041 
 3300000   0.98410737   -3.6316355      1728000     525.2917        16500         2043 
 3310000    1.0481133   -3.3950558      1728000    527.03118        16550         2043 
 3320000    1.0099184   -3.5643308      1728000    528.73656        16600         2045 
 3330000   0.98171588   -3.6865012      1728000     530.4712        16650         2046 
 3340000   0.96721552   -3.4655796      1728000    532.20618        16700         2049 
 3350000    1.0049272    -3.566058      1728000    534.03428        16750         2051 
 3360000    1.0218676   -3.5462231      1728000    535.77206        16800         2054 
 3370000    1.0117759   -3.5386468      1728000    537.50227        16850         2055 
 3380000    1.0298413   -3.4572817      1728000    539.22892        16900         2055 
 3390000   0.92554897   -3.4776171      1728000    540.95508        16950         2058 
 3400000   0.99402412   -3.4703645      1728000    542.68937        17000         2059 
 3410000   0.97194778   -3.4502536      1728000    544.40718        17050         2061 
 3420000    1.0427009   -3.5270235      1728000    546.23044        17100         2061 
 3430000    1.0144004   -3.6608872      1728000    547.95316        17150         2064 
 3440000   0.99323816   -3.5242091      1728000    549.69091        17200         2065 
 3450000    1.0228743   -3.5533125      1728000    551.40302        17250         2065 
 3460000   0.95250559   -3.5796475      1728000    553.12313        17300         2067 
 3470000    1.0004677   -3.5002925      1728000    554.84917        17350         2068 
 3480000   0.95261343   -3.4474659      1728000    556.55138        17400         2070 
 3490000    1.0810079   -3.5080805      1728000    558.26431        17450         2071 
 3500000   0.96247525   -3.4829241      1728000     559.9802        17500         2073 
 3510000     1.003694   -3.4355472      1728000    561.70816        17550         2074 
 3520000    1.0258243    -3.541323      1728000    563.41521        17600         2076 
 3530000   0.97641556   -3.5061364      1728000    565.12612        17650         2078 
 3540000    1.0296575   -3.5279655      1728000    566.83499        17700         2079 
 3550000   0.96264297    -3.492593      1728000    568.54197        17750         2082 
 3560000    1.0729364   -3.5578467      1728000    570.25807        17800         2083 
 3570000    1.0306654   -3.5503627      1728000    571.99305        17850         2083 
 3580000    1.0125974   -3.5435078      1728000    573.71512        17900         2083 
 3590000   0.97052549   -3.5005183      1728000    575.49409        17950         2084 
 3600000   0.99236073   -3.4563664      1728000    577.23409        18000         2086 
 3610000    1.0100907   -3.4912395      1728000    578.96414        18050         2090 
 3620000    0.9700109   -3.5804783      1728000    580.69193        18100         2090 
 3630000    1.0023735   -3.5722198      1728000    582.42095        18150         2093 
 3640000   0.94671495   -3.5916326      1728000    584.14001        18200         2098 
 3650000   0.93585574   -3.4649828      1728000    585.85898        18250         2099 
 3660000    1.0106512   -3.5275714      1728000    587.58307        18300         2101 
 3670000    1.0187963   -3.4076314      1728000     589.3051        18350         2101 
 3680000    1.0139789   -3.4384733      1728000    591.00587        18400         2102 
 3690000    1.0493618   -3.4619234      1728000    592.73146        18450         2104 
 3700000   0.92297874   -3.4272961      1728000    594.45093        18500         2107 
 3710000   0.92861416   -3.4196905      1728000    596.15244        18550         2107 
 3720000   0.99496848   -3.4604826      1728000     597.8782        18600         2109 
 3730000   0.96808351   -3.4213878      1728000      599.622        18650         2113 
 3740000   0.99065642   -3.5459217      1728000    601.37505        18700         2115 
 3750000    0.9480023   -3.4681256      1728000    603.10597        18750         2116 
 3760000    1.0034299   -3.5310279      1728000    604.84419        18800         2121 
 3770000     1.015124   -3.4595688      1728000     606.5797        18850         2121 
 3780000    1.1214729   -3.5303845      1728000    608.37098        18900         2124 
 3790000   0.98039886   -3.4603998      1728000    610.24921        18950         2126 
 3800000    1.0651462   -3.4314299      1728000    612.13327        19000         2129 
 3810000    1.0015172   -3.4370381      1728000    613.92543        19050         2130 
 3820000   0.96557018   -3.4876788      1728000     615.7127        19100         2131 
 3830000    1.0294718   -3.4378308      1728000    617.53884        19150         2132 
 3840000    1.0034012   -3.5705901      1728000    619.36196        19200         2136 
 3850000    1.0185403     -3.66824      1728000    621.16635        19250         2140 
 3860000    1.0206922   -3.7259906      1728000    622.92453        19300         2141 
 3870000   0.95189339   -3.4062676      1728000    624.79761        19350         2142 
 3880000   0.96034593   -3.4858979      1728000    626.54259        19400         2144 
 3890000    0.9879829   -3.5058785      1728000    628.34575        19450         2147 
 3900000    1.0310147   -3.4250365      1728000    630.13691        19500         2149 
 3910000   0.97522381   -3.6132207      1728000    631.91813        19550         2150 
 3920000    1.0117912   -3.5554889      1728000    633.66742        19600         2154 
 3930000   0.97611613   -3.4430321      1728000    635.43961        19650         2154 
 3940000   0.93184165   -3.3813462      1728000    637.20082        19700         2156 
 3950000   0.97734371   -3.5509605      1728000    638.92219        19750         2157 
 3960000    1.0327454   -3.5728343      1728000    640.63949        19800         2159 
 3970000   0.99029553   -3.6367995      1728000    642.36552        19850         2159 
 3980000   0.98598422   -3.4146126      1728000     644.1065        19900         2160 
 3990000    1.0231274   -3.5143835      1728000     645.8597        19950         2161 
 4000000   0.97140469   -3.5879924      1728000    647.71001        20000         2163 
 4010000    1.0166441   -3.5855291      1728000    649.51303        20050         2163 
 4020000    1.0106858   -3.5667831      1728000    651.33292        20100         2163 
 4030000    1.0415533   -3.6471309      1728000    653.21093        20150         2164 
 4040000    1.0219688   -3.6105185      1728000    654.96482        20200         2165 
 4050000   0.99047426   -3.6067475      1728000    656.70281        20250         2167 
 4060000   0.96451708   -3.5417365      1728000    658.44495        20300         2167 
 4070000    1.0181902   -3.5706549      1728000    660.17383        20350         2168 
 4080000    1.0265863   -3.4278676      1728000    661.89601        20400         2170 
 4090000     1.006819   -3.4305209      1728000    663.63984        20450         2171 
 4100000    1.0352925   -3.5587223      1728000     665.3677        20500         2174 
 4110000   0.97959947   -3.6044675      1728000    667.09839        20550         2176 
 4120000   0.96451318   -3.4085215      1728000    668.83473        20600         2178 
 4130000   0.99803822   -3.4213582      1728000    670.59605        20650         2178 
 4140000   0.96977329   -3.4194044      1728000    672.36387        20700         2180 
 4150000    1.0549638   -3.5244196      1728000     674.0977        20750         2181 
 4160000   0.98090786   -3.5563096      1728000    675.88798        20800         2182 
 4170000    1.0261639   -3.4601038      1728000     677.6394        20850         2184 
 4180000    1.0415927   -3.4760878      1728000    679.43757        20900         2185 
 4190000   0.99046722   -3.4983891      1728000    681.19291        20950         2189 
 4200000    1.0393877   -3.6000649      1728000    682.93794        21000         2190 
 4210000    1.0442712    -3.504602      1728000    684.69187        21050         2192 
 4220000   0.99044515   -3.5840453      1728000    686.53171        21100         2193 
 4230000   0.93774459   -3.5550154      1728000    688.29873        21150         2193 
 4240000   0.94542633    -3.523434      1728000    690.03393        21200         2194 
 4250000   0.99177898   -3.3494272      1728000    691.81442        21250         2194 
 4260000   0.97677916   -3.7472902      1728000    693.58139        21300         2196 
 4270000    0.9762459   -3.5504398      1728000    695.33861        21350         2197 
 4280000    1.0560622   -3.6280966      1728000    697.06764        21400         2202 
 4290000    1.0540714   -3.4836149      1728000    698.85404        21450         2207 
 4300000    1.0073219   -3.7609725      1728000    700.60985        21500         2211 
 4310000    0.9894929   -3.4420171      1728000    702.34894        21550         2211 
 4320000    1.0231627   -3.5279021      1728000    704.11527        21600         2212 
 4330000    1.0010999   -3.5317756      1728000    705.89244        21650         2213 
 4340000     1.105276    -3.483652      1728000     707.6563        21700         2215 
 4350000   0.97393462    -3.525235      1728000     709.4031        21750         2215 
 4360000    1.0280261    -3.553021      1728000    711.14679        21800         2215 
 4370000    1.0224406    -3.533638      1728000    712.90089        21850         2217 
 4380000    1.0167462   -3.4385374      1728000    714.64323        21900         2218 
 4390000   0.98019531   -3.5898893      1728000     716.3672        21950         2221 
 4400000    0.9835797   -3.6102568      1728000    718.09288        22000         2221 
 4410000    1.0278669   -3.4263666      1728000    719.82288        22050         2221 
 4420000    0.9384665   -3.4765491      1728000    721.56052        22100         2221 
 4430000    1.0231168   -3.4387833      1728000    723.26279        22150         2221 
 4440000    1.0010414   -3.5696296      1728000     725.0017        22200         2223 
 4450000    1.0012236   -3.4876094      1728000    726.76473        22250         2226 
 4460000    0.9290747   -3.4637571      1728000    728.49307        22300         2227 
 4470000   0.93981299   -3.6080431      1728000    730.21989        22350         2227 
 4480000   0.99775577   -3.5982577      1728000    731.94252        22400         2227 
 4490000    1.0081889     -3.50747      1728000    733.65444        22450         2227 
 4500000    1.0260567   -3.4021309      1728000    735.43497        22500         2229 
 4510000     1.011638   -3.4828726      1728000    737.14426        22550         2230 
 4520000    1.0146458   -3.3771065      1728000    738.89618        22600         2231 
 4530000     1.022922   -3.4953524      1728000    740.66807        22650         2231 
 4540000   0.99289285   -3.5528594      1728000    742.43856        22700         2232 
 4550000   0.98717543   -3.5446341      1728000    744.17907        22750         2233 
 4560000   0.99262701   -3.4837354      1728000    745.88864        22800         2233 
 4570000    0.9217399   -3.6489977      1728000    747.65342        22850         2233 
 4580000    1.0457059   -3.4320431      1728000    749.49854        22900         2234 
 4590000    1.0238334    -3.718106      1728000     751.2805        22950         2237 
 4600000    1.0444369   -3.6100251      1728000    753.09669        23000         2237 
 4610000    1.0663527   -3.6276839      1728000    754.86388        23050         2237 
 4620000   0.97920306   -3.6550018      1728000    756.60494        23100         2238 
 4630000    1.0260416   -3.5336901      1728000    758.32537        23150         2241 
 4640000   0.99572464   -3.5436575      1728000    760.07273        23200         2243 
 4650000   0.97079996   -3.5827245      1728000    761.80665        23250         2246 
 4660000    1.0430682   -3.5554819      1728000     763.5934        23300         2247 
 4670000    1.0701212   -3.4695112      1728000    765.34734        23350         2248 
 4680000     1.035442   -3.6238848      1728000     767.1456        23400         2249 
 4690000    1.0624669   -3.6540219      1728000    768.92473        23450         2249 
 4700000   0.99267892   -3.4688943      1728000    770.71872        23500         2251 
 4710000    1.0230113   -3.6194474      1728000    772.47571        23550         2253 
 4720000   0.95322586   -3.5954353      1728000     774.2668        23600         2253 
 4730000    1.0109947    -3.573061      1728000     775.9937        23650         2254 
 4740000    1.0029833   -3.5661338      1728000    777.88189        23700         2255 
 4750000    1.0070404   -3.4316502      1728000    779.61483        23750         2258 
 4760000    1.0359631   -3.5181893      1728000    781.40144        23800         2259 
 4770000   0.99467487   -3.5255105      1728000    783.17762        23850         2259 
 4780000    0.9685881   -3.5752893      1728000    784.94289        23900         2259 
 4790000   0.98104102    -3.521786      1728000    786.74627        23950         2259 
 4800000   0.99585671   -3.5464048      1728000    788.57241        24000         2261 
 4810000   0.98950828   -3.5461775      1728000    790.39259        24050         2261 
 4820000   0.97364685   -3.5931656      1728000    792.23017        24100         2261 
 4830000   0.97379386    -3.548584      1728000    794.01591        24150         2262 
 4840000    1.0399817   -3.5595833      1728000    795.74228        24200         2265 
 4850000    1.0136653   -3.4923088      1728000    797.46059        24250         2265 
 4860000   0.98544291   -3.4454838      1728000    799.20831        24300         2267 
 4870000    1.0018255   -3.5245009      1728000       801.03        24350         2267 
 4880000    1.0188936   -3.5220502      1728000    802.83015        24400         2267 
 4890000   0.98482059   -3.5119357      1728000     804.5647        24450         2267 
 4900000    1.0328215   -3.4875238      1728000    806.32149        24500         2269 
 4910000   0.96571379   -3.5945491      1728000    808.11853        24550         2271 
 4920000   0.97402965   -3.4445204      1728000    809.92593        24600         2273 
 4930000    1.0131445    -3.588415      1728000     811.7064        24650         2273 
 4940000    1.0429435   -3.6686087      1728000    813.49555        24700         2274 
 4950000    1.0309479   -3.6182599      1728000    815.31669        24750         2277 
 4960000    1.0091364   -3.3682485      1728000    817.10985        24800         2279 
 4970000    0.9495023   -3.4719033      1728000    818.81708        24850         2283 
 4980000   0.99096617   -3.5559286      1728000    820.53666        24900         2284 
 4990000   0.96800269   -3.4832242      1728000     822.3326        24950         2285 
 5000000     1.072323   -3.4516755      1728000    824.16925        25000         2286 
 5010000    1.0176245   -3.5178367      1728000    825.89988        25050         2287 
 5020000    1.0016253   -3.5637295      1728000    827.63948        25100         2291 
 5030000   0.96183177    -3.461097      1728000    829.41163        25150         2291 
 5040000     1.005729   -3.4978253      1728000    831.17964        25200         2291 
 5050000    1.0033052   -3.5604445      1728000    832.91844        25250         2294 
 5060000   0.96932123    -3.666699      1728000    834.66438        25300         2295 
 5070000    1.0367295   -3.5545526      1728000    836.40578        25350         2297 
 5080000   0.93196797    -3.670336      1728000    838.14164        25400         2298 
 5090000   0.97343979   -3.4890702      1728000    839.86659        25450         2299 
 5100000    1.0174543   -3.6410042      1728000    841.60667        25500         2300 
 5110000   0.98644398    -3.461738      1728000    843.35665        25550         2301 
 5120000    1.0073848    -3.510626      1728000    845.07165        25600         2305 
 5130000    1.0157166   -3.6047311      1728000    846.79446        25650         2307 
 5140000   0.94809395   -3.5561401      1728000    848.62928        25700         2307 
 5150000   0.96150301   -3.5847545      1728000    850.47075        25750         2307 
 5160000    1.0535521   -3.5570763      1728000    852.32685        25800         2310 
 5170000   0.97511397   -3.5141302      1728000    854.19713        25850         2310 
 5180000   0.99386018   -3.4486299      1728000    856.14912        25900         2314 
 5190000    1.0772347   -3.4557118      1728000    857.91546        25950         2315 
 5200000   0.96792472   -3.5222829      1728000    859.66157        26000         2316 
 5210000   0.99432511   -3.5824507      1728000     861.4887        26050         2319 
 5220000    0.9776616   -3.4864165      1728000    863.26242        26100         2322 
 5230000   0.99534199   -3.4983446      1728000    865.01799        26150         2327 
 5240000   0.99189707   -3.5398588      1728000    866.98496        26200         2328 
 5250000    1.0256143   -3.3937665      1728000    868.87701        26250         2331 
 5260000    1.0468837   -3.4680796      1728000    870.69215        26300         2333 
 5270000     1.018387   -3.3248573      1728000    872.66513        26350         2335 
 5280000   0.93608843   -3.5715218      1728000    874.51923        26400         2337 
 5290000    1.0059956   -3.6226261      1728000    876.34136        26450         2339 
 5300000    1.0503215   -3.5951852      1728000    878.15252        26500         2342 
 5310000    1.0437575   -3.5818298      1728000    879.95068        26550         2342 
 5320000    1.0402528   -3.6351387      1728000    881.74427        26600         2343 
 5330000    1.0723335   -3.6340866      1728000    883.51244        26650         2344 
 5340000    0.9829188   -3.6570401      1728000    885.32458        26700         2346 
 5350000   0.99683572   -3.3919154      1728000    887.07182        26750         2348 
 5360000    1.0038804   -3.3862137      1728000    888.88443        26800         2350 
 5370000   0.92658247   -3.4412362      1728000    890.69316        26850         2353 
 5380000    1.0311543   -3.5157957      1728000    892.49333        26900         2356 
 5390000   0.99015419   -3.5534397      1728000    894.34136        26950         2357 
 5400000    1.0602549   -3.4842803      1728000    896.16649        27000         2358 
 5410000   0.95123694    -3.538421      1728000    897.99749        27050         2360 
 5420000    1.0237567   -3.4491166      1728000    899.86673        27100         2360 
 5430000    1.0470545    -3.701529      1728000     901.7199        27150         2363 
 5440000   0.98287196   -3.5805226      1728000    903.53389        27200         2365 
 5450000    1.0037353   -3.3376489      1728000    905.35804        27250         2367 
 5460000   0.95893296   -3.5262622      1728000    907.23611        27300         2368 
 5470000    1.0379979    -3.526773      1728000    909.10613        27350         2368 
 5480000   0.95119119   -3.5603564      1728000    910.94423        27400         2369 
 5490000    1.0107246   -3.4894828      1728000    912.84828        27450         2370 
 5500000    1.0194431    -3.465961      1728000    914.73734        27500         2372 
 5510000     1.037286   -3.5627249      1728000    916.68159        27550         2372 
 5520000   0.95525368    -3.523321      1728000    918.55167        27600         2375 
 5530000   0.97060235   -3.5229934      1728000     920.3713        27650         2377 
 5540000    0.9866211    -3.562499      1728000    922.22045        27700         2378 
 5550000   0.97910597   -3.5396656      1728000    924.02069        27750         2381 
 5560000    1.0398179   -3.4941939      1728000    925.82394        27800         2384 
 5570000    1.0215791   -3.5208548      1728000    927.77194        27850         2385 
 5580000    0.9719815   -3.3925201      1728000    929.75291        27900         2387 
 5590000   0.96525461   -3.5807939      1728000    931.64897        27950         2389 
 5600000   0.90719765   -3.5345176      1728000       933.57        28000         2389 
 5610000    1.0093293   -3.5034702      1728000    935.49603        28050         2390 
 5620000    1.0126661   -3.4938468      1728000    937.32416        28100         2390 
 5630000    1.0291351   -3.4087874      1728000     939.2452        28150         2391 
 5640000   0.97050047   -3.4664249      1728000    941.04835        28200         2391 
 5650000   0.97495956    -3.348648      1728000    942.83958        28250         2391 
 5660000   0.97901184   -3.5839679      1728000    944.62876        28300         2392 
 5670000   0.93461277   -3.6676136      1728000    946.50483        28350         2395 
 5680000    1.0152704   -3.6180512      1728000    948.42887        28400         2397 
 5690000    1.0327669   -3.3651437      1728000      950.235        28450         2400 
 5700000   0.96894049   -3.4965026      1728000    952.11408        28500         2402 
 5710000   0.95632758     -3.44423      1728000    953.91823        28550         2403 
 5720000   0.97393414    -3.369669      1728000    955.73238        28600         2405 
 5730000    1.0351971   -3.5346033      1728000    957.51554        28650         2406 
 5740000    1.0035167    -3.473957      1728000    959.31571        28700         2407 
 5750000     1.015051   -3.5662419      1728000    961.10187        28750         2408 
 5760000   0.99460829   -3.4340137      1728000    962.91401        28800         2410 
 5770000   0.95999516   -3.5106609      1728000    964.77011        28850         2411 
 5780000    1.0574602   -3.4863392      1728000    966.55328        28900         2412 
 5790000   0.98234123   -3.6577389      1728000    968.35943        28950         2413 
 5800000   0.99420815   -3.5257918      1728000    970.20654        29000         2416 
 5810000    1.0407582   -3.5535418      1728000    971.99471        29050         2417 
 5820000   0.96671562   -3.5661497      1728000    973.84181        29100         2418 
 5830000    1.0243158   -3.6484275      1728000    975.67493        29150         2418 
 5840000    1.0086699   -3.5335363      1728000    977.60896        29200         2419 
 5850000    0.9867375     -3.55891      1728000    979.40911        29250         2419 
 5860000    1.0485105   -3.5165159      1728000     981.1992        29300         2420 
 5870000    0.9780918   -3.5832881      1728000    983.05132        29350         2420 
 5880000   0.98891157   -3.6211692      1728000    984.87147        29400         2420 
 5890000    1.0183854   -3.7049845      1728000    986.70676        29450         2421 
 5900000   0.98372369   -3.5793999      1728000     988.4582        29500         2422 
 5910000      1.03122   -3.5811226      1728000    990.19044        29550         2423 
 5920000   0.92287269   -3.5935514      1728000     991.9185        29600         2424 
 5930000   0.99027677   -3.5622752      1728000    993.68034        29650         2426 
 5940000    1.0531957   -3.6036563      1728000    995.42521        29700         2426 
 5950000   0.90968024   -3.6081679      1728000    997.19331        29750         2426 
 5960000     1.041639   -3.5639208      1728000    998.99438        29800         2429 
 5970000     1.007974   -3.5241206      1728000    1000.7274        29850         2431 
 5980000   0.99741991   -3.4632623      1728000    1002.6016        29900         2433 
 5990000   0.98462385   -3.5350642      1728000    1004.4957        29950         2434 
 6000000   0.98969276   -3.5156414      1728000    1006.3368        30000         2437 
 6010000    1.0020782   -3.6817697      1728000    1008.1439        30050         2438 
 6020000   0.99505962   -3.6240898      1728000    1009.9951        30100         2440 
 6030000    1.0118779    -3.642289      1728000    1011.8441        30150         2441 
 6040000    1.0071497   -3.5552514      1728000    1013.6637        30200         2442 
 6050000   0.99921183   -3.6253198      1728000    1015.5008        30250         2443 
 6060000   0.96419708   -3.7055874      1728000    1017.3389        30300         2443 
 6070000     1.082074   -3.6425685      1728000     1019.162        30350         2445 
 6080000    1.0728285   -3.6169665      1728000    1020.9652        30400         2446 
 6090000    1.0014308   -3.5746854      1728000    1022.7534        30450         2447 
 6100000    1.0270317   -3.6756761      1728000    1024.6344        30500         2447 
 6110000    0.9824115   -3.6448862      1728000    1026.4116        30550         2447 
 6120000     1.000862   -3.5929672      1728000    1028.2267        30600         2447 
 6130000    1.0764183   -3.5414984      1728000    1030.0299        30650         2448 
 6140000   0.99240141   -3.5230745      1728000     1031.875        30700         2449 
 6150000   0.97491222   -3.6294879      1728000    1033.6981        30750         2449 
 6160000    1.0471317   -3.6309133      1728000    1035.4953        30800         2450 
 6170000    1.0599797   -3.6862135      1728000    1037.3494        30850         2451 
 6180000   0.96624334   -3.6595471      1728000    1039.1895        30900         2452 
 6190000   0.95574561    -3.584211      1728000    1040.9787        30950         2454 
 6200000    1.0319844   -3.5724311      1728000    1042.7848        31000         2456 
 6210000    1.0263724   -3.5995126      1728000    1044.6359        31050         2457 
 6220000    1.0150363   -3.5591554      1728000    1046.4421        31100         2459 
 6230000   0.98759875    -3.594869      1728000    1048.2294        31150         2462 
 6240000   0.95941963   -3.6638009      1728000    1050.0856        31200         2463 
 6250000   0.97178172   -3.7453016      1728000    1051.9297        31250         2464 
 6260000   0.98293124   -3.6101216      1728000    1053.8157        31300         2465 
 6270000    1.0073846   -3.5694831      1728000    1055.6448        31350         2466 
 6280000   0.99440145   -3.7251874      1728000    1057.5359        31400         2467 
 6290000   0.96510635    -3.673682      1728000     1059.395        31450         2467 
 6300000   0.99132013   -3.6755515      1728000    1061.2311        31500         2467 
 6310000    1.0025463   -3.5514598      1728000    1063.0163        31550         2468 
 6320000    1.0564015   -3.6016763      1728000    1064.7546        31600         2470 
 6330000    1.0155509   -3.6100322      1728000    1066.4973        31650         2471 
 6340000   0.98263961   -3.5575301      1728000    1068.2358        31700         2471 
 6350000   0.98009743   -3.7264461      1728000    1069.9922        31750         2472 
 6360000   0.94609859    -3.573843      1728000    1071.7372        31800         2473 
 6370000    1.0362221   -3.6617072      1728000    1073.4673        31850         2474 
 6380000    1.0174127   -3.5499348      1728000    1075.2242        31900         2476 
 6390000   0.92616237    -3.554152      1728000    1076.9553        31950         2477 
 6400000   0.99691883   -3.5248781      1728000     1078.698        32000         2478 
 6410000    1.0586655   -3.7478905      1728000    1080.4613        32050         2480 
 6420000   0.96507016   -3.6602407      1728000    1082.2292        32100         2482 
 6430000    1.0128519     -3.77244      1728000    1084.0523        32150         2482 
 6440000   0.92673101   -3.5254563      1728000    1085.8945        32200         2483 
 6450000   0.97377498   -3.5999284      1728000    1087.7856        32250         2484 
 6460000     1.017079   -3.5791614      1728000    1089.6566        32300         2484 
 6470000    1.0118277   -3.6577945      1728000    1091.4848        32350         2488 
 6480000     1.033235   -3.5954352      1728000     1093.258        32400         2490 
 6490000    1.0000149   -3.5221411      1728000    1095.0743        32450         2491 
 6500000    1.0152657   -3.6544265      1728000    1096.9669        32500         2492 
 6510000    1.0783379    -3.719141      1728000    1098.8445        32550         2493 
 6520000    1.0467196   -3.7151684      1728000    1100.6996        32600         2493 
 6530000   0.98516004   -3.6687086      1728000    1102.5071        32650         2493 
 6540000    1.0353292   -3.7501204      1728000    1104.3433        32700         2493 
 6550000    1.0473255   -3.6426793      1728000    1106.2064        32750         2493 
 6560000    1.0078986   -3.6415216      1728000    1108.1035        32800         2495 
 6570000   0.94540323   -3.7835888      1728000     1109.883        32850         2495 
 6580000   0.96438201   -3.6556416      1728000    1111.6838        32900         2496 
 6590000   0.95544644   -3.6997825      1728000    1113.5108        32950         2496 
 6600000    1.0238997   -3.6630915      1728000    1115.3601        33000         2498 
 6610000    1.0535868   -3.6076785      1728000    1117.1952        33050         2498 
 6620000    1.0693886   -3.5215454      1728000    1118.9908        33100         2498 
 6630000    1.0408316    -3.685294      1728000    1120.8237        33150         2498 
 6640000    1.0322478   -3.6993622      1728000    1122.6159        33200         2501 
 6650000   0.99225515   -3.7071366      1728000    1124.4192        33250         2501 
 6660000    1.0674464   -3.5588715      1728000    1126.2075        33300         2502 
 6670000   0.94602769   -3.5202791      1728000     1127.963        33350         2504 
 6680000   0.96826995   -3.5660492      1728000    1129.7404        33400         2505 
 6690000    1.0010007   -3.5686671      1728000    1131.5006        33450         2506 
 6700000   0.96790899   -3.5713935      1728000     1133.323        33500         2506 
 6710000    1.0362784   -3.6128387      1728000     1135.148        33550         2506 
 6720000    1.0794644    -3.605463      1728000    1137.0132        33600         2507 
 6730000   0.96085664   -3.6545309      1728000    1138.7865        33650         2508 
 6740000    1.0052475   -3.4828446      1728000    1140.5162        33700         2511 
 6750000    1.0433107    -3.564392      1728000    1142.2887        33750         2513 
 6760000   0.93533804   -3.5277907      1728000    1144.0172        33800         2515 
 6770000    0.9840281    -3.577733      1728000    1145.7932        33850         2515 
 6780000    1.0300482   -3.6392323      1728000    1147.5722        33900         2515 
 6790000   0.96302692   -3.5167859      1728000    1149.4129        33950         2518 
 6800000   0.93172806     -3.57978      1728000    1151.1766        34000         2519 
 6810000   0.89523526   -3.6205812      1728000    1152.9459        34050         2521 
 6820000   0.98262871    -3.685932      1728000     1154.707        34100         2521 
 6830000   0.97412069   -3.6486739      1728000    1156.4731        34150         2523 
 6840000    1.0134658   -3.5665761      1728000    1158.2361        34200         2524 
 6850000    1.0490924   -3.6712061      1728000    1160.0468        34250         2527 
 6860000   0.99740176   -3.6359049      1728000    1161.8456        34300         2527 
 6870000     1.015654   -3.4809151      1728000    1163.6878        34350         2531 
 6880000    1.0612238   -3.4397849      1728000    1165.4849        34400         2532 
 6890000   0.91893614   -3.5301451      1728000     1167.308        34450         2534 
 6900000    1.0317913   -3.6264504      1728000     1169.201        34500         2534 
 6910000   0.96247001   -3.5091354      1728000    1171.0331        34550         2534 
 6920000    1.0155152   -3.5033414      1728000    1172.7876        34600         2535 
 6930000   0.99973962   -3.4080239      1728000     1174.535        34650         2536 
 6940000    1.0500521   -3.6391909      1728000    1176.2646        34700         2538 
 6950000    1.0239321   -3.5428478      1728000    1178.0489        34750         2538 
 6960000   0.99042546   -3.4719368      1728000    1179.8251        34800         2539 
 6970000    1.0427284   -3.5119857      1728000    1181.6233        34850         2541 
 6980000    1.0130377   -3.5184792      1728000    1183.4126        34900         2544 
 6990000   0.97121042    -3.511466      1728000    1185.2039        34950         2544 
 7000000   0.97600895   -3.4124551      1728000    1187.0612        35000         2547 
 7010000    1.0077537   -3.5225695      1728000    1188.8556        35050         2548 
 7020000     1.010914   -3.6362429      1728000    1190.6398        35100         2551 
 7030000    1.0108453   -3.5852905      1728000     1192.387        35150         2554 
 7040000    1.0148968   -3.6004392      1728000    1194.1592        35200         2557 
 7050000   0.99573837   -3.5144225      1728000     1195.946        35250         2558 
 7060000    1.0222755     -3.57915      1728000    1197.6607        35300         2560 
 7070000     1.007031   -3.5190524      1728000    1199.4171        35350         2564 
 7080000    1.0276432   -3.6425289      1728000    1201.1537        35400         2565 
 7090000    1.0320497   -3.5900152      1728000    1202.9297        35450         2565 
 7100000    1.0422419   -3.5411214      1728000     1204.715        35500         2565 
 7110000    1.0322911    -3.508837      1728000    1206.5162        35550         2568 
 7120000   0.98030046   -3.6419921      1728000    1208.2758        35600         2571 
 7130000    1.0248114   -3.4154186      1728000     1210.039        35650         2573 
 7140000    1.0023452   -3.4753946      1728000    1211.7964        35700         2573 
 7150000   0.92065205   -3.4958507      1728000     1213.535        35750         2576 
 7160000   0.97255204   -3.6446921      1728000    1215.3951        35800         2579 
 7170000   0.99796954    -3.538233      1728000    1217.1764        35850         2581 
 7180000    1.0266224   -3.5844218      1728000    1218.9546        35900         2581 
 7190000    1.0056149   -3.6423909      1728000    1220.7515        35950         2585 
 7200000     1.060835   -3.6355588      1728000    1222.5349        36000         2585 
 7210000   0.98465542   -3.6299836      1728000    1224.3841        36050         2588 
 7220000    0.9883199   -3.6238633      1728000    1226.1682        36100         2589 
 7230000    1.0023176    -3.567682      1728000    1227.9181        36150         2590 
 7240000    1.0080334   -3.5913097      1728000     1229.658        36200         2591 
 7250000    1.0374852   -3.4321332      1728000    1231.3791        36250         2592 
 7260000   0.94375963   -3.6145315      1728000    1233.1878        36300         2594 
 7270000    1.0457533   -3.5613525      1728000    1234.9509        36350         2594 
 7280000    0.9977598   -3.5225309      1728000    1236.7019        36400         2595 
 7290000    1.0176781   -3.6304817      1728000    1238.4302        36450         2597 
 7300000    1.0505973   -3.6819368      1728000    1240.2309        36500         2598 
 7310000   0.98746311   -3.3955061      1728000    1242.0573        36550         2598 
 7320000   0.97312546    -3.584532      1728000    1243.8105        36600         2598 
 7330000     1.099917   -3.6362079      1728000    1245.5419        36650         2599 
 7340000   0.93968614   -3.5195266      1728000    1247.3199        36700         2600 
 7350000   0.97242357   -3.6690859      1728000    1249.1002        36750         2601 
 7360000    1.0672478   -3.5857434      1728000    1250.8339        36800         2602 
 7370000    1.0007041   -3.5876151      1728000     1252.603        36850         2604 
 7380000   0.96059736   -3.4896931      1728000     1254.459        36900         2605 
 7390000   0.99854008   -3.6162117      1728000    1256.2022        36950         2606 
 7400000   0.95846803    -3.711394      1728000    1257.9358        37000         2610 
 7410000   0.99476846   -3.5756769      1728000      1259.72        37050         2612 
 7420000    1.0263243   -3.6249121      1728000    1261.4709        37100         2613 
 7430000   0.96984284   -3.6508054      1728000    1263.4409        37150         2614 
 7440000    1.0467154   -3.5900461      1728000    1265.2231        37200         2615 
 7450000    1.0294736   -3.6319754      1728000    1267.0256        37250         2615 
 7460000    1.0174102   -3.7241146      1728000    1268.8075        37300         2616 
 7470000   0.93918644   -3.3940884      1728000    1270.6369        37350         2616 
 7480000    1.0158642   -3.5637249      1728000    1272.3811        37400         2618 
 7490000    1.0044516   -3.5268436      1728000    1274.1773        37450         2619 
 7500000    1.0045194   -3.6733966      1728000    1275.9267        37500         2621 
 7510000    1.0171455   -3.6800606      1728000     1277.684        37550         2623 
 7520000   0.98972808   -3.6126381      1728000    1279.4672        37600         2626 
 7530000    1.0217398   -3.4917271      1728000    1281.2128        37650         2628 
 7540000    1.0013326   -3.5774036      1728000    1283.0545        37700         2629 
 7550000   0.96776019   -3.7145747      1728000    1284.8567        37750         2630 
 7560000    0.9554125     -3.60841      1728000     1286.653        37800         2632 
 7570000   0.90879478    -3.523129      1728000      1288.45        37850         2632 
 7580000   0.92696861   -3.5008911      1728000     1290.182        37900         2633 
 7590000      1.00955   -3.6706475      1728000     1291.917        37950         2633 
 7600000   0.96401881   -3.5771674      1728000    1293.6726        38000         2634 
 7610000   0.96541879   -3.5669999      1728000    1295.4398        38050         2635 
 7620000   0.97863747   -3.7205208      1728000     1297.224        38100         2637 
 7630000   0.93170629   -3.6474851      1728000    1299.0249        38150         2638 
 7640000    1.0023325   -3.4709421      1728000    1300.7821        38200         2641 
 7650000     1.055838   -3.4902222      1728000    1302.5813        38250         2642 
 7660000    0.9915803   -3.5442081      1728000    1304.3186        38300         2644 
 7670000    1.0025638   -3.5881368      1728000    1306.0463        38350         2644 
 7680000    1.0010651   -3.5004319      1728000    1307.8488        38400         2644 
 7690000    0.9961869   -3.6649621      1728000    1309.6576        38450         2646 
 7700000     1.093176    -3.678287      1728000    1311.5386        38500         2646 
 7710000    1.0132808   -3.5612732      1728000    1313.3948        38550         2647 
 7720000    1.0872937   -3.6245186      1728000    1315.1385        38600         2649 
 7730000    1.0180107   -3.6558735      1728000     1316.922        38650         2651 
 7740000    1.0187966   -3.5401272      1728000    1318.6837        38700         2653 
 7750000   0.99964834   -3.6991342      1728000    1320.4959        38750         2653 
 7760000   0.98386575   -3.5692246      1728000    1322.3259        38800         2653 
 7770000   0.98564806   -3.6287423      1728000    1324.0851        38850         2656 
 7780000   0.98793737   -3.5985782      1728000    1325.8365        38900         2656 
 7790000   0.96930767   -3.7303651      1728000    1327.6311        38950         2657 
 7800000    1.0046435   -3.5151902      1728000    1329.4411        39000         2659 
 7810000    0.9583276    -3.702217      1728000    1331.2094        39050         2661 
 7820000    1.0247485   -3.6351418      1728000    1332.9812        39100         2662 
 7830000   0.98241169   -3.4493456      1728000    1334.7294        39150         2663 
 7840000    1.0373358   -3.4914839      1728000     1336.483        39200         2665 
 7850000   0.99141368   -3.6291196      1728000     1338.195        39250         2666 
 7860000    1.0121119   -3.5517066      1728000    1339.9386        39300         2666 
 7870000   0.93447916   -3.5141767      1728000    1341.6589        39350         2666 
 7880000    1.0652847   -3.6091741      1728000    1343.4348        39400         2668 
 7890000    1.0021447   -3.7064378      1728000    1345.1908        39450         2669 
 7900000   0.97174102    -3.660563      1728000    1346.9659        39500         2670 
 7910000    1.0437055    -3.591109      1728000    1348.7724        39550         2672 
 7920000   0.99205815   -3.6037594      1728000    1350.5079        39600         2672 
 7930000    1.0574041   -3.6944806      1728000    1352.2641        39650         2673 
 7940000    1.0350219   -3.4463532      1728000    1354.1817        39700         2675 
 7950000   0.99744942   -3.5380545      1728000    1355.9657        39750         2675 
 7960000    1.0208857   -3.6298627      1728000    1357.6932        39800         2676 
 7970000   0.99436982   -3.5920157      1728000    1359.4884        39850         2678 
 7980000    1.0328654   -3.6594923      1728000    1361.2471        39900         2679 
 7990000     1.006962   -3.6288281      1728000    1363.0633        39950         2679 
 8000000    1.0012892   -3.6345109      1728000    1364.8519        40000         2680 
 8010000   0.99470703   -3.6628764      1728000    1366.7539        40050         2681 
 8020000    1.0263174   -3.5403271      1728000    1368.5888        40100         2681 
 8030000   0.98308353    -3.509755      1728000    1370.3533        40150         2683 
 8040000     0.923302   -3.5628129      1728000    1372.0618        40200         2686 
 8050000    1.0160528   -3.4256014      1728000    1373.7777        40250         2688 
 8060000    1.0182533   -3.5679667      1728000    1375.5459        40300         2689 
 8070000    1.0646471   -3.6163118      1728000     1377.293        40350         2691 
 8080000   0.97638507   -3.6101657      1728000    1379.0569        40400         2692 
 8090000   0.98574245    -3.482013      1728000    1380.7829        40450         2694 
 8100000    1.0459707   -3.6218204      1728000    1382.5579        40500         2700 
 8110000    1.0433135   -3.4483732      1728000    1384.3123        40550         2700 
 8120000   0.98926431   -3.4811403      1728000    1386.0499        40600         2701 
 8130000   0.94080868   -3.5908133      1728000     1387.776        40650         2701 
 8140000    1.0087753   -3.5578462      1728000    1389.5282        40700         2701 
 8150000    1.0599248   -3.5153739      1728000    1391.3032        40750         2701 
 8160000    1.0523454   -3.7611693      1728000    1393.0625        40800         2703 
 8170000   0.99290779   -3.6269495      1728000    1394.8549        40850         2704 
 8180000    1.0225463   -3.5702663      1728000     1396.631        40900         2704 
 8190000    1.0478984   -3.6286917      1728000    1398.4034        40950         2704 
 8200000    1.0658327   -3.6311866      1728000    1400.1613        41000         2706 
 8210000   0.97401652   -3.5103156      1728000    1401.8918        41050         2706 
 8220000    0.9387928   -3.5354196      1728000    1403.6518        41100         2709 
 8230000     1.052073    -3.783328      1728000    1405.4098        41150         2709 
 8240000   0.98420508   -3.6599596      1728000    1407.1746        41200         2710 
 8250000    1.0085431   -3.5219977      1728000    1408.9427        41250         2711 
 8260000   0.93197285   -3.6455811      1728000    1410.6789        41300         2712 
 8270000    1.0128876   -3.5747012      1728000    1412.3955        41350         2715 
 8280000    1.0028647   -3.6404145      1728000    1414.1519        41400         2715 
 8290000    1.0064457    -3.510747      1728000    1415.8954        41450         2716 
 8300000   0.96579296   -3.6473585      1728000    1417.6894        41500         2717 
 8310000    1.0353492   -3.6417719      1728000    1419.4836        41550         2717 
 8320000    1.0523201   -3.6801889      1728000    1421.2865        41600         2717 
 8330000    1.0345874   -3.5939513      1728000    1423.0507        41650         2717 
 8340000    1.0072115    -3.609541      1728000    1424.9488        41700         2718 
 8350000     1.002033   -3.5842984      1728000    1426.7795        41750         2718 
 8360000    1.0507864   -3.6396181      1728000    1428.5647        41800         2719 
 8370000   0.98741252    -3.595666      1728000    1430.3499        41850         2722 
 8380000    1.0323556   -3.6549765      1728000    1432.2309        41900         2724 
 8390000   0.97912917    -3.479179      1728000    1434.1186        41950         2727 
 8400000   0.99819281   -3.6004682      1728000    1436.0185        42000         2730 
 8410000    1.0510388   -3.6891861      1728000    1437.8392        42050         2732 
 8420000   0.99139825    -3.528914      1728000    1439.6362        42100         2734 
 8430000   0.97458855   -3.5285733      1728000    1441.3851        42150         2734 
 8440000   0.98695381    -3.557578      1728000    1443.2512        42200         2737 
 8450000    0.9882111   -3.6172327      1728000    1445.0176        42250         2740 
 8460000    1.0629085    -3.672578      1728000    1446.7584        42300         2740 
 8470000   0.96845878   -3.5451178      1728000    1448.5454        42350         2742 
 8480000    1.0205069   -3.5301652      1728000    1450.2972        42400         2744 
 8490000    1.0351601    -3.576869      1728000    1452.0882        42450         2747 
 8500000    1.0270785   -3.4672872      1728000    1453.8799        42500         2749 
 8510000   0.96549554   -3.5459775      1728000    1455.6625        42550         2751 
 8520000   0.99530173   -3.6486807      1728000    1457.4377        42600         2752 
 8530000   0.99410737   -3.6405555      1728000    1459.2136        42650         2754 
 8540000     1.039254   -3.6374115      1728000    1460.9905        42700         2755 
 8550000   0.97648849   -3.4778357      1728000      1462.69        42750         2759 
 8560000   0.95131579   -3.5945443      1728000    1464.4423        42800         2761 
 8570000    1.0220884   -3.5433258      1728000     1466.146        42850         2763 
 8580000   0.99431771    -3.600415      1728000    1467.8789        42900         2763 
 8590000   0.97064061   -3.6398561      1728000    1469.6027        42950         2763 
 8600000    1.0266144    -3.517624      1728000    1471.3205        43000         2764 
 8610000    1.0493524   -3.5737026      1728000    1473.0628        43050         2765 
 8620000   0.94874171   -3.4963165      1728000    1474.7991        43100         2768 
 8630000   0.96349261    -3.506119      1728000    1476.5229        43150         2771 
 8640000   0.96873381   -3.5765391      1728000    1478.2432        43200         2775 
 8650000    1.0269298   -3.6321389      1728000    1479.9659        43250         2777 
 8660000   0.95282847   -3.5525663      1728000    1481.6936        43300         2779 
 8670000    1.0463691   -3.5795521      1728000    1483.4231        43350         2780 
 8680000   0.98681569   -3.5627589      1728000    1485.2128        43400         2784 
 8690000    1.0189509   -3.4942144      1728000    1486.9397        43450         2786 
 8700000    1.0035292    -3.527016      1728000    1488.6687        43500         2790 
 8710000   0.95444005   -3.5861953      1728000    1490.3867        43550         2793 
 8720000    1.0314179   -3.5121116      1728000    1492.1121        43600         2794 
 8730000    1.0213969   -3.6127858      1728000    1493.8576        43650         2796 
 8740000    1.0213826   -3.3670011      1728000    1495.6166        43700         2798 
 8750000   0.99391408   -3.5562595      1728000    1497.3754        43750         2798 
 8760000    1.0209155   -3.6690861      1728000    1499.0756        43800         2801 
 8770000   0.99289642   -3.6217686      1728000    1500.7946        43850         2801 
 8780000   0.95857889   -3.6662623      1728000    1502.5727        43900         2802 
 8790000    1.0484631   -3.5239909      1728000    1504.3085        43950         2804 
 8800000    0.9653833   -3.5150598      1728000    1506.1095        44000         2807 
 8810000   0.99387962   -3.5850435      1728000    1507.8397        44050         2807 
 8820000   0.97845606   -3.6377618      1728000    1509.5725        44100         2810 
 8830000    1.0002019   -3.4626864      1728000    1511.3358        44150         2814 
 8840000   0.95414999   -3.4416264      1728000    1513.0465        44200         2814 
 8850000   0.97803319   -3.6263114      1728000    1514.7655        44250         2817 
 8860000   0.95874915   -3.4928902      1728000    1516.6015        44300         2820 
 8870000    1.0520098   -3.5802046      1728000    1518.3155        44350         2821 
 8880000    1.0227371   -3.6388486      1728000    1520.0698        44400         2822 
 8890000     1.035253   -3.5527947      1728000    1521.8164        44450         2823 
 8900000   0.96546275   -3.5944717      1728000    1523.5476        44500         2824 
 8910000    1.0304283   -3.6269995      1728000    1525.2605        44550         2825 
 8920000    0.9828252   -3.5140783      1728000    1526.9816        44600         2827 
 8930000   0.98961813   -3.5359199      1728000    1528.7727        44650         2830 
 8940000   0.98783544   -3.5036434      1728000    1530.5236        44700         2830 
 8950000    0.9884418   -3.5243524      1728000    1532.2654        44750         2832 
 8960000   0.96984107   -3.4873572      1728000    1533.9959        44800         2833 
 8970000   0.96813118   -3.4865426      1728000    1535.6902        44850         2836 
 8980000   0.98748904   -3.5216074      1728000    1537.4036        44900         2838 
 8990000     1.012001   -3.5378309      1728000    1539.1136        44950         2841 
 9000000    1.0173707   -3.4112878      1728000    1540.8525        45000         2842 
 9010000   0.95305635   -3.5458584      1728000    1542.5935        45050         2844 
 9020000   0.92890987   -3.4756912      1728000    1544.3175        45100         2846 
 9030000   0.98815572   -3.5391387      1728000    1546.0435        45150         2847 
 9040000   0.98903829   -3.6193233      1728000    1547.7738        45200         2848 
 9050000   0.94415143    -3.525759      1728000    1549.5338        45250         2849 
 9060000   0.95584778   -3.5899441      1728000    1551.2787        45300         2852 
 9070000    1.0136541   -3.5031328      1728000    1553.0257        45350         2852 
 9080000   0.89510013   -3.5698447      1728000     1554.789        45400         2856 
 9090000     1.026839    -3.459113      1728000    1556.5114        45450         2857 
 9100000   0.99852157   -3.5221613      1728000    1558.2434        45500         2858 
 9110000   0.99154924   -3.5663029      1728000    1559.9924        45550         2859 
 9120000   0.96501027   -3.5309421      1728000    1561.6996        45600         2861 
 9130000   0.98452606   -3.4603035      1728000    1563.4537        45650         2865 
 9140000    0.9929063   -3.6044272      1728000    1565.1795        45700         2867 
 9150000    1.0188166   -3.4570413      1728000    1566.9237        45750         2871 
 9160000     1.061779   -3.4032048      1728000    1568.6255        45800         2874 
 9170000     1.056029    -3.599572      1728000    1570.3504        45850         2879 
 9180000    1.0717269   -3.5688211      1728000    1572.1041        45900         2881 
 9190000   0.96263374   -3.5368959      1728000    1573.8494        45950         2881 
 9200000    0.9408447   -3.5845113      1728000    1575.6301        46000         2883 
 9210000    1.0266487   -3.5256742      1728000    1577.3978        46050         2884 
 9220000    1.0168842   -3.6189534      1728000    1579.1959        46100         2885 
 9230000     1.088475   -3.6668789      1728000    1580.9963        46150         2885 
 9240000   0.99986347   -3.6561146      1728000    1582.7845        46200         2886 
 9250000   0.96868431   -3.6264014      1728000    1584.5369        46250         2888 
 9260000   0.99216056   -3.5703709      1728000     1586.305        46300         2889 
 9270000   0.99787699   -3.5138447      1728000    1588.1005        46350         2889 
 9280000    0.9974939   -3.5976623      1728000    1589.8903        46400         2891 
 9290000   0.99296424   -3.5404377      1728000    1591.6298        46450         2892 
 9300000   0.99881975   -3.6469365      1728000    1593.3722        46500         2892 
 9310000    1.0748543   -3.5103089      1728000    1595.2023        46550         2894 
 9320000    1.0167106   -3.6116492      1728000    1596.9467        46600         2899 
 9330000    1.0536807   -3.4490492      1728000    1598.7309        46650         2900 
 9340000   0.95013275   -3.4867707      1728000    1600.4805        46700         2902 
 9350000    1.0165879    -3.569872      1728000      1602.21        46750         2904 
 9360000    1.0276968   -3.5207316      1728000    1603.9711        46800         2905 
 9370000   0.96015026   -3.4683297      1728000    1605.6814        46850         2909 
 9380000    1.0222971   -3.5059915      1728000    1607.4614        46900         2910 
 9390000    1.0156603     -3.67503      1728000    1609.2164        46950         2911 
 9400000    1.0166248    -3.551187      1728000    1611.0186        47000         2911 
 9410000    1.0197196   -3.5610359      1728000    1612.8128        47050         2912 
 9420000   0.95189055   -3.4228346      1728000    1614.6113        47100         2912 
 9430000   0.99660207   -3.6761097      1728000    1616.4063        47150         2913 
 9440000    1.0414185   -3.5819255      1728000    1618.2423        47200         2913 
 9450000   0.98978255   -3.5532138      1728000    1620.0694        47250         2914 
 9460000    1.0197001    -3.559619      1728000    1621.8628        47300         2916 
 9470000    1.0231012   -3.5389994      1728000    1623.7159        47350         2917 
 9480000   0.94217598   -3.5069317      1728000    1625.4685        47400         2919 
 9490000    1.0127265   -3.4503051      1728000    1627.2093        47450         2921 
 9500000   0.98983229   -3.4529413      1728000    1628.9954        47500         2923 
 9510000    1.0189029   -3.5524122      1728000    1630.7414        47550         2925 
 9520000    1.0150063   -3.6651363      1728000    1632.5204        47600         2927 
 9530000   0.99120613   -3.6257443      1728000    1634.3232        47650         2928 
 9540000   0.95343888   -3.6432555      1728000    1636.1313        47700         2929 
 9550000    1.0199317   -3.5246882      1728000    1637.9179        47750         2930 
 9560000    1.0049761   -3.4890082      1728000    1639.7364        47800         2930 
 9570000   0.99798245    -3.404259      1728000    1641.5603        47850         2931 
 9580000    1.0649346   -3.5025941      1728000    1643.3674        47900         2932 
 9590000   0.98834654   -3.4794462      1728000    1645.1763        47950         2934 
 9600000   0.99463218   -3.5350899      1728000    1646.9911        48000         2936 
 9610000    1.0585003   -3.5777364      1728000     1649.054        48050         2937 
 9620000    1.0109233   -3.5324993      1728000    1650.8466        48100         2937 
 9630000    1.0378732   -3.5950465      1728000     1652.594        48150         2939 
 9640000    1.0065483   -3.5822771      1728000    1654.4035        48200         2940 
 9650000   0.98691461   -3.5520742      1728000    1656.1897        48250         2940 
 9660000   0.97226682   -3.5015868      1728000    1657.9523        48300         2940 
 9670000    1.0213963   -3.5441703      1728000    1659.7343        48350         2942 
 9680000    1.0253029   -3.5832604      1728000    1661.5376        48400         2944 
 9690000    1.0387364   -3.5953164      1728000     1663.344        48450         2945 
 9700000    1.0198835   -3.6058452      1728000    1665.1246        48500         2946 
 9710000   0.97709533   -3.6320709      1728000    1666.8887        48550         2947 
 9720000   0.99526295   -3.6666637      1728000    1668.7439        48600         2947 
 9730000    1.0014777   -3.7099409      1728000    1670.5435        48650         2949 
 9740000   0.96650967   -3.5438842      1728000    1672.3446        48700         2949 
 9750000   0.98651119   -3.6118907      1728000    1674.1338        48750         2949 
 9760000   0.97843635   -3.7104237      1728000    1675.9034        48800         2949 
 9770000    1.0232144   -3.5746875      1728000    1677.6474        48850         2950 
 9780000    1.0087298   -3.6462503      1728000    1679.5544        48900         2952 
 9790000    1.0490471   -3.4966543      1728000    1681.3311        48950         2952 
 9800000   0.93376448   -3.6761825      1728000    1683.1442        49000         2953 
 9810000   0.94863646   -3.5795797      1728000    1684.8983        49050         2953 
 9820000    1.0167116   -3.6354603      1728000    1686.6656        49100         2954 
 9830000    1.0487848   -3.5440023      1728000    1688.4446        49150         2954 
 9840000    1.0922459   -3.6063302      1728000    1690.2787        49200         2955 
 9850000    1.0448737   -3.5864807      1728000    1692.2167        49250         2955 
 9860000   0.96399721   -3.5008461      1728000    1694.0618        49300         2955 
 9870000    1.0687173   -3.5815823      1728000    1695.9759        49350         2955 
 9880000   0.98820694   -3.6462187      1728000    1697.7651        49400         2956 
 9890000    1.0128505   -3.7339358      1728000    1699.6302        49450         2956 
 9900000   0.92794409   -3.5998133      1728000    1701.4841        49500         2957 
 9910000    1.0230819     -3.57871      1728000    1703.2483        49550         2957 
 9920000    1.0347628   -3.4583252      1728000    1705.0327        49600         2958 
 9930000    1.0094332   -3.6372585      1728000    1706.8528        49650         2959 
 9940000     1.001211   -3.7104783      1728000      1708.69        49700         2960 
 9950000    1.0199216   -3.6227458      1728000    1710.5001        49750         2961 
 9960000   0.99791733   -3.5744978      1728000    1712.2966        49800         2963 
 9970000   0.99887754   -3.5635483      1728000    1714.1098        49850         2963 
 9980000   0.95912383   -3.5621972      1728000    1715.8747        49900         2965 
 9990000    0.9832253   -3.5904079      1728000    1717.6529        49950         2967 
10000000    0.9385224   -3.5677587      1728000    1719.4402        50000         2967 
10010000    1.0192269   -3.6377208      1728000    1721.2245        50050         2969 
10020000    1.0407026   -3.5743677      1728000    1723.0572        50100         2971 
10030000      1.06579   -3.6039618      1728000    1724.8623        50150         2972 
10040000    1.0382301    -3.592646      1728000    1726.6545        50200         2972 
10050000    1.0582766   -3.5512574      1728000    1728.4469        50250         2975 
10060000   0.94808396   -3.5987611      1728000    1730.2771        50300         2975 
10070000    1.0273127   -3.5965979      1728000    1732.0481        50350         2976 
10080000    1.0647229   -3.4590393      1728000    1733.8062        50400         2977 
10090000   0.98057598   -3.5658057      1728000    1735.5472        50450         2978 
10100000    1.0176473   -3.4843908      1728000    1737.2998        50500         2981 
10110000    1.0180795   -3.6598593      1728000    1739.0592        50550         2981 
10120000    1.1137028   -3.5883954      1728000    1740.8271        50600         2982 
10130000   0.97484672   -3.6349352      1728000    1742.6163        50650         2982 
10140000     1.023955   -3.6094479      1728000    1744.3595        50700         2983 
10150000    1.0546066   -3.5712394      1728000    1746.1112        50750         2983 
10160000    1.0087574   -3.7092053      1728000    1747.8723        50800         2984 
10170000    0.9627573   -3.6178775      1728000    1749.6952        50850         2986 
10180000   0.99115817   -3.5883045      1728000    1751.4892        50900         2988 
10190000    1.0168631   -3.6604454      1728000    1753.3024        50950         2989 
10200000    1.0398095   -3.5526264      1728000    1755.0941        51000         2989 
10210000    1.0156416   -3.6432263      1728000    1756.9073        51050         2990 
10220000   0.97538921   -3.6047363      1728000    1758.7225        51100         2990 
10230000   0.97067362   -3.6306476      1728000     1760.478        51150         2990 
10240000   0.98433756   -3.5696318      1728000    1762.2733        51200         2992 
10250000   0.98441033   -3.6317245      1728000    1764.1682        51250         2992 
10260000    1.0139374   -3.5938789      1728000    1765.9181        51300         2992 
10270000    1.0310841   -3.6100955      1728000    1767.7079        51350         2992 
10280000   0.98730787   -3.6867385      1728000    1769.4713        51400         2992 
10290000   0.99638674     -3.69995      1728000    1771.2312        51450         2992 
10300000   0.93986679   -3.5725791      1728000    1773.2732        51500         2995 
10310000    1.0341979   -3.6266127      1728000    1775.0275        51550         2996 
10320000   0.95728089   -3.6365893      1728000    1776.7844        51600         2996 
10330000   0.97287217   -3.6178632      1728000    1778.5776        51650         2997 
10340000   0.97313451   -3.4795348      1728000    1780.3468        51700         2998 
10350000    1.0044525   -3.6565386      1728000    1782.2109        51750         2998 
10360000   0.91547166   -3.6010772      1728000    1783.9994        51800         2998 
10370000    1.0557933   -3.6914729      1728000    1785.8002        51850         2999 
10380000   0.93452688   -3.5222511      1728000    1787.6069        51900         3000 
10390000   0.99312276    -3.545395      1728000      1789.37        51950         3001 
10400000    1.0454035   -3.5749924      1728000    1791.1594        52000         3002 
10410000    1.0416051   -3.6891942      1728000    1792.9434        52050         3003 
10420000    1.0689016   -3.7264352      1728000    1794.6921        52100         3004 
10430000    1.0232466   -3.5602295      1728000    1796.4914        52150         3004 
10440000   0.96070566   -3.4884744      1728000    1798.2701        52200         3005 
10450000   0.93802596   -3.5268839      1728000    1800.1071        52250         3005 
10460000    1.0372035    -3.710777      1728000    1801.8796        52300         3005 
10470000   0.95144205   -3.6448066      1728000    1803.6451        52350         3007 
10480000    1.0756882   -3.5361979      1728000    1805.3911        52400         3008 
10490000   0.99534582    -3.636821      1728000    1807.1443        52450         3010 
10500000    1.0253505   -3.5980405      1728000    1808.9382        52500         3012 
10510000   0.97704583   -3.5894994      1728000    1810.8044        52550         3013 
10520000    1.0027108   -3.6370738      1728000    1812.6254        52600         3013 
10530000    1.0294902   -3.5973981      1728000    1814.4306        52650         3014 
10540000   0.99803934   -3.7175762      1728000    1816.2018        52700         3016 
10550000   0.98059513    -3.615585      1728000    1817.9729        52750         3017 
10560000   0.95238368   -3.6897143      1728000    1819.7681        52800         3017 
10570000   0.99489214    -3.583914      1728000    1821.5374        52850         3018 
10580000   0.99107414   -3.6467458      1728000      1823.29        52900         3018 
10590000   0.98814225   -3.5510226      1728000    1825.1155        52950         3018 
10600000    0.9794626   -3.6381233      1728000    1826.8884        53000         3019 
10610000    1.0336515   -3.5460345      1728000    1828.6756        53050         3022 
10620000   0.92213313   -3.5160265      1728000    1830.4119        53100         3027 
10630000   0.96680193   -3.4123159      1728000     1832.184        53150         3028 
10640000    1.0414575   -3.4731942      1728000    1833.9751        53200         3030 
10650000    1.0844879   -3.5073278      1728000    1835.7645        53250         3031 
10660000   0.97605792   -3.5166271      1728000    1837.5266        53300         3037 
10670000    1.0383641   -3.4389801      1728000    1839.3077        53350         3038 
10680000   0.96714689   -3.5604043      1728000     1841.059        53400         3040 
10690000    1.0712256   -3.5505546      1728000    1842.8693        53450         3042 
10700000    0.9525407   -3.5919808      1728000    1844.8143        53500         3042 
10710000   0.95372455   -3.5446345      1728000    1846.5879        53550         3046 
10720000   0.98191534   -3.4892152      1728000    1848.3811        53600         3050 
10730000   0.97457826     -3.36109      1728000    1850.2292        53650         3051 
10740000    1.0341763    -3.564727      1728000    1852.0343        53700         3051 
10750000   0.99457921   -3.5344038      1728000    1853.8635        53750         3052 
10760000    0.9797947   -3.4844588      1728000    1855.6816        53800         3052 
10770000    1.0205225   -3.4677675      1728000    1857.4658        53850         3052 
10780000    1.0031715   -3.6080993      1728000    1859.2713        53900         3055 
10790000    1.0194712   -3.4670219      1728000    1861.0385        53950         3057 
10800000   0.99601099   -3.5065311      1728000    1862.8317        54000         3059 
10810000   0.96917155   -3.4743749      1728000    1864.6118        54050         3060 
10820000    1.0690674   -3.5185997      1728000     1866.398        54100         3062 
10830000   0.99643431   -3.4831944      1728000     1868.143        54150         3064 
10840000   0.98939689   -3.5506407      1728000     1869.924        54200         3065 
10850000    1.0094449   -3.5026769      1728000     1871.715        54250         3067 
10860000    1.0252446   -3.6869334      1728000     1873.449        54300         3068 
10870000     1.022164   -3.6081316      1728000    1875.2641        54350         3070 
10880000    1.0801321   -3.6047825      1728000    1877.0486        54400         3071 
10890000   0.96381343   -3.5047742      1728000    1878.8387        54450         3074 
10900000   0.94408398   -3.4865217      1728000    1880.5929        54500         3075 
10910000   0.96165357   -3.3896829      1728000    1882.3541        54550         3078 
10920000    1.0221491   -3.4868345      1728000    1884.1255        54600         3078 
10930000    1.0059838   -3.6498449      1728000    1885.9665        54650         3078 
10940000   0.93990147   -3.5421959      1728000    1887.7088        54700         3078 
10950000    1.0141111   -3.5349626      1728000     1889.545        54750         3080 
10960000    1.0345117    -3.541952      1728000    1891.2918        54800         3081 
10970000   0.99969491   -3.4180847      1728000    1893.0512        54850         3083 
10980000   0.97785534   -3.5562293      1728000       1894.8        54900         3087 
10990000    0.9945584   -3.4552882      1728000    1896.5699        54950         3089 
11000000    0.9703317   -3.4461438      1728000    1898.3338        55000         3092 
11010000   0.98356504   -3.3945909      1728000     1900.093        55050         3095 
11020000   0.95799857   -3.5868591      1728000     1901.836        55100         3096 
11030000   0.99793592   -3.4841325      1728000    1903.6489        55150         3100 
11040000    1.0544774    -3.507445      1728000    1905.4356        55200         3100 
11050000   0.96181073   -3.4322247      1728000    1907.1791        55250         3101 
11060000   0.97640099   -3.3938378      1728000    1908.9753        55300         3103 
11070000   0.99831153   -3.3993826      1728000    1910.7355        55350         3104 
11080000    1.0607446   -3.5338294      1728000    1912.4867        55400         3106 
11090000    1.0035587   -3.4951114      1728000    1914.2372        55450         3108 
11100000    0.9071209   -3.5283702      1728000    1916.0148        55500         3110 
11110000   0.99413033   -3.4982385      1728000     1917.804        55550         3114 
11120000    1.0146986   -3.4082011      1728000    1919.5422        55600         3118 
11130000    1.0206508   -3.4853712      1728000    1921.3676        55650         3121 
11140000   0.96958015   -3.4564387      1728000    1923.1445        55700         3123 
11150000    1.0231258   -3.5355647      1728000    1924.9199        55750         3125 
11160000    1.0378979   -3.5409309      1728000    1926.7383        55800         3127 
11170000   0.93810582   -3.3683244      1728000     1928.496        55850         3130 
11180000    0.9757175   -3.4410302      1728000    1930.3471        55900         3133 
11190000   0.97904689   -3.5029697      1728000    1932.1423        55950         3136 
11200000    1.0549228    -3.501793      1728000    1933.9759        56000         3137 
11210000    1.0418743   -3.5970958      1728000    1935.7091        56050         3139 
11220000   0.92807431   -3.4496748      1728000     1937.527        56100         3143 
11230000    0.9696848   -3.4348007      1728000    1939.3217        56150         3145 
11240000    0.9491547   -3.4466366      1728000    1941.0659        56200         3148 
11250000   0.97795778   -3.5072735      1728000     1942.797        56250         3148 
11260000    1.0294998   -3.4407714      1728000     1944.551        56300         3150 
11270000    1.0119288   -3.4886519      1728000    1946.2945        56350         3151 
11280000   0.98230783   -3.5749515      1728000    1948.0341        56400         3154 
11290000    1.0253283   -3.4259399      1728000    1949.8061        56450         3155 
11300000    1.0053639   -3.5836377      1728000    1951.6831        56500         3159 
11310000    0.9338882   -3.5623414      1728000    1953.5179        56550         3162 
11320000    1.0147483   -3.5269974      1728000    1955.3098        56600         3167 
11330000    1.0247323   -3.5131274      1728000    1957.0997        56650         3167 
11340000    0.9800003   -3.5289418      1728000    1958.8966        56700         3169 
11350000   0.96777136   -3.5325633      1728000    1960.7457        56750         3171 
11360000   0.98510252   -3.5924835      1728000    1962.5709        56800         3172 
11370000   0.98473476   -3.5593967      1728000    1964.3633        56850         3177 
11380000    1.0101197   -3.4727411      1728000    1966.1119        56900         3178 
11390000    1.0004057   -3.4984041      1728000     1967.836        56950         3180 
11400000   0.99980465   -3.5541439      1728000    1969.6121        57000         3180 
11410000    0.9800289   -3.5678929      1728000     1971.363        57050         3180 
11420000     1.010966   -3.5477995      1728000    1973.2311        57100         3180 
11430000    1.0393065   -3.4466232      1728000    1975.0063        57150         3181 
11440000   0.92388712   -3.4936362      1728000    1976.7665        57200         3184 
11450000    1.0128453   -3.4955943      1728000    1978.5699        57250         3186 
11460000    1.0125695   -3.4651497      1728000    1980.3741        57300         3188 
11470000   0.96875772    -3.540781      1728000    1982.1223        57350         3189 
11480000    1.0191139   -3.4833331      1728000    1983.9445        57400         3190 
11490000   0.91916017   -3.5950767      1728000    1985.7946        57450         3192 
11500000   0.99053449   -3.5373607      1728000    1987.5858        57500         3193 
11510000   0.92380356   -3.5521593      1728000    1989.4163        57550         3194 
11520000    1.0746631   -3.4458735      1728000    1991.2925        57600         3195 
11530000   0.98637664   -3.5088959      1728000    1993.0469        57650         3195 
11540000   0.98331573   -3.6173478      1728000    1994.8191        57700         3197 
11550000    1.0111464   -3.5427708      1728000    1996.5965        57750         3199 
11560000   0.97761137   -3.4894681      1728000     1998.393        57800         3200 
11570000    1.0506356   -3.4630263      1728000    2000.2508        57850         3204 
11580000   0.98804722   -3.4563782      1728000      2002.03        57900         3206 
11590000    1.0076012   -3.4970813      1728000    2003.8569        57950         3208 
11600000   0.94732493   -3.4469114      1728000    2005.6531        58000         3212 
11610000    1.0232115   -3.5383678      1728000    2007.4548        58050         3213 
11620000   0.96459551   -3.5916256      1728000     2009.307        58100         3213 
11630000   0.96723095   -3.5325093      1728000    2011.0942        58150         3214 
11640000     1.025279   -3.4916515      1728000    2012.9942        58200         3216 
11650000    1.0453358   -3.5036861      1728000    2014.8253        58250         3217 
11660000    1.0783984   -3.5570695      1728000    2016.5975        58300         3217 
11670000    1.0582457   -3.5661204      1728000    2018.3771        58350         3218 
11680000    1.0503234   -3.5659157      1728000    2020.1865        58400         3220 
11690000    1.0038831   -3.4766642      1728000     2022.012        58450         3221 
11700000    1.0492384   -3.5897239      1728000    2023.8751        58500         3223 
11710000   0.98370759    -3.576297      1728000    2025.7291        58550         3226 
11720000   0.99439031   -3.6977647      1728000    2027.5633        58600         3229 
11730000    1.0184502   -3.5379831      1728000    2029.4793        58650         3232 
11740000    1.0235239   -3.5562397      1728000    2031.3614        58700         3234 
11750000    1.0122506   -3.6462625      1728000    2033.1844        58750         3234 
11760000    1.0369078   -3.5967143      1728000    2035.0181        58800         3235 
11770000    1.0399147   -3.6070133      1728000    2036.7928        58850         3237 
11780000   0.97429319   -3.6439079      1728000    2038.5378        58900         3240 
11790000   0.98010925   -3.5745981      1728000    2040.2836        58950         3241 
11800000    1.0130871   -3.6646907      1728000    2042.1028        59000         3243 
11810000   0.97055038   -3.6126987      1728000    2043.8862        59050         3246 
11820000   0.97017662   -3.5205336      1728000    2045.6373        59100         3248 
11830000    1.0246835   -3.4745249      1728000    2047.4624        59150         3248 
11840000    1.0026106   -3.5555254      1728000    2049.2787        59200         3248 
11850000    1.0158386   -3.3753715      1728000    2051.2107        59250         3249 
11860000     1.023734   -3.4735168      1728000    2052.9842        59300         3250 
11870000    1.0456113   -3.5588799      1728000    2054.7606        59350         3253 
11880000   0.91460973   -3.5612536      1728000    2056.5098        59400         3255 
11890000    1.0472827   -3.4591347      1728000    2058.3829        59450         3256 
11900000    1.0049848   -3.4915815      1728000    2060.1717        59500         3258 
11910000    1.0378476   -3.4786301      1728000    2061.9637        59550         3260 
11920000   0.97840491   -3.5223285      1728000    2063.7159        59600         3262 
11930000   0.99017979   -3.5351126      1728000    2065.4697        59650         3263 
11940000   0.98626105   -3.5797351      1728000    2067.2068        59700         3264 
11950000   0.99854733   -3.6579806      1728000    2068.9915        59750         3265 
11960000    1.0612374   -3.5320661      1728000    2070.8297        59800         3267 
11970000    1.0124992   -3.4646174      1728000    2072.6195        59850         3269 
11980000    1.0188019   -3.5206676      1728000    2074.4067        59900         3272 
11990000    1.0387999   -3.5677802      1728000    2076.1498        59950         3273 
12000000    1.0294803   -3.5362643      1728000    2077.9542        60000         3276 
12010000    1.0014773   -3.6689694      1728000    2079.7964        60050         3276 
12020000   0.94067241   -3.6756718      1728000    2081.5547        60100         3278 
12030000    1.0285386   -3.5819059      1728000    2083.3498        60150         3278 
12040000    0.9283041   -3.7063119      1728000    2085.1182        60200         3280 
12050000    1.0123791   -3.5365121      1728000    2086.8978        60250         3281 
12060000    1.0287731   -3.5702915      1728000    2088.6535        60300         3282 
12070000    1.0105517   -3.5493629      1728000    2090.4118        60350         3282 
12080000   0.94659149   -3.5561637      1728000    2092.1759        60400         3282 
12090000   0.95779034   -3.6737293      1728000    2093.9325        60450         3285 
12100000    1.0289915   -3.6400541      1728000    2095.7556        60500         3287 
12110000    1.0182376   -3.7346663      1728000    2097.5404        60550         3287 
12120000    1.0052839   -3.5235291      1728000     2099.345        60600         3289 
12130000    1.0414044   -3.5559184      1728000    2101.1053        60650         3292 
12140000    1.0047452   -3.4964659      1728000    2102.8569        60700         3293 
12150000     1.025262   -3.5304242      1728000    2104.6329        60750         3294 
12160000    1.0200963   -3.5779691      1728000    2106.4269        60800         3294 
12170000    1.0356501    -3.566226      1728000    2108.2341        60850         3296 
12180000   0.98666306   -3.6700423      1728000    2110.0982        60900         3299 
12190000    1.1124516   -3.5791185      1728000    2111.9693        60950         3301 
12200000   0.97169482   -3.5036517      1728000    2113.9083        61000         3301 
12210000   0.97127869   -3.5934525      1728000    2115.7474        61050         3302 
12220000   0.95897353    -3.595707      1728000    2117.5346        61100         3303 
12230000    1.0056458   -3.5063759      1728000    2119.4316        61150         3304 
12240000    1.0296294   -3.6213975      1728000    2121.3697        61200         3307 
12250000   0.95111954   -3.5554518      1728000    2123.2957        61250         3309 
12260000   0.95656791   -3.5518571      1728000    2125.1524        61300         3310 
12270000    1.0329362   -3.4178536      1728000    2127.0375        61350         3315 
12280000   0.93943794   -3.5935123      1728000    2128.9086        61400         3316 
12290000    1.0053964   -3.5291789      1728000    2130.7717        61450         3318 
12300000   0.93794117   -3.5275167      1728000    2132.6768        61500         3318 
12310000     1.036923   -3.3953889      1728000    2134.5229        61550         3319 
12320000   0.99053861   -3.5221086      1728000    2136.3929        61600         3319 
12330000   0.99312406   -3.4431442      1728000     2138.259        61650         3320 
12340000    1.0047587   -3.4687724      1728000    2140.1461        61700         3322 
12350000   0.99599278   -3.5228303      1728000    2141.9228        61750         3324 
12360000    1.0071866   -3.5743304      1728000    2143.7695        61800         3326 
12370000    1.0524788   -3.5363778      1728000    2145.5828        61850         3328 
12380000   0.95687957   -3.5194804      1728000    2147.4231        61900         3331 
12390000   0.93977806   -3.4846275      1728000    2149.1826        61950         3333 
12400000    1.0366362   -3.5509135      1728000    2151.0111        62000         3333 
12410000    0.9982534   -3.5148528      1728000    2152.8297        62050         3335 
12420000    1.0173632   -3.5076607      1728000    2154.8029        62100         3336 
12430000   0.99833968   -3.6769481      1728000    2157.0157        62150         3336 
12440000   0.97222703   -3.5010391      1728000    2159.0346        62200         3338 
12450000   0.95473698   -3.5332504      1728000    2161.0236        62250         3339 
12460000    1.0344795   -3.5950719      1728000    2163.0465        62300         3339 
12470000   0.96230297   -3.4705722      1728000    2165.2013        62350         3340 
12480000    1.0506096   -3.6271301      1728000    2167.2372        62400         3342 
12490000    1.0879747   -3.6288078      1728000    2169.2142        62450         3342 
12500000    1.0475163   -3.5229088      1728000    2171.2061        62500         3343 
12510000   0.97192276   -3.5491958      1728000    2173.1122        62550         3345 
12520000   0.95799707   -3.5119776      1728000    2175.0202        62600         3347 
12530000   0.98138176   -3.5764843      1728000    2176.9822        62650         3348 
12540000    1.0385947   -3.5837632      1728000    2178.8473        62700         3349 
12550000   0.97094045   -3.6016601      1728000    2180.7593        62750         3351 
12560000   0.96563733   -3.4843133      1728000    2182.6624        62800         3354 
12570000   0.99274243    -3.600141      1728000    2184.5485        62850         3357 
12580000    1.0239655   -3.5137155      1728000    2186.4355        62900         3358 
12590000   0.92366422   -3.6006062      1728000    2188.2966        62950         3361 
12600000    1.0360886   -3.4718557      1728000    2190.2506        63000         3362 
12610000   0.98785764   -3.5155972      1728000    2192.1587        63050         3364 
12620000    1.0397664   -3.4943033      1728000    2194.0507        63100         3364 
12630000   0.95713675   -3.4280464      1728000    2195.8828        63150         3365 
12640000    1.0606718   -3.6047971      1728000    2197.6592        63200         3365 
12650000   0.99715641   -3.4405277      1728000    2199.5534        63250         3368 
12660000   0.96297744   -3.5697006      1728000    2201.2977        63300         3371 
12670000   0.99036418   -3.5686521      1728000    2203.0536        63350         3372 
12680000    1.0714376   -3.5142848      1728000    2204.8519        63400         3375 
12690000    1.0106792   -3.3894464      1728000    2206.6608        63450         3377 
12700000   0.96464632   -3.4528102      1728000     2208.442        63500         3377 
12710000   0.98645268   -3.4303746      1728000    2210.1756        63550         3382 
12720000   0.96214953   -3.4757082      1728000    2211.9124        63600         3383 
12730000    1.0119549   -3.4872237      1728000    2213.6949        63650         3384 
12740000    1.0188674   -3.5815222      1728000    2215.4568        63700         3385 
12750000      1.01594   -3.6815262      1728000    2217.2719        63750         3387 
12760000    1.0159808   -3.4625574      1728000       2219.1        63800         3388 
12770000   0.99386149   -3.5028453      1728000    2220.8393        63850         3390 
12780000    0.9904275   -3.4960174      1728000    2222.6089        63900         3391 
12790000   0.96819161   -3.5996942      1728000    2224.4061        63950         3393 
12800000   0.99056195   -3.5141616      1728000    2226.1804        64000         3394 
12810000    1.0125065    -3.525887      1728000    2227.9698        64050         3397 
12820000   0.97242085   -3.4763073      1728000    2229.7461        64100         3397 
12830000    1.0321624   -3.5125557      1728000    2231.4915        64150         3397 
12840000    0.9814674   -3.4634432      1728000    2233.2507        64200         3397 
12850000    1.0702806   -3.5723275      1728000    2235.0319        64250         3398 
12860000    1.0084046   -3.4808193      1728000    2236.8441        64300         3400 
12870000   0.98469696   -3.6241664      1728000    2238.6322        64350         3402 
12880000   0.99296636    -3.559489      1728000    2240.4284        64400         3403 
12890000    1.0110606   -3.6332478      1728000    2242.2146        64450         3403 
12900000   0.98332428   -3.5560061      1728000    2244.0817        64500         3406 
12910000     1.038522   -3.6500732      1728000    2245.9178        64550         3409 
12920000    1.0253922   -3.6628764      1728000    2247.6945        64600         3412 
12930000    1.0081112   -3.7186405      1728000    2249.5193        64650         3413 
12940000   0.96832378   -3.5082521      1728000    2251.3264        64700         3414 
12950000    1.0369004   -3.5455818      1728000    2253.1158        64750         3417 
12960000   0.99015165   -3.4730079      1728000    2254.9329        64800         3418 
12970000    1.0042934   -3.4460278      1728000     2256.728        64850         3420 
12980000    1.0709024   -3.6057196      1728000    2258.5272        64900         3421 
12990000    0.9862322   -3.4353495      1728000     2260.309        64950         3423 
13000000   0.96573485   -3.5639413      1728000    2262.1155        65000         3425 
13010000   0.99237744   -3.6287576      1728000    2263.9576        65050         3429 
13020000    1.0094162   -3.6499933      1728000    2265.7545        65100         3432 
13030000    0.9505514   -3.5628518      1728000    2267.5243        65150         3433 
13040000    1.0055322    -3.546909      1728000    2269.2805        65200         3436 
13050000    1.0072477   -3.4938401      1728000    2271.0177        65250         3437 
13060000    1.0129885     -3.44529      1728000    2272.7694        65300         3439 
13070000    1.0582709   -3.5140867      1728000    2274.5728        65350         3442 
13080000   0.99685915   -3.5456734      1728000     2276.328        65400         3448 
13090000   0.99588704   -3.5561057      1728000    2278.1683        65450         3449 
13100000    1.0420815   -3.5843875      1728000    2279.9534        65500         3451 
13110000    1.0011029   -3.5509767      1728000    2281.7536        65550         3453 
13120000   0.95676827   -3.6038127      1728000    2283.5688        65600         3454 
13130000   0.99383248   -3.4626043      1728000     2285.417        65650         3456 
13140000    1.0316362   -3.3183027      1728000    2287.2024        65700         3461 
13150000   0.98417403    -3.488904      1728000    2288.9546        65750         3463 
13160000    1.0110649   -3.5617481      1728000    2290.7918        65800         3464 
13170000    1.0548598   -3.5120958      1728000    2292.6439        65850         3467 
13180000    1.0470129   -3.4719362      1728000    2294.4211        65900         3468 
13190000    1.0859274   -3.5273251      1728000    2296.1942        65950         3470 
13200000    1.0018526   -3.4732898      1728000    2297.9613        66000         3474 
13210000   0.94535258   -3.5038954      1728000    2299.7165        66050         3477 
13220000    1.0331607   -3.5606221      1728000    2301.5222        66100         3479 
13230000    1.0795156   -3.4401152      1728000    2303.3952        66150         3479 
13240000     1.001787   -3.5443162      1728000    2305.2063        66200         3482 
13250000   0.95881721   -3.5689543      1728000    2306.9577        66250         3484 
13260000    1.0224034   -3.4887246      1728000    2308.7051        66300         3488 
13270000   0.98791441   -3.5058423      1728000    2310.4533        66350         3489 
13280000   0.98565935   -3.4983945      1728000    2312.2401        66400         3492 
13290000   0.97699568    -3.613183      1728000    2314.0163        66450         3494 
13300000    1.0091222   -3.5815789      1728000    2315.8316        66500         3494 
13310000    1.0277638   -3.6539842      1728000     2317.691        66550         3496 
13320000    1.0802462    -3.559223      1728000     2319.593        66600         3498 
13330000    1.0445321   -3.4735486      1728000    2321.3924        66650         3501 
13340000    1.0033648    -3.578967      1728000    2323.1868        66700         3502 
13350000   0.97993329   -3.6110237      1728000    2325.0599        66750         3503 
13360000   0.96234888   -3.6212395      1728000    2326.8771        66800         3505 
13370000    1.0378094   -3.6327594      1728000    2328.7401        66850         3506 
13380000    0.9855312   -3.5693589      1728000    2330.5345        66900         3506 
13390000     1.008578    -3.587188      1728000     2332.337        66950         3507 
13400000   0.99973769   -3.6194716      1728000    2334.1548        67000         3508 
13410000   0.98540064   -3.6868414      1728000    2335.9772        67050         3508 
13420000   0.99043466    -3.538409      1728000    2337.7784        67100         3510 
13430000   0.98991892   -3.6831866      1728000    2339.5636        67150         3512 
13440000    1.0335091   -3.5401712      1728000    2341.3491        67200         3512 
13450000   0.98230256   -3.6005441      1728000    2343.1645        67250         3512 
13460000   0.98844565    -3.554401      1728000    2344.9944        67300         3513 
13470000     1.031597   -3.5289264      1728000    2346.7716        67350         3514 
13480000    1.0378897   -3.6112191      1728000    2348.5998        67400         3514 
13490000   0.92379834   -3.5783706      1728000    2350.3759        67450         3515 
13500000    1.0182394   -3.6095222      1728000     2352.251        67500         3518 
13510000    1.0050763    -3.570356      1728000    2354.0773        67550         3522 
13520000    1.0316661    -3.554568      1728000    2355.8224        67600         3523 
13530000    1.0082191   -3.6583869      1728000    2357.5864        67650         3523 
13540000   0.95227705   -3.5492313      1728000    2359.3684        67700         3528 
13550000   0.98476956   -3.4521212      1728000    2361.2526        67750         3529 
13560000   0.96245901   -3.5118767      1728000    2363.0203        67800         3529 
13570000    1.0059077   -3.5927881      1728000    2364.8525        67850         3535 
13580000   0.95972657   -3.4818414      1728000    2366.6616        67900         3535 
13590000    1.0340969   -3.4980584      1728000    2368.4706        67950         3536 
13600000   0.99145519   -3.5834209      1728000    2370.2383        68000         3537 
13610000    1.0809942   -3.6390755      1728000    2371.9901        68050         3539 
13620000    1.0015956   -3.5243046      1728000    2373.8125        68100         3541 
13630000   0.95302803   -3.4929129      1728000    2375.7123        68150         3542 
13640000    1.0055235   -3.5642635      1728000    2377.5224        68200         3542 
13650000    1.0239976   -3.6137953      1728000     2379.291        68250         3543 
13660000    1.0752323   -3.6440615      1728000    2381.0664        68300         3544 
13670000   0.95576611   -3.5566639      1728000    2382.8359        68350         3545 
13680000    1.0269783   -3.6220804      1728000    2384.6064        68400         3548 
13690000    1.0542651   -3.6709965      1728000    2386.3768        68450         3549 
13700000   0.99457342   -3.5791235      1728000    2388.1721        68500         3549 
13710000   0.96323605   -3.6350146      1728000    2389.9591        68550         3550 
13720000   0.99810129   -3.6036381      1728000    2391.7305        68600         3551 
13730000    1.0037012   -3.5720709      1728000    2393.5094        68650         3554 
13740000    1.0191814   -3.5212592      1728000    2395.3185        68700         3555 
13750000   0.98619174   -3.5853945      1728000    2397.1287        68750         3560 
13760000    1.0147552   -3.6681467      1728000    2398.9228        68800         3563 
13770000     1.011747    -3.540097      1728000    2400.7471        68850         3566 
13780000    1.0341064   -3.4963045      1728000    2402.5077        68900         3567 
13790000    1.0210497   -3.5659675      1728000    2404.2858        68950         3571 
13800000    1.1017448   -3.4353337      1728000    2406.0771        69000         3574 
13810000   0.93139151   -3.5273895      1728000    2407.9103        69050         3578 
13820000   0.97568585   -3.5361388      1728000    2409.6786        69100         3581 
13830000   0.93820094   -3.5953521      1728000    2411.4338        69150         3582 
13840000    1.0390569   -3.6065211      1728000    2413.2014        69200         3582 
13850000   0.96988842   -3.6620749      1728000    2415.0484        69250         3583 
13860000   0.98034261   -3.4691139      1728000    2416.8254        69300         3583 
13870000   0.97085042   -3.5154694      1728000    2418.6046        69350         3585 
13880000    1.0332161   -3.5387081      1728000    2420.4697        69400         3586 
13890000    1.0356193   -3.4343906      1728000    2422.3278        69450         3589 
13900000   0.96191078   -3.7495763      1728000    2424.1102        69500         3590 
13910000    1.0083298   -3.4849997      1728000    2425.9203        69550         3591 
13920000    1.0190979   -3.6987238      1728000    2427.6774        69600         3593 
13930000   0.99679632   -3.6415874      1728000    2429.4578        69650         3593 
13940000    1.0070925   -3.5582725      1728000    2431.2653        69700         3597 
13950000   0.99456455   -3.5877446      1728000    2433.0403        69750         3599 
13960000   0.98455719   -3.6535519      1728000    2434.8234        69800         3601 
13970000    1.0003629   -3.5967291      1728000    2436.6562        69850         3602 
13980000   0.96129645   -3.5837256      1728000     2438.449        69900         3604 
13990000    0.9736107   -3.5846314      1728000     2440.278        69950         3604 
14000000    1.0412532   -3.5572529      1728000    2442.2969        70000         3604 
14010000    1.0115964   -3.5968704      1728000    2444.2709        70050         3604 
14020000    1.0543557   -3.5520269      1728000    2446.0813        70100         3604 
14030000     1.077647   -3.6071992      1728000    2447.8351        70150         3605 
14040000   0.99104744   -3.5462432      1728000    2449.6254        70200         3606 
14050000   0.98726784   -3.6406272      1728000    2451.4503        70250         3609 
14060000   0.98004213     -3.64541      1728000    2453.2535        70300         3611 
14070000   0.96684528   -3.6826816      1728000    2455.0238        70350         3612 
14080000    1.0310884   -3.6730618      1728000     2456.793        70400         3614 
14090000    1.0182702   -3.6699485      1728000    2458.6492        70450         3614 
14100000   0.98138905   -3.8195944      1728000    2460.4409        70500         3614 
14110000    1.0727113   -3.7041645      1728000    2462.2253        70550         3614 
14120000   0.99009924   -3.6373491      1728000    2464.0362        70600         3614 
14130000   0.96920685   -3.6555417      1728000    2465.8124        70650         3615 
14140000     1.049173   -3.7023932      1728000    2467.5992        70700         3615 
14150000    1.0087875   -3.5680691      1728000    2469.4198        70750         3619 
14160000   0.94867558   -3.6246878      1728000     2471.258        70800         3619 
14170000    1.0277027   -3.6193826      1728000    2473.0563        70850         3622 
14180000    1.0635711   -3.5834971      1728000    2474.8467        70900         3624 
14190000   0.99842749   -3.6038332      1728000     2476.637        70950         3624 
14200000   0.98880008   -3.7239358      1728000    2478.4481        71000         3624 
14210000    0.9895448   -3.6659251      1728000    2480.2574        71050         3624 
14220000   0.98212386   -3.6227952      1728000    2482.0288        71100         3625 
14230000    1.0438047   -3.6216784      1728000    2483.8282        71150         3625 
14240000    1.0055367   -3.6591373      1728000    2485.6151        71200         3625 
14250000   0.99553973   -3.5774959      1728000    2487.3825        71250         3625 
14260000    1.0292743   -3.6266259      1728000    2489.1499        71300         3626 
14270000   0.96372622   -3.5646141      1728000    2490.9417        71350         3626 
14280000    0.9877978   -3.6555936      1728000     2492.733        71400         3626 
14290000    1.0194243   -3.6815209      1728000    2494.6301        71450         3626 
14300000    1.0400906   -3.7102604      1728000    2496.4634        71500         3627 
14310000    1.0098236   -3.6511852      1728000     2498.332        71550         3628 
14320000    1.0128107   -3.6594364      1728000    2500.1761        71600         3630 
14330000    1.0103559   -3.5647353      1728000    2502.0623        71650         3631 
14340000   0.94558291   -3.6179667      1728000    2503.8415        71700         3632 
14350000    1.0048586   -3.6181032      1728000    2505.6866        71750         3633 
14360000   0.94496514   -3.6024129      1728000    2507.4852        71800         3635 
14370000   0.98454807   -3.6154961      1728000    2509.2843        71850         3636 
14380000    1.0035439   -3.6347761      1728000    2511.1025        71900         3639 
14390000   0.99537067   -3.6318372      1728000    2512.9112        71950         3639 
14400000     1.000821   -3.5490031      1728000     2514.717        72000         3639 
14410000   0.99405948   -3.6402835      1728000    2516.4995        72050         3645 
14420000   0.96068331   -3.5658789      1728000    2518.3289        72100         3645 
14430000    1.0035303   -3.6884084      1728000    2520.1131        72150         3646 
14440000    1.0283122   -3.5051399      1728000    2521.8823        72200         3647 
14450000    0.9840513   -3.6241719      1728000    2523.6835        72250         3649 
14460000   0.97239184   -3.6768731      1728000    2525.5246        72300         3649 
14470000   0.99179016   -3.6979912      1728000    2527.3045        72350         3651 
14480000    1.0093104   -3.4724127      1728000    2529.1098        72400         3651 
14490000    1.0597822   -3.8026221      1728000    2530.9084        72450         3652 
14500000    1.0041093   -3.6695986      1728000    2532.6825        72500         3653 
14510000    1.0224331   -3.6646743      1728000    2534.4977        72550         3654 
14520000   0.94332031   -3.6202338      1728000    2536.5696        72600         3655 
14530000    1.0388326   -3.6446359      1728000    2538.3797        72650         3656 
14540000    1.0234702   -3.7496035      1728000    2540.1959        72700         3657 
14550000    1.0311769   -3.6681576      1728000     2542.011        72750         3658 
14560000   0.96758308   -3.6827787      1728000    2543.8442        72800         3660 
14570000   0.97850538   -3.5867573      1728000    2545.6803        72850         3660 
14580000     1.004047   -3.6908812      1728000     2547.466        72900         3663 
14590000   0.99554892   -3.6222559      1728000     2549.289        72950         3664 
14600000    1.0401406   -3.6913491      1728000    2551.0839        73000         3664 
14610000   0.98697234   -3.5382898      1728000    2552.9092        73050         3665 
14620000    1.0076353   -3.6547451      1728000    2554.7346        73100         3666 
14630000   0.95558871   -3.8084165      1728000    2556.5274        73150         3667 
14640000   0.99932593   -3.6680428      1728000    2558.3051        73200         3667 
14650000    1.0385298   -3.6297744      1728000    2560.0668        73250         3667 
14660000   0.94292852   -3.6361296      1728000    2561.8581        73300         3669 
14670000    1.0719592    -3.590293      1728000    2563.6553        73350         3670 
14680000   0.98597112   -3.5812291      1728000    2565.4325        73400         3670 
14690000    1.0494178   -3.7115677      1728000    2567.2082        73450         3671 
14700000     0.989385   -3.6677168      1728000    2569.0063        73500         3671 
14710000    1.0580082   -3.7293296      1728000    2570.7975        73550         3672 
14720000    1.0032035   -3.6397042      1728000    2572.6516        73600         3673 
14730000    1.0227194   -3.5726279      1728000    2574.5796        73650         3673 
14740000    1.0037883   -3.6668797      1728000    2576.4356        73700         3673 
14750000   0.98362567   -3.6090835      1728000    2578.2259        73750         3674 
14760000    1.0975407   -3.6334603      1728000     2580.043        73800         3675 
14770000   0.94786031    -3.722004      1728000    2581.9041        73850         3675 
14780000    1.0659805   -3.7376917      1728000    2583.8102        73900         3675 
14790000    1.0403627   -3.7689089      1728000    2585.6045        73950         3675 
14800000   0.96750855   -3.7384017      1728000    2587.4417        74000         3675 
14810000   0.97786823   -3.6948276      1728000    2589.2588        74050         3676 
14820000   0.99355901   -3.5790665      1728000     2591.145        74100         3676 
14830000    1.0207049   -3.7290249      1728000    2593.0191        74150         3677 
14840000    1.0533605   -3.6322317      1728000    2594.8343        74200         3677 
14850000     1.016099   -3.7020046      1728000     2596.655        74250         3677 
14860000    1.0396083   -3.6626234      1728000     2598.462        74300         3679 
14870000     0.950218   -3.6479928      1728000     2600.338        74350         3680 
14880000    1.0248884    -3.761391      1728000    2602.2061        74400         3680 
14890000    1.0255214   -3.6011418      1728000    2604.0208        74450         3681 
14900000   0.98389782   -3.6021694      1728000      2605.81        74500         3683 
14910000    1.0173999   -3.5137673      1728000    2607.5803        74550         3687 
14920000    1.0261926   -3.7174413      1728000    2609.3615        74600         3688 
14930000   0.93642922   -3.7038213      1728000    2611.1988        74650         3688 
14940000   0.97941463   -3.6533605      1728000    2612.9803        74700         3688 
14950000    1.0503214   -3.6058845      1728000    2614.8324        74750         3690 
14960000   0.98514073   -3.6277457      1728000    2616.6516        74800         3691 
14970000    1.0118551   -3.5247989      1728000    2618.4148        74850         3691 
14980000   0.97526381   -3.6684728      1728000    2620.2071        74900         3692 
14990000   0.95704481   -3.7042946      1728000    2621.9743        74950         3693 
15000000     1.078727   -3.4985556      1728000    2623.8105        75000         3697 
15010000   0.97263623   -3.5131425      1728000    2625.6206        75050         3697 
15020000    1.0123023   -3.6470825      1728000    2627.4358        75100         3699 
15030000    1.0257139   -3.6270914      1728000    2629.2328        75150         3701 
15040000   0.99724632   -3.6710547      1728000    2631.0097        75200         3702 
15050000   0.96058843   -3.6495208      1728000    2632.8318        75250         3703 
15060000     1.091626   -3.6671189      1728000     2634.647        75300         3704 
15070000   0.97372366   -3.6604758      1728000    2636.4701        75350         3704 
15080000    1.0134116   -3.6200138      1728000    2638.2613        75400         3706 
15090000   0.95884225   -3.7597466      1728000    2640.0555        75450         3708 
15100000    1.0364853   -3.5502703      1728000    2641.8807        75500         3709 
15110000    0.9762768    -3.688753      1728000    2643.6838        75550         3712 
15120000   0.96900217   -3.6616825      1728000    2645.4997        75600         3713 
15130000   0.98331669    -3.687661      1728000    2647.4674        75650         3714 
15140000    1.0192557   -3.6641095      1728000    2649.3744        75700         3714 
15150000    1.0002138   -3.5254135      1728000    2651.3534        75750         3714 
15160000    1.0852513   -3.6074213      1728000     2653.318        75800         3715 
15170000   0.98595348    -3.589769      1728000    2655.1484        75850         3716 
15180000   0.96436314   -3.6600594      1728000    2657.0654        75900         3716 
15190000   0.96825425   -3.5368408      1728000    2658.9075        75950         3718 
15200000   0.98403221   -3.4886423      1728000    2660.7641        76000         3720 
15210000    1.0663637   -3.6208913      1728000    2662.5533        76050         3721 
15220000    1.0767704   -3.6160143      1728000    2664.4503        76100         3721 
15230000   0.99776694   -3.6772357      1728000    2666.2435        76150         3722 
15240000    1.0394111   -3.5667357      1728000    2668.0595        76200         3723 
15250000   0.96794918   -3.5630853      1728000    2669.9216        76250         3724 
15260000   0.96814931   -3.4695838      1728000    2671.8736        76300         3725 
15270000    1.0072393    -3.628333      1728000    2673.7438        76350         3726 
15280000   0.99795916   -3.5484082      1728000     2675.624        76400         3726 
15290000    1.0226806   -3.6232049      1728000    2677.4961        76450         3726 
15300000     0.907237   -3.5341772      1728000    2679.3622        76500         3727 
15310000    1.0293964   -3.5463469      1728000    2681.1793        76550         3731 
15320000   0.96736768   -3.6496763      1728000    2683.0444        76600         3734 
15330000    1.0816369   -3.6910824      1728000    2684.8775        76650         3736 
15340000    1.0065178   -3.5241187      1728000    2686.7206        76700         3737 
15350000   0.95208987   -3.4202674      1728000    2688.5069        76750         3740 
15360000   0.96406328   -3.5352293      1728000    2690.3326        76800         3741 
15370000    1.0542584   -3.4826798      1728000    2692.1138        76850         3743 
15380000    1.0120471   -3.5525395      1728000    2693.9489        76900         3743 
15390000   0.97038864   -3.5909228      1728000    2695.6889        76950         3744 
15400000    1.0003961   -3.6138296      1728000    2697.5362        77000         3745 
15410000    1.0289523   -3.6351215      1728000    2699.3793        77050         3747 
15420000    1.0433104    -3.553049      1728000    2701.1805        77100         3747 
15430000    1.0254226   -3.4513235      1728000    2702.9636        77150         3748 
15440000   0.98513816   -3.5622611      1728000    2704.7448        77200         3749 
15450000   0.99122135   -3.5896621      1728000    2706.5019        77250         3749 
15460000    1.0354486   -3.5029573      1728000    2708.3034        77300         3751 
15470000     1.036555   -3.5273514      1728000    2710.1196        77350         3754 
15480000   0.99427737   -3.6609891      1728000    2711.9217        77400         3755 
15490000    1.0149153   -3.6200757      1728000     2713.713        77450         3758 
15500000    1.0390204   -3.6271231      1728000    2715.5072        77500         3760 
15510000   0.98765889   -3.5054287      1728000    2717.3065        77550         3761 
15520000    1.0824508   -3.5392137      1728000     2719.113        77600         3765 
15530000    1.0647407   -3.5733512      1728000    2720.9032        77650         3770 
15540000     1.020424   -3.4918056      1728000    2722.6583        77700         3771 
15550000   0.98290232   -3.7114902      1728000    2724.4675        77750         3774 
15560000   0.98940321    -3.626426      1728000    2726.2617        77800         3774 
15570000   0.99144863   -3.5670909      1728000    2728.1107        77850         3775 
15580000    1.0006299   -3.5560075      1728000    2729.9788        77900         3775 
15590000   0.97244217   -3.6492673      1728000     2731.761        77950         3777 
15600000   0.99745909   -3.6086073      1728000    2733.5344        78000         3781 
15610000    1.0041451    -3.684101      1728000    2735.2986        78050         3783 
15620000    1.0187427   -3.5321079      1728000     2737.098        78100         3786 
15630000   0.98482952   -3.7065189      1728000    2738.8857        78150         3786 
15640000   0.97246006   -3.4888098      1728000    2740.6557        78200         3791 
15650000    1.0359165   -3.5658364      1728000    2742.4445        78250         3793 
15660000   0.97021052   -3.5193332      1728000    2744.2388        78300         3796 
15670000    1.0256315   -3.5716225      1728000    2746.0429        78350         3798 
15680000   0.99271662   -3.6513135      1728000    2747.8344        78400         3799 
15690000    0.9661381   -3.5131257      1728000    2749.6458        78450         3801 
15700000    1.0188474   -3.5322967      1728000    2751.4228        78500         3807 
15710000    1.0552085   -3.5493744      1728000    2753.2601        78550         3811 
15720000    1.0495932   -3.4964256      1728000    2755.0306        78600         3814 
15730000   0.98197099   -3.7186602      1728000    2756.8458        78650         3815 
15740000    1.0200447   -3.4416748      1728000    2758.7119        78700         3817 
15750000   0.97876904   -3.5910397      1728000    2760.5122        78750         3817 
15760000    1.0503806   -3.4729309      1728000    2762.2639        78800         3818 
15770000    1.0375367   -3.5205391      1728000     2764.079        78850         3820 
15780000    1.0368599   -3.4850613      1728000    2765.8677        78900         3821 
15790000   0.97781012   -3.5975492      1728000    2767.6311        78950         3824 
15800000   0.96521249   -3.5658932      1728000    2769.4563        79000         3825 
15810000   0.99824602   -3.7049153      1728000    2771.3394        79050         3827 
15820000    1.0102218   -3.4980145      1728000    2773.2984        79100         3829 
15830000   0.98995924   -3.5248923      1728000    2775.2863        79150         3831 
15840000   0.95765071   -3.6357561      1728000    2777.3952        79200         3834 
15850000   0.98448098   -3.5478453      1728000    2779.4051        79250         3836 
15860000   0.97576848   -3.4375661      1728000    2781.3921        79300         3836 
15870000    1.0179331   -3.5903922      1728000    2783.3201        79350         3837 
15880000    1.0200819   -3.5412577      1728000    2785.2291        79400         3839 
15890000    1.0390947   -3.6719887      1728000    2787.1442        79450         3840 
15900000    1.0045219   -3.5947221      1728000    2789.0792        79500         3841 
15910000   0.94227346   -3.6167417      1728000    2791.1311        79550         3842 
15920000   0.99143707   -3.5946008      1728000      2793.12        79600         3843 
15930000   0.98238457   -3.5872235      1728000    2795.3719        79650         3845 
15940000    1.0182706   -3.5967622      1728000    2797.3159        79700         3845 
15950000   0.95119525   -3.5523173      1728000    2799.4926        79750         3846 
15960000    1.0127025   -3.5698552      1728000    2801.5306        79800         3847 
15970000     1.030301   -3.5708233      1728000    2803.5934        79850         3848 
15980000    1.0774176   -3.6146866      1728000    2805.7442        79900         3851 
15990000   0.96975167   -3.6062235      1728000    2807.9879        79950         3852 
16000000   0.99758698   -3.6306392      1728000    2810.1367        80000         3855 
16010000     1.027054    -3.552882      1728000    2812.1457        80050         3855 
16020000   0.98078816   -3.5748185      1728000    2814.1087        80100         3857 
16030000     1.004033   -3.4727133      1728000    2816.0957        80150         3857 
16040000   0.98827627   -3.6499177      1728000    2818.0806        80200         3858 
16050000   0.99257983   -3.6296009      1728000    2820.2474        80250         3860 
16060000    1.0328566   -3.4772895      1728000    2822.4381        80300         3860 
16070000   0.97124134    -3.618907      1728000     2824.571        80350         3863 
16080000    1.0180941   -3.6779546      1728000    2826.7108        80400         3863 
16090000   0.94134815   -3.5528606      1728000    2828.7307        80450         3863 
16100000   0.97389978   -3.6418926      1728000    2830.8645        80500         3864 
16110000   0.93512043   -3.6958415      1728000    2832.8934        80550         3865 
16120000   0.98814378   -3.5912633      1728000    2834.8664        80600         3868 
16130000   0.97608535    -3.645495      1728000    2836.8524        80650         3869 
16140000    1.0384468   -3.6170708      1728000    2838.8104        80700         3870 
16150000   0.94056094   -3.6352957      1728000    2840.6964        80750         3872 
16160000   0.99145205   -3.6171572      1728000    2842.5935        80800         3875 
16170000    1.0004838   -3.6602114      1728000    2844.4386        80850         3876 
16180000   0.94180429   -3.6101142      1728000    2846.2687        80900         3877 
16190000    1.0226875   -3.6463007      1728000    2848.1208        80950         3880 
16200000   0.98011064   -3.7051682      1728000    2849.9939        81000         3880 
16210000   0.93670673   -3.6728929      1728000    2851.8081        81050         3880 
16220000   0.97102079   -3.5818154      1728000    2853.6843        81100         3880 
16230000   0.96416503   -3.5814823      1728000    2855.5095        81150         3880 
16240000    1.0364452   -3.5881456      1728000    2857.3127        81200         3880 
16250000     1.051843   -3.5751076      1728000    2859.1337        81250         3881 
16260000   0.99265686   -3.6256448      1728000    2860.9578        81300         3882 
16270000   0.97353523   -3.6109344      1728000    2862.7922        81350         3883 
16280000    1.0286046   -3.6623754      1728000    2864.6273        81400         3883 
16290000   0.96548565     -3.56062      1728000    2866.6084        81450         3883 
16300000   0.96800395   -3.4899904      1728000    2868.4336        81500         3884 
16310000    1.0154262    -3.745855      1728000    2870.2468        81550         3885 
16320000   0.98793778   -3.7106733      1728000    2872.0443        81600         3885 
16330000    1.0868845   -3.5429118      1728000    2873.8365        81650         3885 
16340000   0.94690214   -3.5922657      1728000    2875.6293        81700         3885 
16350000   0.98037437   -3.5469933      1728000    2877.4694        81750         3886 
16360000   0.99456318   -3.5957782      1728000    2879.4794        81800         3888 
16370000   0.97427197   -3.6902596      1728000    2881.2567        81850         3890 
16380000   0.98853067   -3.6088623      1728000    2883.0501        81900         3891 
16390000   0.99316427   -3.6763393      1728000    2884.8424        81950         3892 
16400000    1.0124352    -3.605878      1728000    2886.6563        82000         3893 
16410000    1.0237216   -3.5156027      1728000    2888.4675        82050         3895 
16420000   0.92928306   -3.5464558      1728000    2890.3096        82100         3896 
16430000   0.96589375   -3.6411844      1728000     2892.127        82150         3898 
16440000    1.0103631   -3.5154428      1728000     2894.009        82200         3901 
16450000    1.0213384   -3.6030098      1728000    2895.7994        82250         3901 
16460000     1.038406   -3.5826541      1728000    2897.6036        82300         3905 
16470000    0.9753361   -3.6487453      1728000     2899.437        82350         3908 
16480000   0.95275826   -3.5726957      1728000     2901.294        82400         3910 
16490000    1.0015014   -3.7070372      1728000    2903.0935        82450         3911 
16500000    1.0136188   -3.5492752      1728000    2904.9186        82500         3911 
16510000   0.97991435   -3.6095473      1728000     2906.743        82550         3912 
16520000     1.065966   -3.6497769      1728000    2908.5336        82600         3912 
16530000    1.0020811    -3.586698      1728000    2910.3451        82650         3913 
16540000   0.93615492   -3.6611675      1728000      2912.15        82700         3915 
16550000    1.0005686    -3.603373      1728000     2913.948        82750         3916 
16560000    1.0154451     -3.61342      1728000    2915.8094        82800         3917 
16570000    1.0563592   -3.6361353      1728000    2917.6519        82850         3917 
16580000    1.0083077   -3.5918756      1728000    2919.5163        82900         3919 
16590000    1.0903891   -3.5840139      1728000    2921.3511        82950         3922 
16600000   0.96533528   -3.6057005      1728000    2923.2002        83000         3924 
16610000    1.0351106   -3.5061658      1728000    2925.1112        83050         3927 
16620000   0.98426721   -3.6154822      1728000    2926.9824        83100         3929 
16630000   0.94642768   -3.5827426      1728000    2928.8954        83150         3933 
16640000   0.93110619   -3.6527602      1728000    2930.7565        83200         3935 
16650000   0.91752511   -3.4699666      1728000    2932.6136        83250         3936 
16660000    1.0135704   -3.6730734      1728000    2934.4467        83300         3940 
16670000    1.0130234   -3.4626833      1728000     2936.279        83350         3942 
16680000   0.99535664   -3.6114217      1728000    2938.1391        83400         3945 
16690000    1.0152963   -3.5621032      1728000    2940.0422        83450         3945 
16700000    1.0338952   -3.5132922      1728000    2941.9162        83500         3946 
16710000    1.0416333    -3.541378      1728000    2943.7215        83550         3947 
16720000   0.98532148    -3.534323      1728000    2945.5269        83600         3947 
16730000     1.028204   -3.6576853      1728000    2947.5638        83650         3949 
16740000    1.0072392   -3.6901523      1728000    2949.4841        83700         3949 
16750000    1.0031371   -3.6171903      1728000    2951.2903        83750         3949 
16760000    1.0721853   -3.6384252      1728000    2953.0835        83800         3951 
16770000   0.93225747   -3.5083327      1728000    2954.8493        83850         3954 
16780000     1.007803    -3.589252      1728000    2956.6372        83900         3956 
16790000   0.99388553   -3.6284856      1728000    2958.4144        83950         3958 
16800000    1.0034394   -3.5823351      1728000    2960.2259        84000         3960 
16810000   0.97371227   -3.4797135      1728000    2962.0225        84050         3962 
16820000   0.97546839   -3.4896496      1728000    2963.8127        84100         3963 
16830000    0.9632032    -3.428839      1728000    2965.5828        84150         3963 
16840000   0.97284625    -3.486121      1728000    2967.3287        84200         3967 
16850000    0.9997245   -3.6664464      1728000    2969.1104        84250         3969 
16860000   0.99589899   -3.6763299      1728000    2970.9042        84300         3971 
16870000   0.98043489    -3.579891      1728000    2972.7343        84350         3974 
16880000    1.0437761   -3.5575401      1728000    2974.5301        84400         3976 
16890000   0.99274951    -3.656709      1728000    2976.3095        84450         3979 
16900000    0.9591834   -3.5778758      1728000    2978.1362        84500         3980 
16910000   0.94676288    -3.462535      1728000    2979.9344        84550         3982 
16920000    1.0446735   -3.6037816      1728000    2981.6884        84600         3984 
16930000   0.99900571   -3.6516631      1728000    2983.4738        84650         3985 
16940000   0.96589361   -3.5746515      1728000    2985.2785        84700         3986 
16950000   0.95920475   -3.5302434      1728000    2987.0394        84750         3987 
16960000    1.0178014   -3.6151016      1728000    2988.8164        84800         3990 
16970000    1.0234845   -3.4872297      1728000    2990.5827        84850         3990 
16980000   0.97212086   -3.6289171      1728000    2992.3776        84900         3992 
16990000    1.0065351   -3.5456885      1728000    2994.1543        84950         3994 
17000000    1.0217328   -3.5729039      1728000    2995.9788        85000         3996 
17010000   0.96260267   -3.5927979      1728000     2997.752        85050         3997 
17020000    1.0193543   -3.5710293      1728000    2999.5941        85100         4000 
17030000    1.0196317   -3.5436886      1728000    3001.4362        85150         4002 
17040000    1.0414672   -3.6124689      1728000     3003.284        85200         4002 
17050000    1.0618798   -3.5221433      1728000    3005.1233        85250         4003 
17060000    1.0065043   -3.5836614      1728000    3007.0554        85300         4005 
17070000      1.07562   -3.5522898      1728000    3008.8602        85350         4008 
17080000    1.0218991   -3.6320145      1728000    3010.6824        85400         4011 
17090000   0.99718496   -3.6567015      1728000    3012.4831        85450         4014 
17100000    0.9952142   -3.6884503      1728000    3014.3642        85500         4016 
17110000   0.93336355   -3.5333594      1728000    3016.2006        85550         4017 
17120000    0.9940704   -3.5328645      1728000    3018.0997        85600         4018 
17130000      1.04898   -3.4884661      1728000    3019.9748        85650         4019 
17140000   0.94244475   -3.5598166      1728000    3021.8838        85700         4023 
17150000   0.96001066   -3.6017822      1728000    3023.7699        85750         4028 
17160000    1.0001518   -3.6509081      1728000    3025.6066        85800         4030 
17170000    1.0726149   -3.6181931      1728000    3027.4001        85850         4032 
17180000   0.95703477   -3.6951348      1728000    3029.2502        85900         4035 
17190000   0.96271811   -3.7653978      1728000    3031.0674        85950         4037 
17200000    1.0058727   -3.6654422      1728000    3032.8981        86000         4037 
17210000    1.0168664   -3.5481017      1728000    3034.7423        86050         4038 
17220000    1.0046927    -3.567496      1728000    3036.5507        86100         4041 
17230000   0.99645083    -3.613264      1728000    3038.4314        86150         4043 
17240000    1.0246431    -3.791975      1728000    3040.2223        86200         4045 
17250000    1.0618068    -3.501877      1728000     3042.027        86250         4046 
17260000   0.97461169   -3.7280469      1728000    3043.8311        86300         4047 
17270000   0.96279176   -3.6341089      1728000    3045.6237        86350         4047 
17280000   0.97589537   -3.6446284      1728000    3047.4411        86400         4047 
17290000    1.0498426   -3.8126344      1728000    3049.2372        86450         4049 
17300000    1.0148795   -3.7406462      1728000    3051.0842        86500         4050 
17310000    1.0255578   -3.5923042      1728000    3052.8767        86550         4054 
17320000     1.015299   -3.7315822      1728000    3054.6899        86600         4055 
17330000   0.95226569   -3.5441307      1728000    3056.4902        86650         4056 
17340000   0.94966965   -3.5860158      1728000    3058.3613        86700         4057 
17350000   0.98275117   -3.6478426      1728000    3060.2524        86750         4057 
17360000   0.99513305   -3.6687447      1728000    3062.0529        86800         4059 
17370000   0.96876529   -3.7664934      1728000    3063.8601        86850         4059 
17380000    1.0309337   -3.7282018      1728000    3065.7324        86900         4060 
17390000   0.96751602   -3.5826671      1728000    3067.5646        86950         4060 
17400000   0.95424792   -3.5649489      1728000    3069.3697        87000         4060 
17410000    1.0323753   -3.7049908      1728000    3071.1708        87050         4062 
17420000   0.94269787   -3.6614925      1728000    3072.9886        87100         4063 
17430000   0.96469444   -3.6367591      1728000    3074.9611        87150         4065 
17440000    1.0568264   -3.6848383      1728000    3076.8398        87200         4065 
17450000    1.0366865   -3.7513136      1728000    3078.6841        87250         4067 
17460000    1.0049393   -3.7125783      1728000    3080.5267        87300         4067 
17470000   0.98117117   -3.6358251      1728000    3082.3389        87350         4069 
17480000   0.98540203   -3.5834585      1728000    3084.2243        87400         4070 
17490000     1.035272   -3.6475332      1728000    3086.1244        87450         4071 
17500000    1.0083055   -3.6450677      1728000    3088.0204        87500         4072 
17510000    1.0053762   -3.6606575      1728000     3089.844        87550         4072 
17520000    1.0024148   -3.6935472      1728000    3091.6938        87600         4073 
17530000    1.0304426    -3.685533      1728000    3093.5501        87650         4075 
17540000   0.98472806    -3.649218      1728000    3095.4011        87700         4078 
17550000    1.0318847   -3.6469257      1728000    3097.1891        87750         4080 
17560000     1.032664    -3.499678      1728000    3099.0552        87800         4081 
17570000    1.0282076   -3.6130969      1728000    3100.9282        87850         4082 
17580000   0.98217293   -3.6617645      1728000    3102.8023        87900         4083 
17590000   0.99602854   -3.7059954      1728000    3104.6083        87950         4085 
17600000    0.9827119   -3.6870719      1728000     3106.417        88000         4085 
17610000    1.0065082   -3.8477263      1728000    3108.2412        88050         4086 
17620000   0.99315022   -3.7232554      1728000    3110.0503        88100         4087 
17630000   0.98917387   -3.5761126      1728000    3111.8914        88150         4088 
17640000   0.95331202    -3.618459      1728000    3113.6919        88200         4089 
17650000    1.0153758   -3.6970356      1728000    3115.4702        88250         4090 
17660000    1.0783301   -3.7498353      1728000    3117.2665        88300         4091 
17670000   0.99083743   -3.7500058      1728000    3119.0734        88350         4092 
17680000   0.98827102   -3.6210025      1728000    3120.8653        88400         4093 
17690000   0.98517442   -3.5774357      1728000    3122.6398        88450         4095 
17700000    1.0341086   -3.6562121      1728000    3124.4662        88500         4098 
17710000   0.99855582   -3.5259366      1728000     3126.239        88550         4101 
17720000    1.0313205   -3.6470008      1728000    3128.0374        88600         4107 
17730000   0.95288691   -3.6366725      1728000     3129.835        88650         4109 
17740000    1.0256886   -3.6290659      1728000    3131.6616        88700         4113 
17750000     1.048791   -3.6207014      1728000    3133.4585        88750         4114 
17760000    1.0030148   -3.6983299      1728000    3135.2403        88800         4114 
17770000     1.024908   -3.6496858      1728000    3137.0583        88850         4115 
17780000   0.97447049   -3.6142833      1728000    3138.9234        88900         4117 
17790000    1.0245824   -3.6951131      1728000    3140.7482        88950         4120 
17800000    1.0053362   -3.6101992      1728000    3142.5403        89000         4121 
17810000   0.95123345    -3.620705      1728000    3144.3429        89050         4125 
17820000   0.92987063   -3.6965647      1728000    3146.1428        89100         4127 
17830000   0.98066036   -3.6542025      1728000    3147.9606        89150         4130 
17840000    1.0288571   -3.6137913      1728000    3149.7739        89200         4130 
17850000    0.9124155   -3.6856506      1728000    3151.5936        89250         4132 
17860000   0.95568348   -3.7333057      1728000    3153.3949        89300         4134 
17870000   0.99540679   -3.7614757      1728000    3155.2779        89350         4139 
17880000    1.0155316   -3.7411935      1728000    3157.0838        89400         4141 
17890000    1.0070169   -3.6537409      1728000    3158.9484        89450         4142 
17900000   0.98915851   -3.6481979      1728000    3160.8285        89500         4144 
17910000    1.0025595   -3.7462991      1728000    3162.7595        89550         4146 
17920000    1.0551326   -3.6828836      1728000    3164.6945        89600         4147 
17930000   0.95907088   -3.5676716      1728000    3166.5956        89650         4147 
17940000    1.0451134   -3.5246367      1728000    3168.4181        89700         4150 
17950000    1.0074633   -3.6703859      1728000    3170.3287        89750         4151 
17960000   0.94001853   -3.6843469      1728000    3172.1998        89800         4153 
17970000   0.96391993   -3.6359835      1728000    3174.0449        89850         4156 
17980000   0.94156158    -3.761718      1728000     3175.934        89900         4158 
17990000   0.95754674   -3.5353251      1728000     3177.834        89950         4161 
18000000   0.97124018   -3.6864027      1728000    3179.7631        90000         4164 
18010000   0.98752962    -3.625589      1728000    3181.6841        90050         4165 
18020000    1.0084459   -3.6797779      1728000    3183.5729        90100         4165 
18030000   0.95707705   -3.6491294      1728000     3185.478        90150         4165 
18040000     1.009212   -3.6496589      1728000    3187.3162        90200         4168 
18050000   0.98568636   -3.7698536      1728000    3189.1311        90250         4171 
18060000   0.95721943   -3.7766084      1728000    3190.9425        90300         4171 
18070000   0.99712505   -3.6757624      1728000    3192.8099        90350         4174 
18080000    1.0254712   -3.7064957      1728000     3194.742        90400         4175 
18090000   0.99259706   -3.6468863      1728000    3196.6175        90450         4178 
18100000    1.0209405   -3.7186302      1728000    3198.5255        90500         4180 
18110000    1.0037738   -3.7049589      1728000    3200.4336        90550         4180 
18120000   0.97381504   -3.6857887      1728000    3202.2947        90600         4183 
18130000   0.95460456   -3.6222479      1728000     3204.184        90650         4183 
18140000    1.0285975   -3.7639618      1728000    3205.9876        90700         4184 
18150000   0.97067048   -3.7127184      1728000    3207.8001        90750         4185 
18160000   0.98698998   -3.7125069      1728000    3209.6922        90800         4185 
18170000   0.97822684   -3.8025991      1728000    3211.5259        90850         4188 
18180000   0.99604502   -3.7027525      1728000    3213.3725        90900         4191 
18190000   0.94288812   -3.6338576      1728000    3215.2253        90950         4191 
18200000    1.0229807    -3.749975      1728000    3217.0808        91000         4191 
18210000    1.0758904     -3.75908      1728000    3218.9716        91050         4193 
18220000   0.99338916   -3.6523023      1728000    3220.8537        91100         4195 
18230000   0.95358162    -3.655858      1728000    3222.7997        91150         4198 
18240000   0.96064507   -3.6987221      1728000    3224.6748        91200         4199 
18250000    1.0177214   -3.7981582      1728000    3226.5758        91250         4201 
18260000    1.0150531   -3.7946894      1728000    3228.4858        91300         4201 
18270000     1.032949   -3.6389739      1728000    3230.4928        91350         4202 
18280000    1.0560433   -3.7198411      1728000     3232.369        91400         4204 
18290000   0.95487404   -3.6373026      1728000    3234.2122        91450         4206 
18300000   0.99200079    -3.812313      1728000    3236.0321        91500         4207 
18310000   0.96295481    -3.727248      1728000    3237.8961        91550         4210 
18320000   0.98348546   -3.6137072      1728000    3239.7565        91600         4210 
18330000    1.0272839   -3.7973001      1728000    3241.6626        91650         4211 
18340000    0.9970402   -3.6643957      1728000    3243.5397        91700         4213 
18350000    1.0132654   -3.6872231      1728000    3245.4113        91750         4215 
18360000    1.0473735   -3.7198791      1728000    3247.3004        91800         4215 
18370000    1.0229843   -3.6803298      1728000    3249.1436        91850         4218 
18380000    1.0558998   -3.6612484      1728000    3250.9629        91900         4221 
18390000    1.0377691   -3.6994265      1728000    3252.8459        91950         4224 
18400000   0.97532121   -3.6648595      1728000     3254.728        92000         4227 
18410000   0.98691323   -3.7591976      1728000    3256.6581        92050         4229 
18420000    1.0055212   -3.7996739      1728000    3258.5637        92100         4230 
18430000   0.95590114   -3.7506357      1728000    3260.5171        92150         4231 
18440000   0.98950918   -3.7581116      1728000    3262.4312        92200         4231 
18450000    1.0471944    -3.803248      1728000    3264.2963        92250         4232 
18460000    1.0073208   -3.7548178      1728000    3266.1279        92300         4233 
18470000   0.97981425   -3.7017171      1728000     3267.992        92350         4235 
18480000    1.0216156   -3.7533233      1728000    3269.8432        92400         4235 
18490000   0.98738762   -3.7184579      1728000    3271.6693        92450         4236 
18500000     1.018087    -3.679207      1728000    3273.5013        92500         4236 
18510000    1.0574375   -3.8244835      1728000    3275.6042        92550         4236 
18520000   0.97297793   -3.6466532      1728000    3277.5104        92600         4238 
18530000    1.0851955   -3.8105911      1728000    3279.3835        92650         4239 
18540000    1.0189985   -3.6980844      1728000    3281.2269        92700         4242 
18550000   0.98388803    -3.877176      1728000    3283.0767        92750         4242 
18560000   0.98232969   -3.7112073      1728000    3285.0097        92800         4246 
18570000     1.023878   -3.7937315      1728000    3287.0067        92850         4246 
18580000    1.0744653   -3.7841079      1728000    3288.9477        92900         4249 
18590000    1.0148905   -3.7210108      1728000    3290.8408        92950         4250 
18600000   0.97674092   -3.8411846      1728000    3292.7494        93000         4252 
18610000    1.0143638   -3.7480706      1728000    3294.6034        93050         4252 
18620000    1.0054789   -3.7865232      1728000    3296.4446        93100         4252 
18630000   0.99685592   -3.7777163      1728000     3298.364        93150         4253 
18640000    1.0065843   -3.7046799      1728000    3300.2621        93200         4254 
18650000    1.0208453   -3.7692264      1728000    3302.1781        93250         4254 
18660000    0.9957304    -3.673621      1728000    3304.1025        93300         4255 
18670000   0.97261747   -3.7452414      1728000    3305.9878        93350         4255 
18680000     1.044981   -3.7806025      1728000    3307.9308        93400         4258 
18690000    1.0284469   -3.7226489      1728000    3309.8098        93450         4259 
18700000   0.98949541   -3.8666799      1728000    3311.6608        93500         4260 
18710000   0.97313214   -3.8004142      1728000    3313.5112        93550         4262 
18720000   0.94648375   -3.6792269      1728000    3315.3907        93600         4265 
18730000    1.0219183   -3.8771556      1728000    3317.2559        93650         4266 
18740000   0.93787474   -3.7175461      1728000    3319.1389        93700         4266 
18750000   0.99789777   -3.8625083      1728000     3321.041        93750         4266 
18760000   0.99476041   -3.8019168      1728000    3322.9232        93800         4266 
18770000   0.98007661   -3.7353613      1728000    3324.8324        93850         4267 
18780000   0.99738308   -3.6920344      1728000    3326.6864        93900         4268 
18790000    0.9762561   -3.7007022      1728000     3328.515        93950         4268 
18800000   0.97582144   -3.8769613      1728000    3330.3758        94000         4268 
18810000   0.97406047   -3.7338332      1728000    3332.2269        94050         4268 
18820000   0.93940712   -3.6657446      1728000     3334.109        94100         4272 
18830000   0.94336727     -3.65856      1728000    3335.9542        94150         4272 
18840000      1.05481   -3.7853041      1728000    3337.8783        94200         4272 
18850000   0.95063074   -3.6548737      1728000    3339.7429        94250         4272 
18860000    1.0008257   -3.7323659      1728000     3341.619        94300         4274 
18870000    1.0090574   -3.7198846      1728000    3343.5093        94350         4275 
18880000    1.0559398   -3.6642555      1728000    3345.3934        94400         4278 
18890000   0.98651942   -3.6874744      1728000    3347.3005        94450         4279 
18900000   0.99493774   -3.6589103      1728000    3349.2225        94500         4279 
18910000    1.0232843   -3.7438121      1728000    3351.0846        94550         4281 
18920000    1.0209356   -3.7507587      1728000    3352.9769        94600         4282 
18930000    1.0320337   -3.7937731      1728000    3354.8609        94650         4284 
18940000   0.97271765   -3.7619859      1728000    3356.7569        94700         4285 
18950000    1.0642873   -3.6866608      1728000    3358.6819        94750         4285 
18960000    0.9815705   -3.7326072      1728000     3360.606        94800         4285 
18970000   0.97882995   -3.7456755      1728000    3362.4949        94850         4288 
18980000   0.98395996   -3.6896277      1728000     3364.358        94900         4289 
18990000   0.99610142   -3.9245413      1728000    3366.1951        94950         4289 
19000000    1.0142048   -3.8368441      1728000    3368.1192        95000         4291 
19010000    1.0048616   -3.7949064      1728000    3370.0172        95050         4291 
19020000    1.0293976    -3.760067      1728000    3371.9053        95100         4294 
19030000   0.95760081   -3.7762672      1728000    3373.8383        95150         4294 
19040000    1.0271914   -3.7461649      1728000    3375.7024        95200         4294 
19050000   0.99129987    -3.833617      1728000    3377.5512        95250         4294 
19060000   0.99806889   -3.7570336      1728000    3379.4418        95300         4294 
19070000   0.97031332   -3.8070292      1728000    3381.3046        95350         4295 
19080000   0.96344856   -3.8002103      1728000    3383.1595        95400         4297 
19090000   0.99088334   -3.9048165      1728000    3385.0581        95450         4298 
19100000    1.0187568    -3.735635      1728000     3386.923        95500         4300 
19110000   0.92764263   -3.8500372      1728000    3388.7863        95550         4303 
19120000   0.95081003   -3.7574984      1728000    3390.6414        95600         4306 
19130000    1.0186676   -3.6995196      1728000    3392.5558        95650         4308 
19140000   0.98239996   -3.8126443      1728000    3394.4569        95700         4308 
19150000   0.96487178   -3.8604633      1728000     3396.352        95750         4308 
19160000    1.0518267   -3.6855208      1728000    3398.2011        95800         4308 
19170000    1.0006755   -3.8459918      1728000    3400.0743        95850         4309 
19180000   0.99946067    -3.750764      1728000    3401.9416        95900         4309 
19190000    1.0045647   -3.8009341      1728000    3403.8786        95950         4309 
19200000   0.94578134   -3.9340498      1728000    3405.8046        96000         4309 
19210000    1.0060718   -3.8078683      1728000    3407.6979        96050         4311 
19220000    1.0016049   -3.7481751      1728000     3409.569        96100         4311 
19230000   0.97761338   -3.8412383      1728000    3411.4094        96150         4313 
19240000   0.99629308   -3.8063847      1728000    3413.2791        96200         4313 
19250000   0.98714474   -3.7232383      1728000    3415.1561        96250         4314 
19260000    1.0150468   -3.8844716      1728000    3417.0733        96300         4314 
19270000    1.0070637   -3.7478729      1728000    3418.9983        96350         4314 
19280000    1.0450391   -3.9531831      1728000    3420.9013        96400         4314 
19290000    1.0414444   -3.7898377      1728000    3422.7976        96450         4315 
19300000   0.99741633   -3.8396623      1728000    3424.6698        96500         4316 
19310000   0.99144915   -3.7209297      1728000    3426.5625        96550         4316 
19320000    0.9727527   -3.8089921      1728000    3428.5097        96600         4316 
19330000    1.0200478   -3.7393147      1728000    3430.3997        96650         4317 
19340000    0.9895026   -3.8919708      1728000    3432.2829        96700         4318 
19350000   0.97799628   -3.7144573      1728000    3434.1726        96750         4319 
19360000    1.0135256    -3.837857      1728000    3436.0478        96800         4319 
19370000    1.0090897   -3.8651713      1728000    3437.8942        96850         4319 
19380000    1.0684952   -3.8154254      1728000    3439.7315        96900         4319 
19390000   0.98761054   -3.7433529      1728000    3441.6056        96950         4320 
19400000     1.025545   -3.8915402      1728000    3443.7566        97000         4321 
19410000    1.0954182    -3.765201      1728000     3445.595        97050         4322 
19420000    1.0045015   -3.7605498      1728000    3447.4136        97100         4324 
19430000    1.0556822   -3.6599887      1728000    3449.2872        97150         4324 
19440000    1.0732617   -3.7649321      1728000    3451.2559        97200         4324 
19450000    1.0849769   -3.7577098      1728000    3453.1096        97250         4324 
19460000   0.96268589   -3.7410735      1728000    3454.9971        97300         4326 
19470000    1.0662653   -3.6665054      1728000    3456.8332        97350         4327 
19480000    0.9834165   -3.6558661      1728000    3458.7447        97400         4328 
19490000   0.94441521    -3.992942      1728000    3460.6298        97450         4329 
19500000    1.0487875    -3.646123      1728000    3462.4964        97500         4331 
19510000   0.99833981   -3.8978952      1728000    3464.3871        97550         4332 
19520000   0.97400035   -3.7784536      1728000    3466.2801        97600         4332 
19530000   0.98951005   -3.7552782      1728000    3468.1257        97650         4333 
19540000   0.93814177   -3.8201856      1728000    3470.0611        97700         4335 
19550000   0.98950904   -3.7972132      1728000    3471.9622        97750         4335 
19560000   0.97262372   -3.8338193      1728000    3473.7836        97800         4336 
19570000   0.94851441   -3.8112017      1728000    3475.6326        97850         4337 
19580000   0.99444232    -3.905557      1728000    3477.5293        97900         4337 
19590000   0.93923008   -3.7104668      1728000    3479.3918        97950         4337 
19600000   0.95720574    -3.914026      1728000    3481.2629        98000         4340 
19610000    1.0477249   -3.7280918      1728000    3483.0924        98050         4341 
19620000   0.95242093   -3.8707702      1728000    3484.9657        98100         4343 
19630000    1.0408993   -3.8336806      1728000    3486.7974        98150         4344 
19640000    1.0000337   -3.7445853      1728000    3488.6314        98200         4346 
19650000     1.061678    -3.872124      1728000    3490.5024        98250         4346 
19660000   0.98205601   -3.7489983      1728000    3492.3784        98300         4347 
19670000   0.93965558   -3.8118562      1728000    3494.2784        98350         4347 
19680000     1.016504   -3.7494148      1728000    3496.2005        98400         4347 
19690000    0.9981008   -3.7867414      1728000    3498.0836        98450         4348 
19700000   0.99777809    -3.816269      1728000    3500.0496        98500         4348 
19710000   0.97032251   -3.7310275      1728000    3501.9147        98550         4350 
19720000   0.98609322     -3.83989      1728000    3503.7684        98600         4350 
19730000    1.0148003    -3.783531      1728000    3505.6217        98650         4352 
19740000   0.94830062   -3.7702179      1728000    3507.4779        98700         4353 
19750000    1.0320743   -3.9229998      1728000    3509.3083        98750         4353 
19760000   0.95630451   -3.7927914      1728000    3511.1695        98800         4355 
19770000    1.0305952   -3.7815336      1728000    3513.0446        98850         4358 
19780000    1.0164857   -3.8085556      1728000    3514.8985        98900         4359 
19790000    1.0603474   -3.7080151      1728000    3516.7546        98950         4361 
19800000    1.0668676   -3.7828561      1728000    3518.6109        99000         4361 
19810000   0.96661164   -3.7694722      1728000     3520.464        99050         4363 
19820000    1.0571129   -3.8092846      1728000     3522.298        99100         4364 
19830000    1.0019073   -3.5853138      1728000    3524.1204        99150         4367 
19840000    1.0060683   -3.7370939      1728000    3525.9705        99200         4368 
19850000    1.0615838    -3.708101      1728000    3527.8053        99250         4369 
19860000   0.94732877   -3.7501188      1728000    3529.6965        99300         4372 
19870000    1.0081007     -3.78412      1728000    3531.5296        99350         4373 
19880000    1.0194741   -3.7246304      1728000    3533.3873        99400         4373 
19890000    1.0079875   -3.7969444      1728000    3535.3114        99450         4374 
19900000   0.98402811   -3.7540653      1728000    3537.2414        99500         4375 
19910000   0.93725571    -3.818539      1728000    3539.1324        99550         4375 
19920000   0.93675292   -3.7257961      1728000    3541.0944        99600         4375 
19930000    1.0227196   -3.7219366      1728000    3542.9591        99650         4375 
19940000   0.99160379   -3.7577037      1728000    3544.7795        99700         4376 
19950000    1.0227798   -3.7845667      1728000    3546.6785        99750         4376 
19960000    1.0112379    -3.765357      1728000    3548.5552        99800         4376 
19970000     1.010048   -3.7883183      1728000     3550.503        99850         4377 
19980000   0.95027713   -3.7930553      1728000    3552.3407        99900         4377 
19990000    1.0057215   -3.6389377      1728000    3554.2043        99950         4379 
20000000   0.92484513   -3.7382879      1728000    3556.0436       100000         4379 
20010000    1.0876859   -3.8408856      1728000    3557.8925       100050         4379 
20020000    1.0699606   -3.7718622      1728000    3559.7453       100100         4380 
20030000   0.95531562   -3.7847519      1728000    3561.6503       100150         4382 
20040000    1.0729896   -3.6082717      1728000    3563.4936       100200         4384 
20050000   0.99784387   -3.7558849      1728000     3565.324       100250         4384 
20060000   0.99061706   -3.7681512      1728000    3567.2551       100300         4386 
20070000   0.99338855   -3.7203107      1728000    3569.1179       100350         4389 
20080000     1.009561   -3.7070109      1728000    3570.9736       100400         4392 
20090000    1.0744715   -3.8513755      1728000    3572.8381       100450         4393 
20100000    1.0430242   -3.7275854      1728000    3574.7284       100500         4393 
20110000    1.0131124   -3.8275104      1728000    3576.5711       100550         4393 
20120000    1.0480867   -3.7324456      1728000    3578.4188       100600         4394 
20130000   0.96788783   -3.9316438      1728000    3580.2679       100650         4394 
20140000   0.94251935   -3.7446302      1728000    3582.1091       100700         4395 
20150000   0.98534111   -3.8881277      1728000    3583.9488       100750         4397 
20160000   0.95881814   -3.8094175      1728000    3585.7864       100800         4399 
20170000    1.0468792   -3.7909791      1728000    3587.6954       100850         4399 
20180000     1.015851   -3.7806582      1728000    3589.5627       100900         4401 
20190000   0.98779653   -3.9133703      1728000    3591.4259       100950         4401 
20200000   0.97919072   -3.8865948      1728000    3593.3534       101000         4402 
20210000   0.97671393   -3.9832548      1728000    3595.1989       101050         4402 
20220000   0.96696349   -3.8823651      1728000    3597.0853       101100         4402 
20230000   0.98141917   -3.9108875      1728000    3598.9415       101150         4402 
20240000    1.0818779    -3.853358      1728000    3600.8114       101200         4403 
20250000    1.0463558   -3.8985896      1728000    3602.9034       101250         4405 
20260000    1.0634417   -3.8513918      1728000    3605.0097       101300         4405 
20270000    1.0048865   -3.8194281      1728000    3606.8685       101350         4406 
20280000   0.96391295   -3.7593733      1728000    3608.7741       101400         4406 
20290000    1.0321998   -3.7589008      1728000    3610.6651       101450         4406 
20300000   0.96377688   -3.7849454      1728000    3612.5273       101500         4407 
20310000   0.98123165   -3.8283648      1728000    3614.3814       101550         4408 
20320000    1.0353348   -3.7831709      1728000    3616.2623       101600         4410 
20330000   0.99068182   -3.8015608      1728000    3618.1435       101650         4410 
20340000    1.0269038   -3.8656424      1728000    3619.9824       101700         4410 
20350000    1.0293393   -3.7490227      1728000    3622.0641       101750         4411 
20360000    1.0008775   -3.7480355      1728000    3623.9542       101800         4411 
20370000    1.0577372   -3.8824797      1728000    3625.8622       101850         4412 
20380000   0.99075817   -3.7061584      1728000    3627.7663       101900         4414 
20390000    1.0066406   -3.8421988      1728000    3629.6619       101950         4416 
20400000   0.99065788   -3.8533061      1728000    3631.5484       102000         4418 
20410000   0.93813875   -3.8458181      1728000    3633.4904       102050         4418 
20420000   0.98328285   -3.7296276      1728000    3635.5547       102100         4419 
20430000   0.91383275   -3.8217891      1728000     3637.721       102150         4420 
20440000    1.0347018   -3.7817371      1728000    3639.5953       102200         4421 
20450000    1.0389342   -3.7787571      1728000    3641.4904       102250         4422 
20460000    1.0124789   -3.8055099      1728000    3643.3753       102300         4422 
20470000   0.93144007   -3.7433924      1728000     3645.229       102350         4422 
20480000   0.98656253   -3.8209332      1728000    3647.0856       102400         4422 
20490000    1.0111713   -3.8257576      1728000    3648.9372       102450         4422 
20500000   0.95956116   -3.8816848      1728000    3650.8992       102500         4423 
20510000    1.0129899   -3.6966338      1728000    3652.8152       102550         4425 
20520000    1.0122644   -3.7937836      1728000    3654.7776       102600         4427 
20530000     1.046137   -3.6426059      1728000    3656.6517       102650         4428 
20540000     1.001071   -3.8068906      1728000      3658.51       102700         4429 
20550000    1.0241455   -3.7295584      1728000    3660.3952       102750         4429 
20560000    1.0438279   -3.8086051      1728000    3662.3042       102800         4431 
20570000   0.97114485   -3.8336649      1728000    3664.1816       102850         4432 
20580000   0.98793671   -3.6940048      1728000    3666.0639       102900         4434 
20590000   0.99613572   -3.8032947      1728000     3667.972       102950         4434 
20600000    1.0265398   -3.7861587      1728000      3669.92       103000         4434 
20610000     1.053935   -3.7391332      1728000     3671.849       103050         4436 
20620000    0.9439237   -3.6001874      1728000     3673.753       103100         4436 
20630000    1.0639317   -3.8477203      1728000    3675.6701       103150         4438 
20640000   0.96022354   -3.8219254      1728000    3677.5303       103200         4439 
20650000    1.0163954   -3.7755428      1728000    3679.4562       103250         4439 
20660000    1.0821038   -3.7376143      1728000    3681.3443       103300         4440 
20670000   0.94218355    -3.992359      1728000    3683.2443       103350         4440 
20680000    0.9837082   -3.7584511      1728000    3685.1514       103400         4441 
20690000   0.94495296   -3.7805856      1728000    3687.0411       103450         4442 
20700000   0.99439411   -3.8416073      1728000    3688.9032       103500         4443 
20710000    1.0700638   -3.8373745      1728000    3690.7517       103550         4445 
20720000   0.98125093    -3.848868      1728000    3692.6867       103600         4445 
20730000   0.97687183   -3.8371348      1728000    3694.6317       103650         4445 
20740000   0.98986226   -3.7942414      1728000    3696.5138       103700         4446 
20750000    1.0237862   -3.8362573      1728000    3698.6226       103750         4446 
20760000    1.0339351   -3.8810691      1728000    3700.5386       103800         4447 
20770000    1.0850785   -3.7830803      1728000    3702.5701       103850         4447 
20780000    1.0401429   -3.7033667      1728000    3704.4433       103900         4448 
20790000   0.99754358    -3.831265      1728000    3706.2781       103950         4449 
20800000     1.013998   -3.8061187      1728000    3708.2944       104000         4449 
20810000   0.97836594    -3.836912      1728000    3710.2044       104050         4451 
20820000   0.98045655   -3.7170157      1728000    3712.1149       104100         4451 
20830000    1.0108369   -3.7493949      1728000    3714.0061       104150         4451 
20840000    1.0001841   -3.7556887      1728000    3715.8462       104200         4453 
20850000   0.97268511   -3.8287279      1728000    3717.6954       104250         4453 
20860000   0.95652477   -3.9078498      1728000    3719.5726       104300         4453 
20870000    1.0456494   -3.8364917      1728000    3721.4562       104350         4453 
20880000    1.0203773   -3.7006796      1728000    3723.2872       104400         4453 
20890000    1.0129962   -3.8158858      1728000    3725.1905       104450         4453 
20900000    1.0345582   -3.7882324      1728000    3727.0423       104500         4453 
20910000    1.0348664   -3.9451259      1728000    3728.8992       104550         4453 
20920000     1.007912   -3.8580471      1728000    3730.7472       104600         4453 
20930000   0.98121261   -3.9345335      1728000    3732.6543       104650         4453 
20940000    1.0692913   -3.7646285      1728000    3734.5199       104700         4454 
20950000   0.95558534   -3.7795653      1728000     3736.415       104750         4455 
20960000    1.0364249   -3.7432662      1728000    3738.2411       104800         4455 
20970000    1.0565902   -3.9537421      1728000    3740.0811       104850         4456 
20980000    1.0048463   -3.9222961      1728000    3741.9081       104900         4456 
20990000    1.0010154   -3.7941014      1728000    3743.7604       104950         4457 
21000000   0.99125239   -3.8872009      1728000    3745.7024       105000         4458 
21010000     1.064007   -3.9010993      1728000    3747.6265       105050         4460 
21020000    1.0156568   -3.9351846      1728000    3749.4771       105100         4460 
21030000   0.99970448   -3.8047208      1728000    3751.3754       105150         4461 
21040000   0.99544631   -3.8401529      1728000    3753.2875       105200         4461 
21050000     0.978857   -3.7520387      1728000    3755.1865       105250         4461 
21060000   0.97431467   -3.8696579      1728000    3757.1176       105300         4463 
21070000    1.0022525   -3.7654746      1728000    3759.0096       105350         4463 
21080000    1.0194464   -3.6805681      1728000    3760.9057       105400         4463 
21090000   0.99908694   -3.7730734      1728000    3762.8357       105450         4464 
21100000    1.0259924   -3.7580793      1728000    3764.7291       105500         4465 
21110000    1.0140702   -3.7403967      1728000    3766.6012       105550         4466 
21120000    1.0640949   -3.7716995      1728000    3768.4979       105600         4466 
21130000    1.0205823   -3.8055255      1728000    3770.3674       105650         4469 
21140000   0.97308212   -3.8017895      1728000    3772.2461       105700         4471 
21150000   0.98004315   -3.8536415      1728000    3774.2347       105750         4471 
21160000   0.97743059   -3.7718297      1728000    3776.1241       105800         4472 
21170000    1.0409345   -3.8577077      1728000    3777.9738       105850         4474 
21180000    1.0681686    -3.870158      1728000    3779.8482       105900         4475 
21190000    1.0371736   -3.8300448      1728000    3781.7291       105950         4475 
21200000   0.98381191   -3.7751028      1728000    3783.6021       106000         4476 
21210000   0.96573689   -3.7166312      1728000    3785.4314       106050         4476 
21220000   0.95620539   -3.7726057      1728000    3787.2782       106100         4478 
21230000   0.96854521   -3.7725103      1728000    3789.1473       106150         4480 
21240000   0.95804446   -3.8109299      1728000    3790.9981       106200         4482 
21250000   0.98677472   -3.7934481      1728000    3792.8652       106250         4484 
21260000   0.99015298   -3.7023967      1728000    3794.7942       106300         4484 
21270000    1.0456239   -3.6753273      1728000    3796.6629       106350         4486 
21280000   0.98089863   -3.8127664      1728000     3798.539       106400         4489 
21290000   0.95323782   -3.7019374      1728000    3800.4702       106450         4490 
21300000   0.94774101   -3.7240487      1728000    3802.3189       106500         4491 
21310000    1.0096173   -3.6320083      1728000     3804.306       106550         4493 
21320000    1.0031041   -3.6890644      1728000    3806.1791       106600         4494 
21330000    1.0157603   -3.8461468      1728000     3808.012       106650         4497 
21340000   0.99192555   -3.8107514      1728000    3809.8587       106700         4497 
21350000    1.0543102   -3.7395814      1728000     3811.689       106750         4498 
21360000   0.92694455    -3.769972      1728000    3813.4989       106800         4499 
21370000   0.95206619    -3.806612      1728000    3815.3281       106850         4500 
21380000    1.0040966   -3.7681084      1728000    3817.1575       106900         4500 
21390000   0.97724744   -3.7480576      1728000    3819.0309       106950         4501 
21400000    1.0370527    -3.819109      1728000    3820.8769       107000         4501 
21410000    1.0190816   -3.8193024      1728000    3822.7444       107050         4502 
21420000    1.0071408   -3.8315663      1728000    3824.6591       107100         4502 
21430000    1.0361396   -3.7992792      1728000    3826.6025       107150         4502 
21440000    1.0311336   -3.8132928      1728000    3828.4999       107200         4504 
21450000    0.9937336   -3.8944596      1728000    3830.4129       107250         4504 
21460000    1.0540818   -3.7575199      1728000    3832.2857       107300         4505 
21470000   0.92946028   -3.7999521      1728000    3834.1461       107350         4507 
21480000   0.99642155   -3.7220069      1728000    3835.9928       107400         4507 
21490000    1.0054467   -3.8009548      1728000    3837.8439       107450         4507 
21500000   0.99395683   -3.8044239      1728000    3839.7769       107500         4507 
21510000    1.0580413   -3.7308277      1728000    3841.6191       107550         4507 
21520000    1.0287169   -3.8819622      1728000     3843.476       107600         4508 
21530000   0.98973597   -3.9777618      1728000     3845.315       107650         4508 
21540000   0.99959569   -3.7734726      1728000    3847.1553       107700         4509 
21550000   0.97958943   -3.7794433      1728000     3848.981       107750         4510 
21560000   0.98391493   -3.8323904      1728000    3850.8519       107800         4510 
21570000   0.99841301    -3.719101      1728000      3852.69       107850         4511 
21580000    1.0283042   -3.8773602      1728000     3854.521       107900         4512 
21590000   0.96247891   -3.9067439      1728000     3856.343       107950         4512 
21600000    1.0301459   -3.8029244      1728000    3858.1651       108000         4512 
21610000    0.9214197   -3.8431075      1728000    3859.9862       108050         4512 
21620000    1.0360032   -3.7649544      1728000     3861.797       108100         4513 
21630000      1.04653   -3.6541081      1728000    3863.6012       108150         4514 
21640000    1.0132763    -3.825633      1728000    3865.4068       108200         4515 
21650000   0.97902513   -3.7501482      1728000    3867.2224       108250         4516 
21660000    1.0046886   -3.7746593      1728000    3869.0369       108300         4516 
21670000    1.0153575   -3.7819497      1728000    3870.8749       108350         4516 
21680000   0.98690524   -3.7606733      1728000     3872.683       108400         4516 
21690000   0.97263465   -3.6996853      1728000    3874.4913       108450         4516 
21700000    1.0040092   -3.7978717      1728000    3876.3083       108500         4516 
21710000   0.98753165   -3.7535994      1728000    3878.1369       108550         4518 
21720000    1.0109377   -3.7997777      1728000    3879.9461       108600         4518 
21730000    1.0165913   -3.8143514      1728000    3881.8963       108650         4520 
21740000   0.97178461   -3.6738035      1728000    3883.7834       108700         4522 
21750000    1.0466716   -3.8290567      1728000    3885.6159       108750         4523 
21760000    1.0640309   -3.5644914      1728000    3887.4601       108800         4525 
21770000    1.0599107   -3.6626161      1728000     3889.291       108850         4525 
21780000    1.0305965   -3.8614211      1728000    3891.1031       108900         4526 
21790000   0.95020959   -3.8048413      1728000    3892.9365       108950         4526 
21800000   0.98827965   -3.7721482      1728000    3894.7907       109000         4526 
21810000    1.0011036   -3.7942824      1728000     3896.637       109050         4526 
21820000   0.92238961   -3.8393214      1728000    3898.4458       109100         4528 
21830000    0.9393773   -3.8337205      1728000    3900.2607       109150         4528 
21840000   0.94921979   -3.9106192      1728000     3902.071       109200         4533 
21850000    1.0474172   -3.7300583      1728000     3903.872       109250         4534 
21860000   0.97919921   -3.7292997      1728000    3905.6789       109300         4535 
21870000   0.98867418    -3.773906      1728000    3907.5048       109350         4535 
21880000   0.98639678   -3.5837264      1728000    3909.3439       109400         4538 
21890000   0.98688916   -3.7180652      1728000    3911.1319       109450         4539 
21900000   0.94655472   -3.6830464      1728000    3912.9428       109500         4541 
21910000    0.9803074    -3.876925      1728000    3914.7919       109550         4541 
21920000   0.97824083   -3.6571073      1728000    3916.6379       109600         4541 
21930000   0.98641642   -3.8932486      1728000     3918.491       109650         4544 
21940000   0.97617615   -3.7684852      1728000    3920.3609       109700         4544 
21950000     0.944732   -3.7455981      1728000    3922.2378       109750         4545 
21960000   0.94566196   -3.9246092      1728000    3924.0819       109800         4545 
21970000   0.99432888   -3.7833407      1728000    3925.9105       109850         4547 
21980000   0.99870614   -3.8365454      1728000    3927.7798       109900         4548 
21990000    1.0424602    -3.816239      1728000     3929.817       109950         4548 
22000000   0.98321632   -3.7363952      1728000    3931.6615       110000         4548 
22010000    1.0280752   -3.7326621      1728000    3933.5891       110050         4548 
22020000    1.0145816    -3.783502      1728000    3935.5721       110100         4550 
22030000    0.9501853   -3.8123856      1728000    3937.4807       110150         4550 
22040000   0.95684546   -3.7503319      1728000    3939.3209       110200         4550 
22050000   0.98476474    -3.855416      1728000    3941.1469       110250         4551 
22060000   0.99519289   -3.8742433      1728000    3943.0508       110300         4552 
22070000     1.017654    -3.830215      1728000    3944.9199       110350         4552 
22080000    1.0296962   -3.8457286      1728000    3946.7458       110400         4552 
22090000    1.0330429   -3.8731607      1728000    3948.6662       110450         4552 
22100000   0.96262666   -3.8111161      1728000    3950.5915       110500         4552 
22110000    1.0040151   -3.8146959      1728000     3952.484       110550         4552 
22120000   0.97440499    -3.831292      1728000    3954.3441       110600         4552 
22130000    0.9850751   -3.7924718      1728000    3956.1928       110650         4552 
22140000   0.96678577   -3.8418182      1728000     3958.059       110700         4552 
22150000    1.0229478   -3.8011713      1728000    3959.9223       110750         4554 
22160000   0.96320628   -3.8176953      1728000     3961.787       110800         4555 
22170000    1.0304514   -3.8392108      1728000    3963.6762       110850         4558 
22180000    1.0296789    -3.821697      1728000     3965.524       110900         4560 
22190000    1.0254239   -3.7018234      1728000    3967.3582       110950         4560 
22200000    1.0669846   -3.7611729      1728000    3969.2562       111000         4562 
22210000   0.99762237     -3.83346      1728000    3971.0957       111050         4562 
22220000   0.96501992   -3.8313087      1728000     3972.936       111100         4565 
22230000     1.025848   -3.8307072      1728000    3974.8171       111150         4565 
22240000   0.97641934   -3.8183909      1728000    3976.7269       111200         4566 
22250000    1.0381016   -3.8791813      1728000    3978.5595       111250         4567 
22260000    1.0342118   -3.8841118      1728000    3980.4711       111300         4567 
22270000   0.93741159   -3.8408645      1728000    3982.3038       111350         4568 
22280000    1.0154336   -3.7528272      1728000    3984.1548       111400         4569 
22290000    1.0444998   -3.8300124      1728000    3985.9853       111450         4570 
22300000   0.99818481   -3.7233318      1728000    3987.9024       111500         4570 
22310000   0.99333055   -3.8519262      1728000    3989.7876       111550         4571 
22320000    1.0569051   -3.7031358      1728000    3991.6634       111600         4571 
22330000    1.0217457   -3.8028932      1728000    3993.5035       111650         4571 
22340000    1.0482957   -3.7470239      1728000    3995.3308       111700         4571 
22350000   0.96181153   -3.8040312      1728000    3997.1448       111750         4571 
22360000     1.007586   -3.8211346      1728000    3998.9598       111800         4571 
22370000     1.033988   -3.8240498      1728000    4000.7826       111850         4573 
22380000   0.95986211   -3.8005301      1728000    4002.6018       111900         4573 
22390000   0.99262058   -3.7939738      1728000    4004.4407       111950         4574 
22400000   0.99474062    -3.628456      1728000    4006.3435       112000         4575 
22410000     1.035722   -3.8179323      1728000    4008.3309       112050         4576 
22420000    1.0112604   -3.8482368      1728000    4010.2182       112100         4578 
22430000   0.96513488   -3.7705333      1728000    4012.0618       112150         4579 
22440000   0.95758027   -3.8655812      1728000    4013.8748       112200         4580 
22450000   0.95084392   -3.8335928      1728000    4015.7067       112250         4580 
22460000   0.99683119   -3.8083615      1728000    4017.5378       112300         4580 
22470000    1.0204329   -3.7637873      1728000    4019.3628       112350         4581 
22480000     1.059206   -3.7143059      1728000    4021.2096       112400         4583 
22490000    1.0454406   -3.7697715      1728000    4023.0221       112450         4584 
22500000   0.99915542   -3.7876965      1728000    4024.9269       112500         4585 
22510000   0.99883762   -3.7656715      1728000    4026.8066       112550         4585 
22520000    0.9695382   -3.7232996      1728000    4028.6587       112600         4585 
22530000    1.0215372   -3.8426755      1728000    4030.5169       112650         4585 
22540000   0.98434904   -3.8056729      1728000    4032.3447       112700         4587 
22550000    1.0535052   -3.8051474      1728000     4034.193       112750         4589 
22560000   0.98822532   -3.8447222      1728000    4036.0738       112800         4589 
22570000    1.0077506   -3.7836932      1728000    4037.8877       112850         4589 
22580000   0.98521257   -3.8011026      1728000    4039.7457       112900         4589 
22590000    1.0152575   -3.6792464      1728000    4041.6008       112950         4590 
22600000    0.9890438   -3.8263097      1728000    4043.4478       113000         4590 
22610000   0.95538657   -3.8812136      1728000    4045.3163       113050         4590 
22620000    1.0005738   -3.8166856      1728000    4047.2144       113100         4590 
22630000    1.0001787    -3.797061      1728000    4049.1567       113150         4590 
22640000   0.92711033   -3.8541853      1728000    4051.0148       113200         4594 
22650000   0.93799366    -3.678005      1728000    4052.8757       113250         4594 
22660000   0.97366599   -3.7789613      1728000    4054.7588       113300         4595 
22670000    1.0383793   -3.7000837      1728000    4056.6428       113350         4595 
22680000     1.018384   -3.7363139      1728000    4058.5114       113400         4595 
22690000     1.004652   -3.8340693      1728000    4060.4033       113450         4595 
22700000    1.0759692   -3.7602963      1728000    4062.3012       113500         4595 
22710000   0.98602065   -3.7504878      1728000    4064.1798       113550         4599 
22720000   0.95645127   -3.8512036      1728000     4066.019       113600         4599 
22730000   0.98830902   -3.7841789      1728000    4067.8446       113650         4601 
22740000    1.0159402   -3.8546091      1728000    4069.7764       113700         4601 
22750000     1.058404   -3.6487056      1728000    4071.6625       113750         4602 
22760000     0.988148   -3.7583422      1728000    4073.5159       113800         4604 
22770000   0.98150707   -3.7811873      1728000     4075.398       113850         4604 
22780000    1.0073766   -3.7328032      1728000    4077.2491       113900         4604 
22790000   0.92949891   -3.7989267      1728000    4079.1128       113950         4605 
22800000   0.97048077   -3.8972405      1728000    4080.9217       114000         4607 
22810000   0.97950777   -3.7475136      1728000    4082.7245       114050         4608 
22820000   0.98385356   -3.7013973      1728000    4084.5908       114100         4610 
22830000   0.97185412   -3.5722146      1728000    4086.4287       114150         4611 
22840000    1.0332718   -3.6584122      1728000    4088.2608       114200         4611 
22850000    1.0106873   -3.7788987      1728000    4090.0816       114250         4612 
22860000   0.98380375   -3.8001555      1728000    4091.9103       114300         4614 
22870000    1.0588988   -3.6062623      1728000    4093.7757       114350         4615 
22880000   0.96586578   -3.8188094      1728000    4095.6107       114400         4616 
22890000   0.93226166   -3.7815502      1728000    4097.4297       114450         4618 
22900000    1.0132761   -3.8139622      1728000    4099.2584       114500         4619 
22910000   0.98267387   -3.7594368      1728000    4101.1215       114550         4619 
22920000   0.98794367   -3.6728242      1728000    4102.9538       114600         4621 
22930000    1.0234739   -3.7740066      1728000    4104.7989       114650         4622 
22940000   0.99935738   -3.7879891      1728000    4106.6196       114700         4622 
22950000   0.96870801   -3.8435624      1728000    4108.4358       114750         4622 
22960000   0.98536467   -3.8494578      1728000    4110.2506       114800         4625 
22970000   0.99742472   -3.8379888      1728000    4112.0747       114850         4626 
22980000    1.0318145   -3.7272901      1728000    4113.9216       114900         4628 
22990000    1.0564933   -3.7108712      1728000    4115.7565       114950         4629 
23000000    1.0742914    -3.768444      1728000    4117.6086       115000         4630 
23010000   0.96970939   -3.7079085      1728000    4119.4706       115050         4630 
23020000    1.0346929   -3.7623661      1728000    4121.3717       115100         4630 
23030000    1.0440603   -3.8953081      1728000    4123.2766       115150         4633 
23040000    1.0497626    -3.848299      1728000    4125.1746       115200         4637 
23050000   0.97987643   -3.6947057      1728000    4127.0335       115250         4637 
23060000   0.97240899   -3.8223801      1728000    4128.8986       115300         4639 
23070000    1.0289534   -3.8505337      1728000    4130.7318       115350         4645 
23080000    1.0037125   -3.6730058      1728000    4132.5696       115400         4646 
23090000   0.95720513   -3.8835265      1728000    4134.4226       115450         4648 
23100000   0.97011208   -3.7522223      1728000     4136.276       115500         4648 
23110000    0.9981079   -3.8336593      1728000    4138.1391       115550         4648 
23120000    1.0131174   -3.7886678      1728000    4139.9724       115600         4652 
23130000   0.96298693     -3.65591      1728000    4141.8038       115650         4652 
23140000    1.0024828   -3.8722488      1728000    4143.6909       115700         4652 
23150000    0.9863665   -3.6585036      1728000    4145.5661       115750         4652 
23160000   0.96336645   -3.7506973      1728000    4147.4252       115800         4652 
23170000    1.0661693    -3.740719      1728000    4149.2767       115850         4653 
23180000    1.0510731   -3.6554676      1728000    4151.1001       115900         4653 
23190000    1.0673102   -3.7961014      1728000    4152.9326       115950         4655 
23200000   0.90423166   -3.6942716      1728000    4154.8067       116000         4655 
23210000    1.0256703   -3.6647167      1728000    4156.6306       116050         4656 
23220000   0.96924956   -3.7043106      1728000    4158.4791       116100         4656 
23230000    1.0178601   -3.7702291      1728000    4160.2956       116150         4656 
23240000    1.0561183   -3.7449164      1728000    4162.3828       116200         4659 
23250000   0.96406524   -3.8857862      1728000    4164.2125       116250         4660 
23260000    1.0044415    -3.898456      1728000    4166.1115       116300         4663 
23270000   0.97023724   -3.8208649      1728000    4168.0088       116350         4665 
23280000   0.99958884   -3.9077942      1728000    4169.8609       116400         4665 
23290000    1.0241705   -3.8002335      1728000    4171.7041       116450         4666 
23300000    0.9185025    -3.773568      1728000    4173.5746       116500         4666 
23310000   0.98711661   -3.6855919      1728000    4175.3906       116550         4666 
23320000   0.99238621    -3.747044      1728000    4177.1903       116600         4666 
23330000    1.0360664   -3.7444099      1728000    4179.0025       116650         4666 
23340000   0.99930485   -3.7749587      1728000    4180.8525       116700         4669 
23350000    1.0273458   -3.6995457      1728000    4182.6476       116750         4672 
23360000   0.98676866   -3.7763179      1728000    4184.4852       116800         4672 
23370000   0.96959811   -3.8561515      1728000    4186.3036       116850         4673 
23380000   0.94499865   -3.7627603      1728000    4188.1895       116900         4673 
23390000   0.95798007    -3.721644      1728000    4190.1115       116950         4674 
23400000   0.96783416   -3.7635099      1728000     4191.996       117000         4675 
23410000   0.94162296   -3.7798707      1728000     4193.992       117050         4675 
23420000    1.0345496   -3.8430326      1728000    4195.9465       117100         4676 
23430000     1.021244   -3.7052365      1728000    4197.8356       117150         4677 
23440000    1.0360689   -3.7456056      1728000     4199.727       117200         4679 
23450000   0.94818598   -3.7957631      1728000     4201.635       117250         4680 
23460000    1.0102922   -3.7940818      1728000    4203.5081       117300         4680 
23470000    1.0322863   -3.6879912      1728000    4205.3477       117350         4683 
23480000   0.96730147   -3.7936298      1728000    4207.1903       117400         4683 
23490000    1.0510594   -3.7861521      1728000    4209.0196       117450         4685 
23500000   0.98797611   -3.7794329      1728000    4210.9562       117500         4685 
23510000   0.95907354   -3.8167477      1728000    4212.9202       117550         4685 
23520000    1.0035278   -3.7873766      1728000    4214.7556       117600         4685 
23530000    0.9296629    -3.694272      1728000    4216.5784       117650         4687 
23540000    1.0253996   -3.9030195      1728000    4218.4185       117700         4688 
23550000   0.95734054   -3.7883385      1728000    4220.3765       117750         4689 
23560000    1.0116829   -3.8966989      1728000    4222.1714       117800         4691 
23570000   0.95451555   -3.7772818      1728000    4224.0229       117850         4691 
23580000   0.98721309   -3.8347991      1728000    4225.8919       117900         4692 
23590000    1.0316626   -3.7489992      1728000    4227.7676       117950         4692 
23600000    0.9937164   -3.6947365      1728000    4229.6086       118000         4692 
23610000    1.0340398   -3.8159224      1728000    4231.4335       118050         4692 
23620000   0.97407663   -3.7554024      1728000    4233.2966       118100         4693 
23630000     1.013996   -3.8517107      1728000    4235.1696       118150         4695 
23640000    1.0812839   -3.8446871      1728000    4237.0199       118200         4696 
23650000    1.0115272   -3.7398705      1728000    4238.8742       118250         4696 
23660000    0.9916298   -3.8484524      1728000    4240.7155       118300         4696 
23670000   0.99709338   -3.9227996      1728000    4242.5846       118350         4696 
23680000     0.963991   -3.8438851      1728000    4244.4175       118400         4696 
23690000   0.97679419   -3.8134306      1728000    4246.2267       118450         4696 
23700000    1.0028187   -3.8913122      1728000     4248.043       118500         4696 
23710000    1.0659319   -3.7783332      1728000    4249.8673       118550         4697 
23720000    1.0157116   -3.8081788      1728000    4251.6742       118600         4697 
23730000    1.0427266   -3.8265647      1728000    4253.5068       118650         4697 
23740000   0.96423955   -3.8234661      1728000    4255.3384       118700         4698 
23750000   0.99796566   -3.7947118      1728000    4257.1491       118750         4700 
23760000   0.95931438   -3.8744445      1728000    4258.9657       118800         4701 
23770000    1.0326174   -3.7045816      1728000    4260.7883       118850         4701 
23780000     1.043695    -3.958514      1728000    4262.6672       118900         4701 
23790000    1.0392311   -3.9464821      1728000    4264.6013       118950         4701 
23800000   0.97976222   -3.7118957      1728000    4266.5147       119000         4701 
23810000    1.0216532   -3.8226526      1728000    4268.3308       119050         4701 
23820000    1.0656289   -3.7885513      1728000    4270.1772       119100         4701 
23830000     1.035338   -3.8024037      1728000    4272.0087       119150         4701 
23840000    1.0288444   -3.8602399      1728000    4273.8281       119200         4702 
23850000    1.0261318   -3.6992287      1728000    4275.6454       119250         4702 
23860000   0.99081533   -3.9065841      1728000    4277.4974       119300         4702 
23870000    1.0182937   -3.8112871      1728000    4279.3489       119350         4702 
23880000    1.0004186   -3.8790826      1728000    4281.1813       119400         4702 
23890000   0.96398937   -3.7345023      1728000    4282.9995       119450         4703 
23900000   0.99976741   -3.8429184      1728000    4284.8584       119500         4703 
23910000   0.96225655   -3.6446256      1728000    4286.7027       119550         4704 
23920000   0.95227792   -3.7988997      1728000    4288.5249       119600         4704 
23930000   0.99145118      -3.7972      1728000    4290.3704       119650         4708 
23940000    1.0276367   -3.8390345      1728000    4292.2062       119700         4708 
23950000   0.98109229   -3.8237398      1728000    4294.0465       119750         4708 
23960000    1.0417983   -3.8239828      1728000    4295.9273       119800         4708 
23970000    1.0215846   -3.8276067      1728000    4297.7555       119850         4709 
23980000    1.0097577   -3.8580117      1728000    4299.6491       119900         4711 
23990000   0.97616089   -3.8026971      1728000    4301.6467       119950         4711 
24000000    1.0036028   -3.6419771      1728000    4303.5277       120000         4712 
24010000   0.93876219   -3.7507372      1728000    4305.3357       120050         4712 
24020000    1.0413034   -3.8026077      1728000    4307.1678       120100         4712 
24030000   0.96778962   -3.8267465      1728000    4309.1059       120150         4712 
24040000   0.96117651   -3.8327419      1728000    4311.0709       120200         4712 
24050000   0.99393813   -3.8041755      1728000    4312.9113       120250         4712 
24060000    1.0434203   -3.8231563      1728000    4314.7386       120300         4713 
24070000   0.99032248   -3.9556398      1728000    4316.5693       120350         4713 
24080000   0.91355204   -3.7827961      1728000    4318.5753       120400         4715 
24090000     1.003755    -3.702461      1728000    4320.4109       120450         4717 
24100000    1.0199003   -3.7663498      1728000    4322.2453       120500         4717 
24110000    1.0031407   -3.7960565      1728000    4324.0604       120550         4717 
24120000    1.0063061   -3.5963378      1728000    4325.8893       120600         4718 
24130000    1.0305857   -3.6856095      1728000    4327.7482       120650         4719 
24140000   0.97844865   -3.8976544      1728000    4329.5915       120700         4720 
24150000    1.0162259   -3.7043877      1728000    4331.4722       120750         4720 
24160000     1.017339   -3.7670711      1728000    4333.3075       120800         4720 
24170000    1.0063145   -3.7136558      1728000     4335.155       120850         4721 
24180000   0.98087491   -3.8954796      1728000    4337.0082       120900         4721 
24190000   0.99121633   -3.8416361      1728000    4338.8402       120950         4722 
24200000   0.95579018   -3.7636173      1728000    4340.6811       121000         4722 
24210000    1.0485663   -3.8840984      1728000     4342.522       121050         4722 
24220000    1.0341764   -3.8964066      1728000    4344.4022       121100         4723 
24230000    1.0318913   -3.9528377      1728000    4346.2757       121150         4724 
24240000   0.92624213   -3.7207874      1728000    4348.1329       121200         4725 
24250000   0.99744128   -3.7282243      1728000    4349.9906       121250         4727 
24260000   0.97413244   -3.8078249      1728000    4351.8353       121300         4728 
24270000   0.98714142    -3.858809      1728000    4353.6951       121350         4729 
24280000     0.954769   -3.7711932      1728000    4355.5668       121400         4730 
24290000    1.0521512   -3.7764467      1728000    4357.4191       121450         4730 
24300000   0.99227747   -3.8193108      1728000    4359.3015       121500         4731 
24310000   0.94440413   -3.7611733      1728000    4361.1358       121550         4732 
24320000   0.97721483   -3.8612203      1728000    4362.9522       121600         4733 
24330000    1.0012586   -3.9210543      1728000    4364.7911       121650         4734 
24340000    1.0147548   -3.7923036      1728000    4366.6194       121700         4735 
24350000    1.0210676   -3.7977495      1728000     4368.477       121750         4736 
24360000    1.0518637   -3.7472565      1728000    4370.3792       121800         4738 
24370000   0.97277113    -3.830093      1728000    4372.2016       121850         4739 
24380000   0.98707523   -3.7716536      1728000    4374.0228       121900         4741 
24390000   0.99125912   -3.8332099      1728000     4375.876       121950         4741 
24400000   0.99326597   -3.6996768      1728000    4377.7395       122000         4741 
24410000    1.0452102   -3.8805603      1728000    4379.5905       122050         4742 
24420000   0.96546395   -3.8409805      1728000    4381.4717       122100         4742 
24430000   0.95768917   -3.6556767      1728000    4383.3243       122150         4742 
24440000   0.98374933    -3.841721      1728000    4385.1768       122200         4742 
24450000   0.98079485   -3.7293594      1728000    4387.0411       122250         4742 
24460000   0.99349643   -3.6680995      1728000    4388.8712       122300         4742 
24470000    1.0391112   -3.7285715      1728000    4390.7128       122350         4744 
24480000   0.94993901   -3.8598689      1728000    4392.5744       122400         4746 
24490000    1.0244347   -3.8327481      1728000    4394.4867       122450         4749 
24500000     1.063675   -3.8076494      1728000    4396.3314       122500         4751 
24510000   0.93965751   -3.7004652      1728000    4398.1577       122550         4752 
24520000   0.98556112   -3.6482628      1728000    4400.0158       122600         4752 
24530000    0.9642926    -3.682188      1728000    4402.0647       122650         4753 
24540000    1.0695964   -3.7312754      1728000    4403.9203       122700         4756 
24550000    1.0461449   -3.8812011      1728000     4405.785       122750         4756 
24560000    1.0260851   -3.7312718      1728000    4407.7203       122800         4758 
24570000    1.0123294   -3.8828708      1728000    4409.6813       122850         4758 
24580000    1.0240398    -3.830689      1728000    4411.8134       122900         4758 
24590000   0.98174552   -3.8417725      1728000    4413.6785       122950         4759 
24600000    1.0529949   -3.7781727      1728000    4415.5525       123000         4761 
24610000   0.97652353   -3.8496147      1728000    4417.3759       123050         4762 
24620000   0.95462906   -3.8615834      1728000    4419.1995       123100         4763 
24630000    1.0015651   -3.8345253      1728000    4421.0331       123150         4763 
24640000   0.99597953    -3.631072      1728000    4422.8531       123200         4764 
24650000    1.0133439    -3.698263      1728000    4424.6901       123250         4766 
24660000   0.98486489   -3.8944582      1728000     4426.511       123300         4766 
24670000    1.0067399   -3.7778713      1728000    4428.3378       123350         4768 
24680000   0.97669011   -3.8351661      1728000     4430.219       123400         4769 
24690000    1.0308285   -3.8096193      1728000    4432.0633       123450         4771 
24700000    1.0435099   -3.7441044      1728000    4433.8838       123500         4771 
24710000   0.96412447   -3.7232454      1728000    4435.7411       123550         4772 
24720000    1.0095365   -3.7641146      1728000    4437.5543       123600         4773 
24730000    1.0644777   -3.7210777      1728000    4439.3982       123650         4773 
24740000    1.0200173   -3.6314576      1728000    4441.2113       123700         4773 
24750000   0.96766055   -3.8299769      1728000    4443.0277       123750         4774 
24760000    1.0035961   -3.6775733      1728000    4444.8421       123800         4774 
24770000   0.92212994   -3.6926765      1728000    4446.6535       123850         4777 
24780000   0.96074093   -3.8084466      1728000    4448.4778       123900         4778 
24790000   0.99203367    -3.741248      1728000    4450.2952       123950         4779 
24800000    1.0203171   -3.7787244      1728000     4452.124       124000         4780 
24810000    1.0175335   -3.6402098      1728000    4454.1189       124050         4782 
24820000    1.0258065   -3.6525921      1728000    4455.9529       124100         4784 
24830000   0.99645758   -3.6537995      1728000    4457.8887       124150         4786 
24840000   0.99822948   -3.6935074      1728000    4459.7182       124200         4789 
24850000    1.0331954   -3.6754336      1728000    4461.5221       124250         4793 
24860000    1.0031861   -3.8732148      1728000     4463.327       124300         4796 
24870000    1.0011733   -3.7751397      1728000    4465.2019       124350         4798 
24880000    1.0196814   -3.8380844      1728000     4467.032       124400         4799 
24890000      1.03554   -3.7581851      1728000    4468.9074       124450         4800 
24900000   0.94612708   -3.8891012      1728000    4470.7638       124500         4800 
24910000    1.0242769   -3.7096044      1728000    4472.7461       124550         4801 
24920000    1.0446571    -3.713359      1728000    4474.7024       124600         4802 
24930000    0.9539377   -3.7293256      1728000    4476.5041       124650         4803 
24940000   0.93227922   -3.7485008      1728000    4478.2942       124700         4804 
24950000   0.97347134   -3.9370212      1728000    4480.0831       124750         4804 
24960000    1.0404959   -3.8742196      1728000    4481.9039       124800         4805 
24970000   0.94536157   -3.8539115      1728000    4483.7441       124850         4806 
24980000   0.93739334   -3.7446667      1728000    4485.5738       124900         4806 
24990000    1.0245434   -3.8723803      1728000    4487.4033       124950         4806 
25000000   0.98594983   -3.9028692      1728000    4489.2478       125000         4807 
25010000   0.97579057    -3.778755      1728000    4491.0581       125050         4808 
25020000   0.99738597   -3.6985799      1728000    4492.9018       125100         4809 
25030000    1.0270653   -3.8321498      1728000    4494.7192       125150         4809 
25040000   0.99543695   -3.6977176      1728000    4496.5571       125200         4809 
25050000    1.0458657    -3.878484      1728000     4498.353       125250         4809 
25060000   0.94458685   -3.7944714      1728000    4500.1445       125300         4809 
25070000    0.9525179   -3.7806189      1728000     4501.938       125350         4811 
25080000    1.0864752   -3.8252165      1728000    4503.7412       125400         4811 
25090000    0.9905413   -3.7159897      1728000    4505.5526       125450         4814 
25100000    1.0156795   -3.7266975      1728000     4507.371       125500         4817 
25110000    1.0775567   -3.8147611      1728000    4509.2111       125550         4819 
25120000    1.0096265   -3.6865635      1728000    4511.0037       125600         4819 
25130000    1.0538302   -3.7525194      1728000    4512.8395       125650         4821 
25140000   0.93608599   -3.7651665      1728000    4514.7875       125700         4823 
25150000   0.94791241   -3.6538653      1728000     4516.629       125750         4823 
25160000    0.9718315   -3.6386927      1728000    4518.4087       125800         4825 
25170000   0.95874548   -3.6223738      1728000    4520.1871       125850         4827 
25180000   0.99694276   -3.7296632      1728000      4521.97       125900         4828 
25190000   0.98877439   -3.6351056      1728000    4523.7621       125950         4831 
25200000   0.93847008   -3.7331412      1728000     4525.618       126000         4835 
25210000   0.94491753    -3.708927      1728000    4527.3961       126050         4836 
25220000    1.0348855   -3.7479622      1728000     4529.183       126100         4838 
25230000    1.0131579   -3.7922794      1728000     4530.991       126150         4839 
25240000   0.96688432   -3.6697737      1728000     4532.804       126200         4840 
25250000    1.0373839   -3.7656841      1728000    4534.5997       126250         4842 
25260000    1.0068154   -3.7844688      1728000    4536.3988       126300         4843 
25270000    1.0243085   -3.6826765      1728000    4538.1898       126350         4845 
25280000    1.0456323   -3.7450197      1728000    4540.0069       126400         4847 
25290000    1.0245147   -3.6754771      1728000    4541.7819       126450         4848 
25300000   0.93858697   -3.7459383      1728000     4543.695       126500         4848 
25310000   0.98790766   -3.7335447      1728000      4545.49       126550         4851 
25320000   0.98314071   -3.5781341      1728000    4547.2943       126600         4855 
25330000    1.0034334   -3.7324861      1728000     4549.091       126650         4856 
25340000   0.95367658      -3.6607      1728000    4550.8829       126700         4858 
25350000    1.0167092   -3.6818107      1728000    4552.6959       126750         4859 
25360000   0.99192287    -3.764468      1728000     4554.484       126800         4860 
25370000    1.0178229   -3.6835569      1728000     4556.279       126850         4861 
25380000   0.99106445   -3.6592208      1728000     4558.064       126900         4864 
25390000   0.98118507    -3.720692      1728000    4559.8886       126950         4865 
25400000   0.99143213   -3.7227237      1728000     4561.707       127000         4866 
25410000   0.98220962   -3.7963404      1728000    4563.5778       127050         4868 
25420000     1.011087   -3.8717791      1728000     4565.399       127100         4869 
25430000    1.0550252    -3.717684      1728000      4567.21       127150         4870 
25440000    1.0033701   -3.6764789      1728000     4569.019       127200         4872 
25450000   0.99575803   -3.8290118      1728000    4570.8191       127250         4874 
25460000   0.96686857   -3.8421286      1728000     4572.613       127300         4875 
25470000   0.93436975   -3.7389932      1728000    4574.4159       127350         4877 
25480000    1.0267598    -3.832694      1728000    4576.2028       127400         4877 
25490000    1.0286658   -3.7215012      1728000     4578.022       127450         4877 
25500000     1.023359   -3.7844239      1728000    4579.8509       127500         4877 
25510000    1.0857278   -3.6486373      1728000    4581.6344       127550         4879 
25520000   0.97998726   -3.7635979      1728000    4583.4274       127600         4881 
25530000   0.97340178    -3.871647      1728000    4585.2412       127650         4881 
25540000   0.95649453   -3.8608663      1728000    4587.0496       127700         4881 
25550000    1.0105859   -3.7945725      1728000    4588.8529       127750         4881 
25560000    1.0207412   -3.7980785      1728000    4590.6539       127800         4881 
25570000    1.0196515   -3.6911843      1728000    4592.4439       127850         4884 
25580000   0.99838622   -3.6888509      1728000    4594.3369       127900         4888 
25590000   0.96483907    -3.742817      1728000     4596.177       127950         4888 
25600000    1.0074689    -3.853604      1728000    4598.0792       128000         4891 
25610000    1.0194843   -3.8452449      1728000    4599.8769       128050         4892 
25620000    1.0180033   -3.7971172      1728000    4601.6853       128100         4897 
25630000   0.96166646    -3.703254      1728000    4603.4882       128150         4897 
25640000   0.96454855   -3.8158653      1728000    4605.2777       128200         4898 
25650000    1.0273277   -3.7823673      1728000    4607.0748       128250         4898 
25660000    1.0297544   -3.6816978      1728000    4608.9031       128300         4900 
25670000   0.98749663   -3.8674703      1728000    4610.7108       128350         4900 
25680000   0.98223833    -3.777464      1728000    4612.5288       128400         4901 
25690000    1.0617032   -3.7342917      1728000    4614.3398       128450         4901 
25700000   0.96967367   -3.8763831      1728000     4616.193       128500         4901 
25710000    1.0573347   -3.8402191      1728000    4618.0198       128550         4903 
25720000   0.93856809   -3.7352937      1728000    4619.8332       128600         4904 
25730000    1.0175126   -3.8324882      1728000    4621.6559       128650         4904 
25740000   0.99643394   -3.7323989      1728000    4623.4827       128700         4906 
25750000   0.97078227   -3.8291537      1728000    4625.2868       128750         4908 
25760000    1.0279122   -3.8126436      1728000    4627.0929       128800         4909 
25770000   0.96716554   -3.8059281      1728000    4628.9119       128850         4911 
25780000     1.018791   -3.7023636      1728000    4630.7336       128900         4913 
25790000    1.0107467   -3.8642168      1728000    4632.5719       128950         4913 
25800000    1.0143164   -3.7870755      1728000    4634.3805       129000         4914 
25810000   0.99434168   -3.7618056      1728000    4636.1721       129050         4914 
25820000    0.9708931   -3.7396833      1728000     4637.975       129100         4914 
25830000   0.93046943   -3.7728649      1728000    4639.8298       129150         4914 
25840000   0.97833323   -3.6898798      1728000    4641.6266       129200         4915 
25850000    1.0210791   -3.8487173      1728000    4643.4535       129250         4915 
25860000   0.98126573   -3.6924249      1728000    4645.2687       129300         4916 
25870000    1.0162822    -3.760388      1728000    4647.0687       129350         4916 
25880000   0.99921439   -3.7574908      1728000    4648.9038       129400         4918 
25890000     1.034026   -3.7249342      1728000    4650.7159       129450         4919 
25900000    1.0560835   -3.7947854      1728000    4652.5347       129500         4919 
25910000    1.0864688   -3.7856942      1728000    4654.3748       129550         4919 
25920000   0.97995241   -3.7737896      1728000    4656.1746       129600         4922 
25930000    1.0021004   -3.7904105      1728000    4658.0058       129650         4922 
25940000   0.96998896   -3.7319469      1728000    4659.8498       129700         4924 
25950000   0.97255743   -3.7711581      1728000    4661.6578       129750         4925 
25960000   0.98355213   -3.7618392      1728000    4663.4931       129800         4925 
25970000    1.0106047   -3.8166482      1728000    4665.2987       129850         4925 
25980000    1.0082049   -3.6517313      1728000    4667.1108       129900         4925 
25990000    1.0600628   -3.7513761      1728000     4668.945       129950         4925 
26000000   0.99179404   -3.8087362      1728000    4670.8026       130000         4925 
26010000   0.92997189   -3.7308052      1728000       4672.6       130050         4926 
26020000    1.0034145    -3.896604      1728000    4674.3988       130100         4927 
26030000   0.90276326   -3.8172959      1728000    4676.2043       130150         4931 
26040000   0.97911587   -3.8524623      1728000     4678.026       130200         4932 
26050000   0.97265966    -3.777721      1728000    4679.8411       130250         4933 
26060000   0.96026386   -3.7882487      1728000    4681.6485       130300         4933 
26070000    1.0126599   -3.7402091      1728000    4683.4601       130350         4933 
26080000   0.99291973   -3.8175428      1728000    4685.2847       130400         4934 
26090000   0.96274529   -3.7956319      1728000    4687.0781       130450         4934 
26100000   0.97718731   -3.7589879      1728000    4688.9078       130500         4936 
26110000    1.0550568   -3.7977872      1728000    4690.7077       130550         4936 
26120000    1.0133534    -3.816546      1728000    4692.6037       130600         4937 
26130000   0.95837243   -3.7185898      1728000    4694.4928       130650         4937 
26140000   0.99989522   -3.7300582      1728000    4696.2977       130700         4939 
26150000    1.0065994   -3.8103554      1728000    4698.0931       130750         4942 
26160000   0.97591737   -3.7351723      1728000    4699.9046       130800         4942 
26170000   0.98994656   -3.8516768      1728000    4701.7138       130850         4945 
26180000    1.0087748    -3.822495      1728000    4703.5547       130900         4945 
26190000    1.0013888   -3.8233676      1728000    4705.3689       130950         4945 
26200000    1.0188318    -3.756741      1728000    4707.2048       131000         4946 
26210000   0.99367281   -3.7941607      1728000    4709.0226       131050         4946 
26220000    0.9938221   -3.6887955      1728000    4710.8376       131100         4947 
26230000   0.97421016   -3.7135784      1728000    4712.8166       131150         4948 
26240000    0.9624296   -3.7636896      1728000    4714.6147       131200         4949 
26250000   0.95655012   -3.7689536      1728000    4716.4556       131250         4951 
26260000    1.0044734   -3.7824129      1728000    4718.3126       131300         4952 
26270000    1.0200839   -3.7649163      1728000    4720.1365       131350         4953 
26280000    1.0056367    -3.791695      1728000    4722.0766       131400         4954 
26290000    1.0036666   -3.7770621      1728000    4723.8916       131450         4955 
26300000    1.0471949   -3.8767172      1728000    4725.7503       131500         4957 
26310000   0.94638488   -3.6634801      1728000    4727.5419       131550         4957 
26320000    0.9674686   -3.6491827      1728000    4729.3527       131600         4957 
26330000    1.0469096    -3.692367      1728000    4731.2059       131650         4960 
26340000   0.97963147   -3.7820313      1728000    4732.9978       131700         4962 
26350000   0.97026799   -3.7220263      1728000    4734.8038       131750         4962 
26360000    1.0234594   -3.7662542      1728000    4736.5926       131800         4962 
26370000   0.99119472    -3.757798      1728000    4738.3906       131850         4963 
26380000   0.98285847   -3.7260813      1728000    4740.1947       131900         4967 
26390000   0.98060678   -3.6748856      1728000    4741.9716       131950         4971 
26400000     1.053887   -3.7535197      1728000    4743.7786       132000         4972 
26410000   0.99221309   -3.7455228      1728000    4745.5865       132050         4973 
26420000    1.0380331   -3.6130195      1728000    4747.4046       132100         4975 
26430000   0.96437387   -3.7698451      1728000    4749.2258       132150         4976 
26440000    0.9953381   -3.7473117      1728000    4751.0157       132200         4976 
26450000     1.003145   -3.7014006      1728000    4752.8397       132250         4977 
26460000    1.0333637   -3.5838198      1728000    4754.6395       132300         4978 
26470000    1.0556154   -3.6515435      1728000    4756.4327       132350         4978 
26480000    1.0043852   -3.5191632      1728000    4758.2067       132400         4978 
26490000   0.99842833   -3.7148749      1728000    4759.9816       132450         4980 
26500000    1.0548718   -3.7338447      1728000    4761.7906       132500         4982 
26510000    1.0601829   -3.6287141      1728000    4763.6167       132550         4985 
26520000   0.94961644   -3.7223876      1728000    4765.4011       132600         4986 
26530000    1.0188492   -3.8303475      1728000    4767.2047       132650         4986 
26540000    1.0710664   -3.8186305      1728000    4769.0178       132700         4988 
26550000     1.005429    -3.770538      1728000     4770.827       132750         4988 
26560000    1.0322792   -3.6924892      1728000    4772.6486       132800         4988 
26570000    1.0423248   -3.6608257      1728000    4774.4439       132850         4989 
26580000    1.0333826   -3.6906453      1728000    4776.2576       132900         4992 
26590000    1.0650683   -3.7460882      1728000    4778.0659       132950         4993 
26600000   0.97725116    -3.770386      1728000    4779.9125       133000         4993 
26610000   0.99960736   -3.6787409      1728000    4781.7401       133050         4994 
26620000   0.99075309   -3.6832498      1728000    4783.5761       133100         4996 
26630000    1.0487257   -3.7586222      1728000    4785.3855       133150         4996 
26640000   0.98992909   -3.8508569      1728000    4787.1857       133200         4996 
26650000    1.0157046   -3.7535457      1728000    4788.9889       133250         4998 
26660000    1.0253152   -3.8302344      1728000    4790.7846       133300         4999 
26670000    1.0358627   -3.8302678      1728000    4792.5853       133350         4999 
26680000   0.98992869   -3.7469107      1728000    4794.3976       133400         4999 
26690000    1.0186443   -3.7979791      1728000    4796.1934       133450         5000 
26700000    1.0711601   -3.8213219      1728000    4798.0285       133500         5002 
26710000    1.0178852   -3.7728163      1728000    4799.8247       133550         5003 
26720000    1.0784803   -3.7052027      1728000    4801.6276       133600         5003 
26730000    1.0395846   -3.7523162      1728000    4803.4405       133650         5004 
26740000   0.98284352   -3.7987628      1728000    4805.2446       133700         5004 
26750000   0.98435106   -3.7022193      1728000    4807.0398       133750         5005 
26760000   0.98540311   -3.8149214      1728000    4808.8616       133800         5006 
26770000    1.0371778   -3.7467562      1728000    4810.6647       133850         5008 
26780000    1.0176228   -3.8734272      1728000    4812.4756       133900         5009 
26790000   0.95971018   -3.8658143      1728000    4814.3236       133950         5009 
26800000   0.98311016   -3.7832318      1728000    4816.1756       134000         5011 
26810000   0.94106166   -3.9228175      1728000    4818.0115       134050         5012 
26820000   0.94917497   -3.7280133      1728000    4819.8206       134100         5013 
26830000    1.0660331   -3.7639352      1728000    4821.6366       134150         5013 
26840000    1.0163981   -3.7860079      1728000    4823.4545       134200         5013 
26850000   0.96048507   -3.8533297      1728000     4825.281       134250         5014 
26860000    0.9552817   -3.8009796      1728000    4827.0922       134300         5014 
26870000    1.0160971   -3.8841428      1728000    4828.9063       134350         5014 
26880000    1.0140933   -3.7382964      1728000    4830.7255       134400         5015 
26890000   0.99205349   -3.8119143      1728000    4832.5695       134450         5017 
26900000   0.98732466   -3.9285136      1728000    4834.4058       134500         5017 
26910000    1.0068812   -3.7144518      1728000    4836.2576       134550         5017 
26920000    1.0146034   -3.9298691      1728000    4838.0891       134600         5017 
26930000    1.0003254   -3.8582645      1728000    4839.9083       134650         5017 
26940000    1.0549842   -3.7107186      1728000    4841.9075       134700         5019 
26950000    1.0003339   -3.6835801      1728000    4843.7317       134750         5020 
26960000    1.0573093   -3.9148955      1728000    4845.5403       134800         5022 
26970000   0.98643512   -3.8881007      1728000    4847.3565       134850         5022 
26980000   0.96807456   -3.6406121      1728000    4849.1779       134900         5024 
26990000    1.0288563   -3.7533037      1728000     4850.976       134950         5025 
27000000   0.99789982   -3.6820984      1728000    4852.7891       135000         5027 
27010000   0.97477061   -3.7796401      1728000    4854.5858       135050         5029 
27020000   0.93983391   -3.9008183      1728000    4856.4002       135100         5030 
27030000    1.0103819   -3.6979728      1728000    4858.2095       135150         5030 
27040000    0.9498087   -3.6678273      1728000    4860.0173       135200         5032 
27050000   0.96071814   -3.6723293      1728000    4861.8145       135250         5035 
27060000   0.94513951   -3.6061194      1728000    4863.6399       135300         5037 
27070000   0.99848779   -3.5984488      1728000    4865.4685       135350         5039 
27080000   0.99358291   -3.8034464      1728000    4867.2746       135400         5039 
27090000    1.0230193   -3.8267674      1728000    4869.1155       135450         5040 
27100000   0.99212677   -3.6823361      1728000    4870.9266       135500         5042 
27110000   0.99659614   -3.8027624      1728000    4872.7514       135550         5042 
27120000    1.0656814   -3.8639352      1728000    4874.6625       135600         5044 
27130000    1.0175939   -3.8570815      1728000    4876.5454       135650         5044 
27140000   0.97122402   -3.8537102      1728000     4878.404       135700         5044 
27150000   0.94761037   -3.8191403      1728000    4880.2554       135750         5045 
27160000       1.0027   -3.8580186      1728000    4882.1115       135800         5045 
27170000    1.0058006   -3.7232043      1728000    4883.9705       135850         5045 
27180000   0.99843943   -3.8572258      1728000    4885.8189       135900         5045 
27190000   0.96583811   -3.7614528      1728000    4887.7209       135950         5046 
27200000    1.0016678    -3.726117      1728000     4889.628       136000         5048 
27210000   0.98064839   -3.8556594      1728000     4891.546       136050         5048 
27220000     1.037962   -3.7669504      1728000    4893.4251       136100         5051 
27230000    1.0210314   -3.7951423      1728000    4895.3044       136150         5051 
27240000   0.98990122    -3.851323      1728000    4897.1648       136200         5051 
27250000   0.94708549   -3.6945175      1728000    4898.9903       136250         5051 
27260000   0.98246349   -3.7722138      1728000    4900.8231       136300         5051 
27270000    1.0137635   -3.8466136      1728000    4902.6196       136350         5053 
27280000    1.0105386   -3.7931144      1728000    4904.4388       136400         5055 
27290000    1.0557639   -3.7289341      1728000    4906.2475       136450         5055 
27300000    1.0347462   -3.7233882      1728000    4908.1206       136500         5056 
27310000   0.98080168   -3.8043377      1728000    4909.9315       136550         5057 
27320000   0.98090366   -3.8143926      1728000    4911.7687       136600         5058 
27330000   0.92578787   -3.8455166      1728000    4913.5676       136650         5058 
27340000   0.98358046    -3.759499      1728000    4915.3936       136700         5060 
27350000    1.0496054   -3.6751838      1728000    4917.2029       136750         5062 
27360000    1.0140496   -3.7964644      1728000    4919.0134       136800         5065 
27370000    1.0244301   -3.8422256      1728000    4920.8186       136850         5066 
27380000   0.97277913   -3.8221445      1728000    4922.6263       136900         5069 
27390000     1.059338   -3.8233619      1728000    4924.4364       136950         5070 
27400000    1.0660357   -3.7669223      1728000    4926.2502       137000         5070 
27410000    1.0164689   -3.8381473      1728000    4928.0674       137050         5070 
27420000    1.0509132   -3.8328157      1728000    4929.9114       137100         5071 
27430000      1.04957   -3.8349769      1728000    4931.7364       137150         5072 
27440000    1.0014777   -3.8658461      1728000    4933.5884       137200         5072 
27450000   0.99000411   -3.7518994      1728000    4935.4625       137250         5072 
27460000    1.0372468   -3.8353959      1728000    4937.3784       137300         5073 
27470000   0.93965129   -3.7870052      1728000    4939.2171       137350         5074 
27480000   0.98319134   -3.7091213      1728000    4941.1402       137400         5075 
27490000     1.008558   -3.8086515      1728000    4942.9793       137450         5078 
27500000    1.0185952   -3.7407796      1728000    4944.9183       137500         5079 
27510000    1.0414379   -3.7208005      1728000    4946.7805       137550         5080 
27520000   0.97687395   -3.7333194      1728000    4948.6586       137600         5080 
27530000   0.95212379   -3.7353817      1728000    4950.6277       137650         5081 
27540000   0.98041827   -3.8052135      1728000    4952.5725       137700         5084 
27550000    1.0473161   -3.7621049      1728000    4954.4055       137750         5085 
27560000    1.0136798   -3.6371534      1728000    4956.2325       137800         5086 
27570000    1.0029183   -3.7135048      1728000    4958.0673       137850         5087 
27580000    1.0049169   -3.8489973      1728000     4959.916       137900         5089 
27590000    1.0194509   -3.7469725      1728000     4961.768       137950         5089 
27600000   0.96455933   -3.9347708      1728000    4963.6481       138000         5090 
27610000    1.0314505    -3.762326      1728000    4965.5451       138050         5090 
27620000   0.99514445   -3.7900088      1728000    4967.4038       138100         5091 
27630000    0.9536065   -3.7374636      1728000    4969.2661       138150         5092 
27640000    1.0396274   -3.7266985      1728000    4971.1117       138200         5093 
27650000   0.93240092   -3.8153519      1728000    4972.9204       138250         5093 
27660000   0.96833769   -3.7803202      1728000    4974.7424       138300         5095 
27670000   0.97467188   -3.9141173      1728000    4976.5543       138350         5095 
27680000   0.97471585   -3.7820628      1728000    4978.3623       138400         5097 
27690000    1.0428308   -3.9241866      1728000    4980.2272       138450         5098 
27700000   0.96587982   -3.8014522      1728000    4982.0776       138500         5098 
27710000    1.0003931   -3.8223149      1728000    4984.0825       138550         5099 
27720000    1.0113622   -3.7346257      1728000    4986.1754       138600         5101 
27730000    0.9964347   -3.7156091      1728000    4988.1424       138650         5104 
27740000    1.0314239   -3.6619553      1728000    4990.0326       138700         5104 
27750000   0.98734372   -3.6950173      1728000    4991.9538       138750         5105 
27760000    0.9811279   -3.8398749      1728000    4993.8203       138800         5105 
27770000    0.9759365   -3.6019547      1728000    4995.6593       138850         5105 
27780000    1.0033772   -3.7459477      1728000    4997.5254       138900         5105 
27790000   0.98728677   -3.7624104      1728000    4999.3831       138950         5105 
27800000     1.004759   -3.6975853      1728000    5001.2308       139000         5106 
27810000    1.0017499   -3.8092676      1728000    5003.0953       139050         5110 
27820000    0.9961772   -3.8373416      1728000    5004.9623       139100         5112 
27830000    1.0086483   -3.8156869      1728000    5006.8955       139150         5113 
27840000     1.007243   -3.8363756      1728000    5008.8943       139200         5114 
27850000    1.0148004   -3.8978991      1728000    5010.7804       139250         5115 
27860000   0.98560636    -3.878062      1728000    5012.6721       139300         5117 
27870000   0.98143615   -3.8028814      1728000    5014.5522       139350         5118 
27880000   0.99057398   -3.7834269      1728000    5016.4348       139400         5118 
27890000   0.98891983   -3.8556198      1728000    5018.2909       139450         5118 
27900000     1.000829   -3.8901776      1728000    5020.2034       139500         5118 
27910000    1.0021087   -3.8672853      1728000    5022.1355       139550         5119 
27920000    1.0077728   -3.8651872      1728000    5024.3193       139600         5120 
27930000    1.0509969   -3.8021733      1728000    5026.2018       139650         5122 
27940000   0.98486052   -3.8198131      1728000    5028.0593       139700         5123 
27950000    1.0163168   -3.7318528      1728000    5030.0442       139750         5123 
27960000   0.94146648    -3.733928      1728000    5032.0711       139800         5123 
27970000   0.97664789    -3.857537      1728000    5034.0083       139850         5124 
27980000   0.97293413   -3.7683429      1728000    5035.8666       139900         5125 
27990000    1.0187515   -3.7663602      1728000      5037.72       139950         5125 
28000000    1.0148626   -3.7650498      1728000    5039.6105       140000         5127 
28010000   0.96481769   -3.9273512      1728000    5041.4365       140050         5129 
28020000   0.99741111   -3.9833295      1728000    5043.3095       140100         5129 
28030000   0.92609713   -3.8635769      1728000    5045.2122       140150         5129 
28040000    1.0259106   -3.7116078      1728000    5047.0785       140200         5130 
28050000    1.0430761    -3.804604      1728000    5048.9135       140250         5131 
28060000    0.9807347   -3.8972618      1728000    5050.7585       140300         5131 
28070000    1.0699898   -3.8414109      1728000    5052.5928       140350         5131 
28080000   0.98660046   -3.7316592      1728000    5054.4703       140400         5132 
28090000   0.99277489   -3.7742889      1728000    5056.3123       140450         5135 
28100000    1.0195911   -3.8488875      1728000     5058.169       140500         5135 
28110000   0.99944275   -3.8485654      1728000     5060.006       140550         5135 
28120000    1.0122556   -3.7642661      1728000     5061.873       140600         5135 
28130000    1.0047876   -3.7388617      1728000    5063.6893       140650         5137 
28140000    1.0087897   -3.7380577      1728000    5065.5157       140700         5137 
28150000    1.0135087    -3.826918      1728000    5067.3393       140750         5137 
28160000    1.0538379   -3.7606404      1728000    5069.1541       140800         5137 
28170000   0.99805556   -3.7717409      1728000    5070.9769       140850         5140 
28180000    1.0090074   -3.6737258      1728000    5072.8011       140900         5141 
28190000    1.0414171   -3.6621238      1728000     5074.686       140950         5141 
28200000    1.0106979   -3.7763955      1728000    5076.5382       141000         5142 
28210000   0.99714624   -3.7921818      1728000    5078.3751       141050         5142 
28220000    1.0011048   -3.8631178      1728000    5080.2131       141100         5144 
28230000   0.97608714   -3.8229546      1728000    5082.0187       141150         5144 
28240000   0.98265626   -3.8101741      1728000    5083.9083       141200         5145 
28250000   0.98372995   -3.8590396      1728000     5085.763       141250         5145 
28260000    1.0437505   -3.8765428      1728000    5087.5913       141300         5146 
28270000    1.0027361    -3.822974      1728000    5089.4601       141350         5146 
28280000   0.99920913   -3.8478545      1728000    5091.3231       141400         5148 
28290000    1.0266947   -3.8188911      1728000    5093.1301       141450         5148 
28300000   0.99332841   -3.7308367      1728000    5094.9669       141500         5150 
28310000   0.95908295   -3.8740863      1728000     5096.768       141550         5150 
28320000    1.0262109   -3.8650104      1728000    5098.5862       141600         5152 
28330000     1.035738   -3.9355393      1728000    5100.4405       141650         5153 
28340000    1.0077548   -3.8258939      1728000    5102.2626       141700         5154 
28350000   0.98638334   -3.8575841      1728000    5104.1011       141750         5156 
28360000   0.99476891   -3.9104479      1728000    5105.9259       141800         5156 
28370000    1.0109324   -3.8855593      1728000    5107.7817       141850         5156 
28380000   0.94774284   -3.9138672      1728000    5109.6329       141900         5156 
28390000   0.95205814   -3.9409968      1728000    5111.5651       141950         5157 
28400000    1.0155088   -3.8624328      1728000     5113.393       142000         5159 
28410000    1.0065523   -3.8364918      1728000    5115.2311       142050         5159 
28420000   0.97472389   -3.8301597      1728000    5117.0189       142100         5159 
28430000    1.0421761   -3.8535743      1728000    5118.8321       142150         5159 
28440000   0.99326504   -3.8509831      1728000    5120.6551       142200         5159 
28450000    1.0030025   -3.7940254      1728000    5122.5211       142250         5159 
28460000    0.9952287   -3.9225017      1728000    5124.3653       142300         5159 
28470000   0.98215137   -3.7811361      1728000     5126.173       142350         5159 
28480000    1.0503724   -3.8156713      1728000    5127.9846       142400         5160 
28490000    1.0306618   -3.8689391      1728000     5129.832       142450         5161 
28500000   0.96779753   -3.6842371      1728000    5131.6942       142500         5161 
28510000    0.9895252   -3.7434079      1728000    5133.5423       142550         5162 
28520000    1.0532997   -3.8251262      1728000     5135.376       142600         5163 
28530000    1.0394341    -3.802753      1728000    5137.2112       142650         5163 
28540000   0.90643779   -3.7960176      1728000     5139.075       142700         5164 
28550000    1.0380758   -3.8523658      1728000    5140.9249       142750         5165 
28560000    1.0959345   -3.7445333      1728000    5142.7892       142800         5168 
28570000    1.0972133   -3.8056918      1728000    5144.6319       142850         5168 
28580000    1.0355734   -3.8167067      1728000    5146.4977       142900         5168 
28590000   0.96527319   -3.7856847      1728000    5148.3747       142950         5169 
28600000    1.0420911   -3.7398483      1728000    5150.2502       143000         5170 
28610000    1.0317527   -3.8280896      1728000    5152.0633       143050         5170 
28620000    1.1024873   -3.7372937      1728000    5153.9166       143100         5170 
28630000   0.97351602    -3.756458      1728000    5155.7241       143150         5172 
28640000   0.99852059   -3.8529334      1728000     5157.529       143200         5172 
28650000    1.0276886   -3.8297074      1728000    5159.4223       143250         5173 
28660000     1.057714   -3.8858382      1728000    5161.2647       143300         5174 
28670000    0.9775309   -3.8121448      1728000    5163.1531       143350         5174 
28680000    1.0280307   -3.7515066      1728000    5165.0382       143400         5174 
28690000     1.007709   -3.8357441      1728000    5166.8551       143450         5177 
28700000   0.92190349   -3.7656739      1728000    5168.6906       143500         5178 
28710000   0.97554945      -3.8005      1728000    5170.5092       143550         5180 
28720000   0.98249483   -3.7726739      1728000    5172.3658       143600         5181 
28730000    1.0181351   -3.7659389      1728000    5174.1897       143650         5183 
28740000   0.99680022   -3.8205661      1728000         5176       143700         5185 
28750000    1.0035398     -3.72517      1728000    5177.8002       143750         5185 
28760000    1.0337557   -3.7797503      1728000    5179.6064       143800         5186 
28770000    1.0199281   -3.8208737      1728000    5181.4335       143850         5187 
28780000    0.9805144   -3.7073036      1728000    5183.2582       143900         5188 
28790000   0.94898471   -3.8107964      1728000    5185.0778       143950         5189 
28800000     0.969048   -3.7401493      1728000    5186.9078       144000         5193 
28810000    1.0144125   -3.8397298      1728000    5188.7749       144050         5194 
28820000    0.9554907    -3.738369      1728000     5190.591       144100         5195 
28830000    0.9953743   -3.8617935      1728000    5192.4049       144150         5195 
28840000   0.95500625   -3.7561201      1728000    5194.2189       144200         5195 
28850000    1.0335145   -3.8470714      1728000    5196.0089       144250         5196 
28860000   0.98936177   -3.7818783      1728000     5197.804       144300         5198 
28870000    1.0651669   -3.7906936      1728000    5199.6249       144350         5200 
28880000   0.99793175   -3.8730602      1728000    5201.4299       144400         5200 
28890000    1.0214506   -3.8180362      1728000    5203.3008       144450         5201 
28900000    1.0343079   -3.8995578      1728000    5205.2549       144500         5202 
28910000     1.023552   -3.7350269      1728000    5207.4556       144550         5203 
28920000    1.0101303   -3.8584525      1728000    5209.4617       144600         5203 
28930000   0.97822456   -3.7833265      1728000    5211.4188       144650         5203 
28940000    1.0206111   -3.7925337      1728000    5213.3908       144700         5203 
28950000    1.0141034   -3.8185795      1728000    5215.2989       144750         5204 
28960000    1.0230417   -3.8523973      1728000    5217.1446       144800         5205 
28970000     0.976409   -3.8026831      1728000    5218.9848       144850         5206 
28980000    1.0837299   -3.9281719      1728000    5220.8314       144900         5206 
28990000    1.0207821   -3.6362748      1728000    5222.6896       144950         5206 
29000000    1.0260256   -3.8052945      1728000    5224.5397       145000         5207 
29010000   0.99571091   -3.7454039      1728000    5226.3463       145050         5207 
29020000   0.98345801   -3.8128826      1728000    5228.1438       145100         5207 
29030000     0.980076   -3.7382205      1728000    5230.1915       145150         5208 
29040000   0.98339731   -3.8495429      1728000    5232.2334       145200         5209 
29050000      1.03883   -3.8135062      1728000    5234.1417       145250         5210 
29060000    1.0094722   -3.8000817      1728000     5236.101       145300         5211 
29070000   0.96761198   -3.7803775      1728000    5237.9901       145350         5212 
29080000    1.0207134   -3.8208143      1728000    5239.8909       145400         5213 
29090000   0.96721293   -3.8666135      1728000    5241.7379       145450         5214 
29100000   0.96632238   -3.6851932      1728000    5243.5668       145500         5217 
29110000   0.99901394   -3.8310754      1728000    5245.3739       145550         5217 
29120000    1.0390295   -3.8534125      1728000    5247.1728       145600         5219 
29130000   0.98663288   -3.7059425      1728000    5249.0244       145650         5220 
29140000    1.0227444   -3.7357848      1728000    5250.8374       145700         5220 
29150000   0.95518493   -3.8245197      1728000    5252.6846       145750         5222 
29160000   0.96794744   -3.8622119      1728000     5254.537       145800         5225 
29170000    1.0448036    -3.922702      1728000    5256.3888       145850         5227 
29180000   0.97461186   -3.7670266      1728000    5258.2319       145900         5230 
29190000   0.97051055   -3.7725505      1728000     5260.168       145950         5230 
29200000    1.0191334   -3.8686215      1728000    5262.0513       146000         5230 
29210000   0.97446451   -3.8136559      1728000    5263.8884       146050         5230 
29220000    1.0273084   -3.8854674      1728000    5265.7201       146100         5231 
29230000    1.0158202   -3.8844966      1728000    5267.5324       146150         5231 
29240000   0.99078351    -3.952713      1728000    5269.3791       146200         5232 
29250000   0.99385737   -3.8230227      1728000    5271.2499       146250         5232 
29260000   0.99442888   -3.8395453      1728000      5273.08       146300         5234 
29270000    1.0129112   -3.7390084      1728000    5274.9184       146350         5234 
29280000    1.0435704   -3.8781373      1728000    5276.8541       146400         5235 
29290000    0.9707128   -3.8010297      1728000    5278.6796       146450         5235 
29300000    1.0130767   -3.7263719      1728000    5280.5319       146500         5237 
29310000   0.97382662   -3.8194483      1728000     5282.337       146550         5240 
29320000     1.046092   -3.9564199      1728000    5284.1807       146600         5240 
29330000   0.97642432   -3.6975426      1728000    5286.0439       146650         5242 
29340000    1.0228375   -3.7112619      1728000    5287.8829       146700         5243 
29350000    1.0342201   -3.7353204      1728000    5289.7193       146750         5245 
29360000    0.9878985   -3.8181939      1728000    5291.5137       146800         5246 
29370000   0.94634617   -3.7816286      1728000    5293.3279       146850         5248 
29380000     1.006381   -3.7336865      1728000    5295.1617       146900         5250 
29390000   0.98529872   -3.7870459      1728000    5296.9957       146950         5250 
29400000    1.0259039    -3.904126      1728000    5298.8799       147000         5251 
29410000    1.0387853   -3.8306127      1728000    5300.7272       147050         5251 
29420000    1.0295511   -3.6834176      1728000    5302.5647       147100         5252 
29430000    1.0440148   -3.8005707      1728000    5304.4637       147150         5253 
29440000   0.91674055   -3.8375429      1728000    5306.2718       147200         5255 
29450000   0.96682424   -3.8167326      1728000    5308.1509       147250         5255 
29460000    1.0082591   -3.7835736      1728000    5309.9879       147300         5255 
29470000    1.0086666   -3.8693564      1728000    5311.8124       147350         5255 
29480000    1.0177418   -3.8444787      1728000    5313.6225       147400         5256 
29490000    0.9657947   -3.7770398      1728000    5315.4649       147450         5257 
29500000    1.1031351    -3.783696      1728000    5317.2743       147500         5259 
29510000   0.99799547   -3.7139659      1728000    5319.1057       147550         5260 
29520000    0.9604181   -3.7215306      1728000    5320.9373       147600         5260 
29530000   0.97496326   -3.8725955      1728000    5322.7786       147650         5261 
29540000   0.95113932   -3.5921941      1728000    5324.6448       147700         5266 
29550000   0.98981617   -3.7884859      1728000    5326.4674       147750         5268 
29560000     0.971659    -3.801548      1728000     5328.338       147800         5269 
29570000    1.0132299    -3.870256      1728000    5330.2471       147850         5271 
29580000   0.98355326   -3.8154747      1728000    5332.1138       147900         5273 
29590000    1.0375401   -3.7864673      1728000    5333.9568       147950         5274 
29600000   0.97157576   -3.7432521      1728000     5335.839       148000         5277 
29610000    1.0805221   -3.7587374      1728000    5337.6693       148050         5279 
29620000   0.97664561   -3.7101809      1728000    5339.5057       148100         5280 
29630000    1.0458547   -3.7208462      1728000    5341.3348       148150         5285 
29640000    1.0156816   -3.7773743      1728000    5343.1386       148200         5288 
29650000   0.94920934    -3.757929      1728000    5344.9376       148250         5290 
29660000   0.99630953   -3.7845522      1728000    5346.7448       148300         5296 
29670000    1.0029462   -3.8243833      1728000    5348.5636       148350         5296 
29680000    1.0571451   -3.9086604      1728000    5350.4007       148400         5299 
29690000    1.0489796   -3.7140845      1728000    5352.2268       148450         5300 
29700000    1.0231985   -3.9561651      1728000    5354.0703       148500         5301 
29710000   0.99402892   -3.8523022      1728000    5355.8936       148550         5301 
29720000    1.0080703   -3.8263808      1728000    5357.6979       148600         5301 
29730000    1.0256443    -3.805193      1728000    5359.5318       148650         5302 
29740000    1.0850591   -3.8857782      1728000    5361.3456       148700         5302 
29750000    1.0024147   -3.8572508      1728000    5363.1537       148750         5303 
29760000     0.992632    -3.851194      1728000    5364.9668       148800         5303 
29770000    1.0138822   -3.9027212      1728000    5366.7997       148850         5303 
29780000   0.96361077   -3.8088422      1728000    5368.6507       148900         5303 
29790000    1.0031998   -3.8786107      1728000    5370.4748       148950         5304 
29800000    1.0472794   -3.8326172      1728000    5372.3007       149000         5304 
29810000    1.0951378   -3.8534892      1728000    5374.1386       149050         5306 
29820000    1.0642615   -3.7956736      1728000    5375.9598       149100         5307 
29830000   0.98692272   -3.7987889      1728000    5377.7924       149150         5307 
29840000    1.0568423   -3.8473786      1728000    5379.6017       149200         5308 
29850000   0.92654075    -3.878258      1728000    5381.4748       149250         5309 
29860000   0.96282416   -3.7267499      1728000    5383.2787       149300         5311 
29870000   0.96664675   -3.7465762      1728000    5385.0977       149350         5312 
29880000    0.9951489   -3.9403887      1728000    5386.8981       149400         5312 
29890000    1.0048638   -3.8434657      1728000    5388.7096       149450         5312 
29900000    1.0332724   -3.7837347      1728000    5390.5272       149500         5312 
29910000    1.0466224   -3.8794363      1728000    5392.4297       149550         5312 
29920000   0.99973173   -3.7916209      1728000    5394.2616       149600         5312 
29930000   0.97390165   -3.8264996      1728000    5396.0937       149650         5313 
29940000    1.0177658   -3.7593853      1728000    5397.9353       149700         5313 
29950000    1.0037309   -3.8037461      1728000    5399.7898       149750         5313 
29960000   0.94476782   -3.8459679      1728000    5401.6568       149800         5313 
29970000   0.98439867   -3.8216226      1728000    5403.5078       149850         5313 
29980000    1.0152388    -3.820002      1728000    5405.3117       149900         5313 
29990000    1.0205926   -3.8508988      1728000    5407.1645       149950         5316 
30000000    1.0029105   -3.7602863      1728000    5409.0617       150000         5316 
30010000   0.95699149   -3.8226315      1728000    5410.8557       150050         5316 
30020000    1.0087152   -3.8346359      1728000    5412.6737       150100         5317 
30030000   0.95661065   -3.7989582      1728000    5414.5297       150150         5319 
30040000   0.96611622    -3.755895      1728000    5416.3566       150200         5321 
30050000    1.0752151   -3.8334405      1728000    5418.2015       150250         5324 
30060000   0.94178919   -3.8008023      1728000    5420.0668       150300         5324 
30070000    0.9724546   -3.8844321      1728000    5421.8696       150350         5325 
30080000   0.98922368   -3.5478194      1728000    5423.6697       150400         5326 
30090000   0.92308251   -3.7867886      1728000    5425.4565       150450         5326 
30100000   0.99967739   -3.7384194      1728000    5427.2746       150500         5328 
30110000    1.0190074   -3.6727087      1728000    5429.0797       150550         5328 
30120000   0.99130261   -3.7252441      1728000    5430.9277       150600         5329 
30130000     1.016101   -3.7961052      1728000    5432.7344       150650         5331 
30140000    1.0394582   -3.7429901      1728000    5434.5857       150700         5332 
30150000     1.051978   -3.8339293      1728000    5436.3909       150750         5334 
30160000   0.95006098   -3.8594198      1728000    5438.2164       150800         5335 
30170000    1.0514765   -3.8620269      1728000    5440.0597       150850         5337 
30180000    1.0435009   -3.6922154      1728000    5441.8614       150900         5339 
30190000    1.0056401   -3.6694407      1728000    5443.6756       150950         5339 
30200000   0.99484349   -3.8856075      1728000    5445.5311       151000         5341 
30210000    0.9692539   -3.7322772      1728000    5447.4454       151050         5341 
30220000    1.0101084   -3.6847295      1728000    5449.3837       151100         5344 
30230000    1.0185581   -3.6747634      1728000    5451.1945       151150         5346 
30240000   0.99163952   -3.7772835      1728000    5453.0135       151200         5347 
30250000    1.0064477   -3.7278816      1728000    5454.8655       151250         5348 
30260000   0.97421234   -3.7613071      1728000    5456.6631       151300         5350 
30270000   0.94707985   -3.7334497      1728000    5458.4957       151350         5351 
30280000    1.0105022   -3.7185429      1728000    5460.3095       151400         5353 
30290000    1.0290256   -3.7073879      1728000    5462.1055       151450         5353 
30300000   0.98933587   -3.6359545      1728000    5463.9286       151500         5353 
30310000    1.0236864   -3.7634218      1728000    5465.7846       151550         5355 
30320000    1.0354233   -3.7453855      1728000    5467.6065       151600         5358 
30330000   0.97583558   -3.9027448      1728000    5469.4207       151650         5359 
30340000     1.002629   -3.7694746      1728000    5471.2416       151700         5359 
30350000   0.98470283   -3.7375074      1728000    5473.0626       151750         5359 
30360000   0.99999431   -3.7378426      1728000    5474.8546       151800         5360 
30370000    1.0090638   -3.7944472      1728000    5476.6446       151850         5364 
30380000   0.99232752   -3.7872261      1728000    5478.4485       151900         5366 
30390000    1.0111489   -3.9033983      1728000    5480.2686       151950         5367 
30400000   0.96206951   -3.9290438      1728000    5482.0835       152000         5368 
30410000   0.94619194   -3.8492061      1728000    5484.0184       152050         5368 
30420000    1.0038137   -3.7369438      1728000    5485.8464       152100         5369 
30430000    1.0365497   -3.7636821      1728000    5487.6636       152150         5369 
30440000   0.99288045   -3.7995087      1728000    5489.4686       152200         5370 
30450000    1.0161743   -3.8481275      1728000    5491.2888       152250         5370 
30460000   0.98664776    -3.775975      1728000    5493.1565       152300         5370 
30470000   0.93828684   -3.8438596      1728000    5494.9605       152350         5372 
30480000    1.0860528   -3.7881848      1728000    5496.7555       152400         5372 
30490000    1.0180277    -3.861892      1728000    5498.5613       152450         5373 
30500000     1.036276   -3.8407386      1728000    5500.3915       152500         5375 
30510000    1.0737701   -3.7199971      1728000    5502.2225       152550         5375 
30520000    1.0482682     -3.75927      1728000    5504.0344       152600         5375 
30530000    1.0513258   -3.7616399      1728000    5505.8464       152650         5375 
30540000   0.97757796   -3.7683916      1728000    5507.6515       152700         5375 
30550000   0.98062075   -3.6575999      1728000    5509.4625       152750         5379 
30560000   0.99453171   -3.8505712      1728000    5511.2813       152800         5380 
30570000   0.99880386   -3.6834021      1728000    5513.1365       152850         5381 
30580000    0.9646825   -3.7520428      1728000    5514.9773       152900         5381 
30590000    1.0617559   -3.7742906      1728000    5516.8245       152950         5382 
30600000   0.99230598   -3.8553104      1728000    5518.6526       153000         5383 
30610000    1.0211227   -3.9037125      1728000    5520.4575       153050         5384 
30620000    1.0128455   -3.7300964      1728000    5522.2675       153100         5384 
30630000   0.99273876   -3.8756426      1728000    5524.0853       153150         5384 
30640000   0.93712631   -3.8772155      1728000    5525.9194       153200         5385 
30650000    1.0768466   -3.8201204      1728000    5527.7273       153250         5385 
30660000    1.0499387   -3.7187415      1728000    5529.5544       153300         5386 
30670000   0.97911264    -3.763175      1728000    5531.3565       153350         5389 
30680000    1.0239297   -3.7888941      1728000    5533.1805       153400         5390 
30690000    1.0482817   -3.8466669      1728000    5534.9875       153450         5392 
30700000   0.99879237   -3.9308933      1728000    5536.8373       153500         5393 
30710000   0.92160006   -3.8725821      1728000    5538.6473       153550         5393 
30720000   0.99258519   -3.7843244      1728000    5540.4734       153600         5394 
30730000   0.99732542   -3.6709735      1728000    5542.2665       153650         5394 
30740000   0.98822923   -3.7553421      1728000    5544.0733       153700         5395 
30750000    1.0091572   -3.6501745      1728000    5545.9034       153750         5398 
30760000    1.0235617   -3.7450569      1728000    5547.7122       153800         5400 
30770000   0.99561762    -3.799285      1728000    5549.5783       153850         5400 
30780000   0.99310925   -3.8193066      1728000    5551.3975       153900         5400 
30790000    1.0377305   -3.8249973      1728000    5553.2083       153950         5401 
30800000   0.98081816    -3.646244      1728000    5555.0382       154000         5402 
30810000   0.96939871   -3.7196391      1728000    5556.8393       154050         5403 
30820000   0.95391403   -3.7661216      1728000    5558.6473       154100         5403 
30830000   0.96633777    -3.769579      1728000    5560.4864       154150         5403 
30840000    1.0138901   -3.8953161      1728000    5562.2975       154200         5403 
30850000    1.0200648   -3.8048545      1728000    5564.1304       154250         5403 
30860000    1.0323799   -3.7933713      1728000    5565.9385       154300         5403 
30870000   0.98464757   -3.7953638      1728000    5567.7503       154350         5403 
30880000   0.98744989   -3.8314648      1728000    5569.5713       154400         5404 
30890000    1.0098623   -3.8053685      1728000    5571.3893       154450         5405 
30900000    1.0561696   -3.7485698      1728000    5573.3314       154500         5405 
30910000    1.0423112   -3.8006359      1728000    5575.2268       154550         5406 
30920000   0.98548048   -3.8041387      1728000    5577.2308       154600         5407 
30930000   0.98555971   -3.7782945      1728000    5579.2067       154650         5407 
30940000   0.99481155   -3.8408207      1728000    5581.1008       154700         5407 
30950000   0.97739068   -3.8604236      1728000    5582.9928       154750         5407 
30960000     1.046564   -3.8269896      1728000     5584.848       154800         5407 
30970000   0.99109392   -3.8691027      1728000    5586.7017       154850         5407 
30980000    1.0022174   -3.8326717      1728000    5588.5552       154900         5408 
30990000    1.0448412   -3.7589615      1728000    5590.5073       154950         5408 
31000000    1.0330333   -3.6332079      1728000    5592.3581       155000         5410 
31010000   0.98741803   -3.6656346      1728000    5594.2676       155050         5412 
31020000   0.93414927   -3.8002455      1728000    5596.0723       155100         5413 
31030000   0.96618886   -3.7903918      1728000    5597.9546       155150         5413 
31040000    1.0180531   -3.7185359      1728000    5599.8796       155200         5414 
31050000   0.95278865   -3.7798912      1728000    5601.6985       155250         5416 
31060000   0.97165561   -3.7873795      1728000    5603.5397       155300         5417 
31070000    1.0040499   -3.6394619      1728000    5605.3547       155350         5418 
31080000    0.9774194   -3.7723589      1728000    5607.1586       155400         5420 
31090000    1.0211166   -3.8986902      1728000    5609.0171       155450         5421 
31100000    1.0764555   -3.6903788      1728000    5610.8633       155500         5421 
31110000    1.0126868   -3.7142356      1728000    5612.7024       155550         5422 
31120000   0.98835114   -3.8666979      1728000    5614.5473       155600         5422 
31130000   0.98191664   -3.7564426      1728000    5616.4354       155650         5422 
31140000    1.0733472     -3.75411      1728000    5618.3093       155700         5424 
31150000   0.98536543   -3.7626544      1728000    5620.1673       155750         5425 
31160000   0.97358253   -3.8575306      1728000    5621.9967       155800         5427 
31170000   0.96486691   -3.8756709      1728000    5623.8244       155850         5428 
31180000    1.0434787   -3.7774115      1728000    5625.6994       155900         5429 
31190000   0.96352146   -3.8852723      1728000    5627.5683       155950         5429 
31200000   0.99623136   -3.9040769      1728000    5629.4708       156000         5430 
31210000   0.97398297   -3.8926253      1728000    5631.4007       156050         5431 
31220000   0.97968855   -3.9106106      1728000    5633.2713       156100         5432 
31230000    1.0087451   -3.7665321      1728000    5635.1185       156150         5432 
31240000    1.0343448   -3.7615786      1728000    5636.9317       156200         5433 
31250000    1.0054844    -3.930049      1728000    5638.7873       156250         5433 
31260000   0.94504774    -3.921808      1728000    5640.6702       156300         5433 
31270000    1.0134229   -3.8228538      1728000    5642.5739       156350         5433 
31280000   0.99146063    -3.989033      1728000    5644.4573       156400         5433 
31290000    1.0067417   -3.7812972      1728000    5646.3203       156450         5433 
31300000   0.97649305    -3.804516      1728000    5648.1878       156500         5434 
31310000    1.0360651   -3.7617587      1728000    5650.2494       156550         5435 
31320000   0.96857932   -3.8614536      1728000    5652.1133       156600         5435 
31330000   0.96557582   -3.8499267      1728000    5653.9834       156650         5435 
31340000     1.018708   -3.8012418      1728000    5655.8023       156700         5436 
31350000    0.9859035   -4.0239531      1728000    5657.6692       156750         5438 
31360000   0.98547157   -3.6373997      1728000    5659.6195       156800         5438 
31370000   0.97891642   -3.8344142      1728000    5661.5325       156850         5440 
31380000   0.90316294   -3.8439431      1728000    5663.3946       156900         5442 
31390000    1.0052701   -3.9605038      1728000    5665.2546       156950         5442 
31400000    1.0527759   -3.7819492      1728000    5667.1418       157000         5443 
31410000   0.98436397   -3.8802992      1728000    5669.0083       157050         5444 
31420000    1.0567626   -3.7362693      1728000    5670.8569       157100         5444 
31430000   0.98763309   -3.8995062      1728000    5672.6769       157150         5444 
31440000    1.0001691   -3.7436933      1728000    5674.4882       157200         5445 
31450000     0.981067    -3.830735      1728000    5676.3153       157250         5445 
31460000    1.0111267   -3.8359755      1728000    5678.1506       157300         5447 
31470000   0.97106007   -3.7977053      1728000    5679.9797       157350         5448 
31480000    1.0544677   -3.7347454      1728000    5681.8029       157400         5450 
31490000    1.0273574   -3.8747125      1728000    5683.6567       157450         5450 
31500000    1.0357086    -3.673449      1728000    5685.5033       157500         5450 
31510000    1.0338956   -3.9356277      1728000    5687.3341       157550         5452 
31520000   0.99345912   -3.8778423      1728000    5689.1923       157600         5452 
31530000   0.99338612   -3.9764223      1728000    5691.0463       157650         5452 
31540000   0.97208553    -3.885153      1728000    5692.9623       157700         5452 
31550000   0.97559763   -3.8274512      1728000    5694.8584       157750         5452 
31560000    1.1017512   -3.8071909      1728000    5696.8055       157800         5452 
31570000    1.0383355   -3.7504206      1728000    5698.6274       157850         5452 
31580000     0.902761   -3.8033132      1728000    5700.4877       157900         5452 
31590000   0.92276366   -3.8641024      1728000    5702.3451       157950         5452 
31600000    1.0178343    -3.870335      1728000    5704.2062       158000         5452 
31610000   0.94633636   -3.8728123      1728000    5706.0832       158050         5452 
31620000      1.02004   -3.8265945      1728000    5707.9557       158100         5452 
31630000     1.040206   -3.9180184      1728000    5709.8421       158150         5452 
31640000    1.0633324   -3.8588359      1728000    5711.7139       158200         5453 
31650000   0.98576619   -3.8984591      1728000    5713.5572       158250         5453 
31660000   0.99589056   -3.8037017      1728000    5715.4042       158300         5453 
31670000   0.93978827   -3.8684347      1728000    5717.2372       158350         5454 
31680000    1.0654442   -3.9857032      1728000     5719.076       158400         5454 
31690000    1.0594782   -3.8449412      1728000     5720.982       158450         5455 
31700000    1.0079033   -3.7680649      1728000    5722.8975       158500         5455 
31710000   0.97405713   -3.8208582      1728000    5724.7726       158550         5456 
31720000   0.96571428   -3.9313419      1728000    5726.6385       158600         5456 
31730000   0.97771231   -3.9098976      1728000    5728.4992       158650         5457 
31740000    1.0271427   -3.7903394      1728000    5730.3661       158700         5457 
31750000    1.1144099   -3.7987187      1728000    5732.2001       158750         5457 
31760000   0.98516465   -3.6931261      1728000    5734.0779       158800         5457 
31770000    1.0031947   -3.8087144      1728000    5735.9581       158850         5457 
31780000     1.007526   -3.7613237      1728000    5737.8041       158900         5458 
31790000    1.0095296   -3.7710713      1728000    5739.6561       158950         5459 
31800000   0.99536826   -3.9205351      1728000    5741.5341       159000         5460 
31810000   0.99283752   -3.7605116      1728000    5743.4131       159050         5460 
31820000   0.95703618   -3.8798966      1728000    5745.2541       159100         5461 
31830000    1.0329245   -3.9901862      1728000    5747.1423       159150         5463 
31840000    1.0649986   -3.7269423      1728000    5748.9912       159200         5463 
31850000     1.038028   -3.8473132      1728000    5750.8379       159250         5463 
31860000   0.99280054   -3.8729272      1728000     5752.674       159300         5463 
31870000    1.0370666   -3.8128175      1728000    5754.6622       159350         5463 
31880000    1.0217875   -3.8522166      1728000    5756.5182       159400         5464 
31890000    1.0239544   -3.8008088      1728000     5758.436       159450         5464 
31900000    1.0105408   -3.8941112      1728000    5760.4783       159500         5464 
31910000   0.99549519   -3.7847645      1728000    5762.3424       159550         5464 
31920000    1.0387563     -3.80475      1728000    5764.2028       159600         5464 
31930000    1.0356413    -3.801018      1728000    5766.0829       159650         5464 
31940000   0.99983296   -3.8078193      1728000    5767.9954       159700         5464 
31950000   0.96335881   -3.9688418      1728000    5769.8884       159750         5465 
31960000    1.0264001   -3.8858377      1728000    5771.7584       159800         5465 
31970000    1.0566446   -3.7330022      1728000    5773.6024       159850         5465 
31980000    1.0169179   -3.8318806      1728000    5775.4604       159900         5466 
31990000    0.9697729   -3.7069622      1728000     5777.315       159950         5466 
32000000    1.0394019   -3.9200579      1728000    5779.2171       160000         5466 
32010000   0.96117945   -3.7369084      1728000    5781.0321       160050         5467 
32020000    1.0226454   -3.7151323      1728000     5782.841       160100         5468 
32030000   0.96983814   -3.6949482      1728000    5784.6791       160150         5470 
32040000    1.0125563   -3.8849222      1728000    5786.5277       160200         5471 
32050000   0.95051347   -3.8486911      1728000    5788.3878       160250         5471 
32060000    1.0139099   -3.6854045      1728000    5790.2371       160300         5472 
32070000    1.0430072   -3.7731519      1728000    5792.0361       160350         5472 
32080000    1.0423961   -3.8207343      1728000    5793.8949       160400         5474 
32090000     1.019365   -3.7705725      1728000     5795.725       160450         5475 
32100000     1.017633    -3.737895      1728000    5797.5841       160500         5475 
32110000   0.99498757   -3.7791064      1728000    5799.4381       160550         5476 
32120000    0.9560775    -3.859196      1728000    5801.2962       160600         5477 
32130000    1.0017102   -3.8751641      1728000    5803.1489       160650         5478 
32140000    1.0223953   -3.7360709      1728000    5804.9631       160700         5479 
32150000   0.98956653   -3.8337396      1728000    5806.7991       160750         5479 
32160000   0.94835702   -3.7410307      1728000    5808.6398       160800         5480 
32170000    1.0064901    -3.744363      1728000    5810.4881       160850         5482 
32180000    1.0642823    -3.801243      1728000    5812.3044       160900         5483 
32190000   0.98589777   -3.7802494      1728000    5814.1376       160950         5483 
32200000    1.0649861   -3.7861035      1728000    5815.9684       161000         5483 
32210000   0.94395989   -3.7144696      1728000    5817.8485       161050         5484 
32220000    1.0269008   -3.8038415      1728000    5819.7083       161100         5484 
32230000    1.0003694   -3.7610244      1728000    5821.5661       161150         5484 
32240000    1.0586178   -3.8660432      1728000      5823.41       161200         5484 
32250000    1.0219534   -3.8098923      1728000    5825.2592       161250         5484 
32260000   0.97152206   -3.7311697      1728000    5827.2662       161300         5485 
32270000    1.0021097   -3.7762889      1728000    5829.1183       161350         5485 
32280000     1.004895   -3.9144459      1728000    5830.9201       161400         5488 
32290000   0.97103163   -3.7960505      1728000    5832.8016       161450         5489 
32300000   0.96910411   -3.8085023      1728000    5834.6459       161500         5492 
32310000   0.95519586   -3.7419473      1728000    5836.4731       161550         5493 
32320000    1.0368256   -3.8725626      1728000     5838.314       161600         5494 
32330000   0.98258824   -3.7574483      1728000    5840.1729       161650         5496 
32340000    1.0504221   -3.8431872      1728000    5841.9889       161700         5497 
32350000   0.93975567    -3.860712      1728000      5843.86       161750         5498 
32360000   0.98287071   -3.9300537      1728000     5845.706       161800         5498 
32370000    1.0227467     -3.77463      1728000     5847.524       161850         5498 
32380000   0.98304951   -3.8516163      1728000     5849.342       161900         5498 
32390000   0.94990805   -3.8596844      1728000     5851.143       161950         5498 
32400000   0.99254184   -3.7164788      1728000     5852.964       162000         5499 
32410000   0.99562368   -3.8295671      1728000     5854.787       162050         5499 
32420000   0.99906104   -3.8169953      1728000    5856.5927       162100         5499 
32430000   0.94198156   -3.8148055      1728000    5858.4039       162150         5499 
32440000      1.08303   -3.6964839      1728000    5860.2168       162200         5499 
32450000    0.9801924   -3.7427782      1728000     5862.033       162250         5499 
32460000    1.0231455   -3.7947675      1728000     5863.861       162300         5501 
32470000    0.9951321   -3.7911099      1728000    5865.6699       162350         5501 
32480000    1.0235135   -3.7637665      1728000     5867.463       162400         5502 
32490000    1.0194024   -3.8830879      1728000    5869.2809       162450         5504 
32500000    0.9585735   -3.7236851      1728000    5871.0969       162500         5505 
32510000   0.93696323   -3.7809426      1728000    5872.9269       162550         5505 
32520000    1.0196917   -3.7855353      1728000    5874.7438       162600         5506 
32530000    1.0133653   -3.7168003      1728000     5876.758       162650         5507 
32540000   0.96943955   -3.8340641      1728000    5878.6049       162700         5507 
32550000   0.96498805   -3.7533519      1728000     5880.426       162750         5507 
32560000   0.97808859   -3.7595993      1728000    5882.2588       162800         5507 
32570000    1.0391704   -3.7066442      1728000    5884.1409       162850         5507 
32580000   0.95301873   -3.8455239      1728000    5885.9708       162900         5508 
32590000   0.95044065   -3.8739086      1728000    5887.7789       162950         5508 
32600000     1.008206   -3.8127806      1728000    5889.5916       163000         5509 
32610000    1.0806523   -3.7796362      1728000    5891.4239       163050         5509 
32620000   0.99022078   -3.7890477      1728000    5893.2358       163100         5509 
32630000   0.97948173   -3.8927965      1728000    5895.0769       163150         5509 
32640000    1.0073698   -3.7693929      1728000    5896.8739       163200         5510 
32650000    1.0310169   -3.7110631      1728000     5898.685       163250         5512 
32660000   0.95879907   -3.7755785      1728000    5900.5488       163300         5513 
32670000    1.0100044   -3.6868965      1728000     5902.371       163350         5513 
32680000   0.97139381   -3.7605124      1728000    5904.2115       163400         5514 
32690000    1.0249408   -3.8906571      1728000    5906.1382       163450         5515 
32700000   0.99437266   -3.7329084      1728000    5908.0034       163500         5516 
32710000   0.91932904   -3.7478578      1728000     5909.831       163550         5518 
32720000   0.99222322   -3.7624572      1728000    5911.6848       163600         5518 
32730000   0.98305857    -3.819964      1728000    5913.5377       163650         5518 
32740000   0.94461442   -3.6767823      1728000    5915.4019       163700         5519 
32750000   0.99621114   -3.7342627      1728000    5917.2436       163750         5519 
32760000   0.96429804   -3.7498095      1728000    5919.0888       163800         5519 
32770000    1.0531646   -3.8177927      1728000    5920.8899       163850         5520 
32780000   0.99389655   -3.8789798      1728000    5922.7189       163900         5520 
32790000   0.96107708   -3.8553895      1728000    5924.6108       163950         5520 
32800000   0.94764828   -3.8362791      1728000    5926.5148       164000         5520 
32810000    1.0079385   -3.8528013      1728000    5928.3661       164050         5520 
32820000   0.98636676   -3.6904274      1728000    5930.2089       164100         5520 
32830000    1.0359015   -3.7754509      1728000    5932.0468       164150         5520 
32840000    1.0254127   -3.7657071      1728000    5933.8748       164200         5522 
32850000   0.95064948   -3.8342109      1728000    5935.7027       164250         5523 
32860000     1.020482   -3.7465867      1728000    5937.5347       164300         5523 
32870000   0.95521255   -3.8975625      1728000    5939.3836       164350         5523 
32880000    1.0293675   -3.9446025      1728000    5941.2068       164400         5523 
32890000     0.986701   -3.7557923      1728000    5943.0469       164450         5525 
32900000    1.0013352   -3.7704498      1728000    5944.9027       164500         5525 
32910000   0.94694792   -3.7754512      1728000    5946.7099       164550         5526 
32920000    1.0862433   -3.7376484      1728000    5948.5438       164600         5527 
32930000    0.9103847   -3.7069582      1728000    5950.3608       164650         5528 
32940000   0.97931747   -3.7806421      1728000    5952.1986       164700         5528 
32950000    1.0134546   -3.6993747      1728000    5954.0316       164750         5528 
32960000    1.0459141   -3.8191729      1728000    5955.8809       164800         5528 
32970000    1.0033525   -3.7725512      1728000    5957.7238       164850         5528 
32980000   0.99152109   -3.7493154      1728000    5959.5778       164900         5528 
32990000   0.93856541   -3.8467414      1728000    5961.4008       164950         5528 
33000000   0.95682537    -3.804279      1728000    5963.2855       165000         5529 
33010000    1.0697305   -3.7763552      1728000    5965.0989       165050         5531 
33020000    1.0249459   -3.6968654      1728000    5966.9398       165100         5531 
33030000   0.98375162   -3.7093485      1728000    5968.7709       165150         5532 
33040000   0.96693624   -3.8424104      1728000    5970.6039       165200         5535 
33050000   0.95001871    -3.823447      1728000    5972.4277       165250         5535 
33060000    1.0224413   -3.8612463      1728000    5974.2478       165300         5536 
33070000   0.97799479   -3.9045894      1728000    5976.0515       165350         5537 
33080000    1.0161999   -3.8649045      1728000    5977.8808       165400         5537 
33090000   0.97915187    -3.868996      1728000    5979.7587       165450         5537 
33100000   0.96728069   -3.7583167      1728000    5981.6267       165500         5538 
33110000   0.97852861   -3.8423213      1728000    5983.4697       165550         5541 
33120000    1.0097107   -3.8664281      1728000    5985.2978       165600         5541 
33130000    1.0114079   -3.7362871      1728000    5987.1258       165650         5542 
33140000    1.0091895   -3.7296133      1728000    5988.9888       165700         5542 
33150000    1.0495718   -3.7970717      1728000    5990.8233       165750         5542 
33160000    1.0079326   -3.7730873      1728000    5992.6903       165800         5544 
33170000   0.96431553   -3.7754536      1728000    5994.5984       165850         5545 
33180000    0.9827669   -3.7459776      1728000     5996.599       165900         5546 
33190000    1.0598018   -3.7611665      1728000     5998.443       165950         5547 
33200000    1.0414185   -3.8625266      1728000    6000.3216       166000         5547 
33210000   0.97058163   -3.8341634      1728000     6002.164       166050         5548 
33220000    1.0191546   -3.8833957      1728000    6004.0018       166100         5550 
33230000    1.0457174   -3.8296202      1728000    6005.8299       166150         5551 
33240000    1.0360665   -3.7659579      1728000     6007.649       166200         5553 
33250000    0.9479953   -3.6934105      1728000     6009.459       166250         5553 
33260000    1.0474342   -3.6401149      1728000    6011.2768       166300         5555 
33270000    1.0494215   -3.7499329      1728000    6013.0858       166350         5557 
33280000   0.96222073   -3.6820237      1728000    6014.8939       166400         5560 
33290000    0.9934149   -3.7840952      1728000    6016.7038       166450         5560 
33300000   0.99350276   -3.7921506      1728000    6018.5367       166500         5560 
33310000   0.98654564   -3.7573425      1728000    6020.3417       166550         5561 
33320000   0.95748725   -3.7772876      1728000    6022.1607       166600         5562 
33330000   0.99650685   -3.7572702      1728000    6024.0315       166650         5565 
33340000   0.97893681   -3.7157846      1728000    6025.8329       166700         5566 
33350000   0.98660288   -3.7301763      1728000    6027.6288       166750         5567 
33360000   0.99650863   -3.8792548      1728000    6029.4228       166800         5570 
33370000   0.95378775   -3.7651236      1728000     6031.228       166850         5573 
33380000    1.0440056   -3.7498748      1728000    6033.0337       166900         5573 
33390000   0.98118772   -3.6507135      1728000    6034.8517       166950         5573 
33400000   0.99312465   -3.7429088      1728000    6036.6757       167000         5574 
33410000    1.0525118   -3.8614653      1728000    6038.4873       167050         5575 
33420000    1.0682712   -3.5516116      1728000    6040.2868       167100         5576 
33430000    1.0522676   -3.7549022      1728000    6042.0908       167150         5576 
33440000   0.98214729   -3.8288589      1728000    6043.8937       167200         5576 
33450000    1.0372506   -3.7789968      1728000    6045.7087       167250         5577 
33460000    1.0170698   -3.8394229      1728000    6047.5331       167300         5578 
33470000   0.98968425   -3.8072425      1728000    6049.5238       167350         5578 
33480000    1.0091537   -3.8401518      1728000    6051.3406       167400         5578 
33490000   0.98423114   -3.7180671      1728000    6053.1599       167450         5578 
33500000   0.99473298   -3.6445614      1728000    6054.9885       167500         5579 
33510000   0.99293838   -3.7065506      1728000    6056.7959       167550         5580 
33520000    1.0552991   -3.8910564      1728000    6058.6126       167600         5581 
33530000    1.0477162   -3.8746589      1728000    6060.4239       167650         5582 
33540000    1.0062991   -3.9017637      1728000    6062.2437       167700         5582 
33550000    1.0122262   -3.7032392      1728000    6064.0638       167750         5582 
33560000   0.95490361   -3.7972998      1728000    6065.8728       167800         5584 
33570000      1.01807      -3.8521      1728000    6067.7237       167850         5584 
33580000   0.98001601   -3.8832725      1728000    6069.6407       167900         5584 
33590000    1.0348295   -3.8459739      1728000    6071.4998       167950         5584 
33600000     1.009975   -3.8732674      1728000    6073.4172       168000         5584 
33610000    1.0593702   -3.8055553      1728000    6075.3498       168050         5584 
33620000    1.0116272   -3.8185873      1728000    6077.1828       168100         5584 
33630000   0.99914362   -3.8304941      1728000    6079.0276       168150         5584 
33640000   0.94671179   -3.8526699      1728000    6080.9394       168200         5585 
33650000     1.018242   -3.9175494      1728000    6082.8284       168250         5585 
33660000    1.0617841   -3.8909218      1728000    6084.6982       168300         5585 
33670000   0.98136298   -3.8150432      1728000    6086.5331       168350         5585 
33680000    1.0302741   -3.7834998      1728000    6088.3735       168400         5585 
33690000   0.98081275   -3.8353955      1728000    6090.2468       168450         5586 
33700000   0.98501041   -3.7967675      1728000    6092.1187       168500         5586 
33710000    1.0420734   -3.7595095      1728000     6093.956       168550         5586 
33720000    1.0019595   -3.9554003      1728000    6095.8303       168600         5587 
33730000   0.98729414   -3.8680732      1728000    6097.6408       168650         5588 
33740000    1.0245708   -3.8182762      1728000    6099.4577       168700         5589 
33750000   0.98201312   -3.8282501      1728000    6101.2855       168750         5589 
33760000    0.9944935    -3.850257      1728000    6103.1476       168800         5589 
33770000    1.0193891   -3.9535461      1728000    6105.0246       168850         5590 
33780000   0.99378323   -3.6816306      1728000    6106.8696       168900         5591 
33790000   0.99865965   -3.8790304      1728000    6108.6941       168950         5592 
33800000   0.95241254   -3.8650106      1728000    6110.5443       169000         5593 
33810000    1.0052801    -3.780447      1728000    6112.4227       169050         5593 
33820000    1.0529735   -3.8529751      1728000     6114.328       169100         5593 
33830000    1.0158333   -3.7384246      1728000    6116.1401       169150         5593 
33840000   0.98669438   -3.7890216      1728000    6118.0039       169200         5594 
33850000    1.0276973   -3.6646511      1728000    6119.8453       169250         5594 
33860000   0.97086588   -3.7377172      1728000    6121.7068       169300         5596 
33870000   0.99529468   -3.7764094      1728000    6123.5306       169350         5597 
33880000    1.0258606   -3.9097382      1728000    6125.3831       169400         5597 
33890000   0.98435372   -3.8579299      1728000    6127.2116       169450         5599 
33900000   0.97837185    -3.824011      1728000    6129.1462       169500         5599 
33910000    1.0286733   -3.8036124      1728000    6131.0193       169550         5600 
33920000   0.97985829   -3.7624826      1728000    6132.8577       169600         5601 
33930000    1.0294132   -3.6962609      1728000    6134.7396       169650         5603 
33940000    1.0506173   -3.7588784      1728000    6136.5937       169700         5603 
33950000   0.97905025   -3.7840611      1728000    6138.5157       169750         5603 
33960000    1.0118617   -3.7804153      1728000     6140.355       169800         5605 
33970000    1.0142577   -3.7654951      1728000     6142.166       169850         5605 
33980000    1.0100414   -3.7896329      1728000    6144.0691       169900         5605 
33990000    1.0494987    -3.878716      1728000    6145.9994       169950         5606 
34000000    1.0173588   -3.8304976      1728000    6147.8188       170000         5608 
34010000    1.0030615   -3.7388728      1728000    6149.6642       170050         5609 
34020000   0.99148781   -3.7580384      1728000    6151.4688       170100         5610 
34030000    1.0360284   -3.8567086      1728000    6153.3694       170150         5613 
34040000    1.0181872   -3.8060402      1728000    6155.2578       170200         5614 
34050000    1.0198594   -3.8009184      1728000    6157.1109       170250         5615 
34060000   0.93783469   -3.7096802      1728000     6158.944       170300         5617 
34070000    1.0260629   -3.8411015      1728000    6160.7698       170350         5619 
34080000   0.99886137   -3.8077367      1728000    6162.6114       170400         5621 
34090000   0.98891148   -3.8999557      1728000    6164.4749       170450         5623 
34100000     1.031043   -3.6314028      1728000    6166.4449       170500         5624 
34110000    1.0380447    -3.752289      1728000    6168.3333       170550         5624 
34120000   0.93710161   -3.8597802      1728000    6170.1882       170600         5624 
34130000   0.98727163    -3.758611      1728000    6172.0244       170650         5625 
34140000    1.0338357   -3.7594651      1728000    6173.9767       170700         5625 
34150000   0.98356101   -3.8829611      1728000    6175.8787       170750         5626 
34160000   0.93210168   -3.7698955      1728000    6177.7385       170800         5626 
34170000    1.0070353   -3.6990422      1728000    6179.5865       170850         5626 
34180000    1.0498499   -3.7501304      1728000    6181.4276       170900         5627 
34190000     1.121632   -3.7880415      1728000    6183.2693       170950         5628 
34200000    1.0597655   -3.8730911      1728000    6185.1157       171000         5628 
34210000   0.89645791   -3.9185109      1728000    6186.9377       171050         5628 
34220000    1.0007045   -3.8574976      1728000    6188.8075       171100         5629 
34230000    1.0042033   -3.9165725      1728000    6190.6625       171150         5629 
34240000   0.96106943   -3.8822158      1728000    6192.5128       171200         5629 
34250000   0.98106729   -3.7589258      1728000    6194.3666       171250         5629 
34260000   0.98465513   -3.9194945      1728000    6196.2331       171300         5630 
34270000    1.0396297   -3.8148524      1728000    6198.0494       171350         5631 
34280000      1.00608   -3.8145609      1728000    6199.9006       171400         5632 
34290000   0.96229738   -3.9850888      1728000    6201.7378       171450         5632 
34300000    1.0214104   -3.8646073      1728000    6203.5926       171500         5632 
34310000   0.89146229   -3.8510445      1728000    6205.4175       171550         5632 
34320000    0.9934312   -3.7924683      1728000    6207.2595       171600         5632 
34330000    1.0348642   -3.8524959      1728000    6209.1204       171650         5633 
34340000   0.97537802   -3.7852497      1728000    6211.0256       171700         5634 
34350000   0.95289016   -3.8298104      1728000    6212.9078       171750         5634 
34360000    1.0118977   -3.8234788      1728000    6214.7545       171800         5635 
34370000    1.0257012   -3.7443335      1728000    6216.5635       171850         5636 
34380000   0.96221517   -3.8459319      1728000    6218.4307       171900         5639 
34390000   0.99118412   -3.7783839      1728000    6220.3302       171950         5639 
34400000    1.0259656   -3.9035877      1728000    6222.1903       172000         5643 
34410000   0.98948362   -3.6174374      1728000    6224.0793       172050         5643 
34420000    1.0313122   -3.7889442      1728000    6225.9619       172100         5643 
34430000   0.99239118   -3.9538352      1728000    6227.8496       172150         5644 
34440000    1.0082868   -3.7957644      1728000    6229.7247       172200         5645 
34450000   0.99161693   -3.8180235      1728000     6231.579       172250         5645 
34460000    1.0161161   -3.7407037      1728000     6233.492       172300         5645 
34470000    1.0566971   -3.6789943      1728000    6235.3477       172350         5645 
34480000   0.98192386   -3.7627106      1728000    6237.2295       172400         5645 
34490000   0.93882005   -3.8052359      1728000    6239.0519       172450         5645 
34500000   0.88575452   -3.7985153      1728000    6240.8605       172500         5645 
34510000   0.96146158   -3.7738314      1728000    6242.6794       172550         5645 
34520000   0.98159113    -3.812486      1728000    6244.5616       172600         5645 
34530000    1.0360766   -3.8246362      1728000    6246.3774       172650         5646 
34540000    1.0331903   -3.8427089      1728000    6248.2213       172700         5647 
34550000    1.0201123   -3.7772686      1728000    6250.0756       172750         5648 
34560000    1.0567757   -3.8881541      1728000    6251.8864       172800         5649 
34570000     1.040286   -3.8608738      1728000    6253.7113       172850         5652 
34580000     1.039628   -3.8626383      1728000    6255.5335       172900         5653 
34590000   0.95643969   -3.7859901      1728000    6257.4134       172950         5654 
34600000    0.9884989   -3.6932347      1728000    6259.2771       173000         5654 
34610000   0.99315185   -3.9563375      1728000    6261.1174       173050         5655 
34620000    1.0253744   -3.7356983      1728000    6262.9755       173100         5655 
34630000    1.0198138   -3.6957434      1728000    6264.8152       173150         5656 
34640000   0.95864626   -3.8843427      1728000    6266.6655       173200         5657 
34650000   0.99047365   -3.7263732      1728000    6268.4744       173250         5661 
34660000    1.0016702   -3.8347195      1728000    6270.3703       173300         5663 
34670000   0.98143758   -3.8376624      1728000    6272.2321       173350         5664 
34680000    1.0588343   -3.8191527      1728000    6274.0935       173400         5667 
34690000    1.0057543   -3.8999082      1728000    6275.9264       173450         5667 
34700000     0.994297    -3.812044      1728000    6277.8523       173500         5669 
34710000   0.99486881   -3.7700379      1728000    6279.7484       173550         5670 
34720000    1.1032031   -3.8095938      1728000    6281.5822       173600         5673 
34730000    1.0193383   -3.7325722      1728000    6283.4002       173650         5675 
34740000   0.99223959   -3.8417542      1728000    6285.2586       173700         5675 
34750000    1.0054625    -3.775438      1728000    6287.1315       173750         5676 
34760000    1.0637173   -3.7834062      1728000    6289.0106       173800         5677 
34770000    1.0119881   -3.7284384      1728000    6290.8328       173850         5678 
34780000   0.94798799   -3.8532717      1728000    6292.6654       173900         5679 
34790000   0.91823797   -3.8264473      1728000    6294.5605       173950         5681 
34800000   0.97478766   -3.7404656      1728000    6296.4265       174000         5682 
34810000   0.99055794   -3.8834314      1728000    6298.2693       174050         5683 
34820000    1.0402385   -3.7970351      1728000    6300.1687       174100         5684 
34830000    1.0184631   -3.9403684      1728000    6302.0214       174150         5684 
34840000    0.9970412    -3.828191      1728000    6303.9046       174200         5685 
34850000   0.97607434   -3.7289759      1728000    6305.7304       174250         5685 
34860000   0.93163982   -3.7525058      1728000    6307.5705       174300         5689 
34870000    1.0149893   -3.8422573      1728000    6309.4052       174350         5689 
34880000     1.008991    -3.763782      1728000    6311.2104       174400         5689 
34890000    0.9115454   -3.8806199      1728000    6313.0032       174450         5690 
34900000    1.0778054   -3.8508401      1728000    6314.8265       174500         5692 
34910000     1.060189   -3.7787934      1728000    6316.6475       174550         5692 
34920000   0.99412997   -3.9502884      1728000    6318.4824       174600         5692 
34930000      1.00288   -3.7771154      1728000    6320.3291       174650         5693 
34940000    1.0310736   -3.8729021      1728000    6322.2192       174700         5693 
34950000    1.0157631   -3.8636497      1728000    6324.0644       174750         5694 
34960000   0.99230423   -3.9017769      1728000    6325.9044       174800         5695 
34970000    1.0488483   -3.7525328      1728000    6327.7653       174850         5698 
34980000    0.9772416   -3.8449741      1728000    6329.6344       174900         5700 
34990000    1.0665642   -3.8129863      1728000    6331.5245       174950         5700 
35000000   0.96633683   -3.8137168      1728000    6333.3785       175000         5700 
35010000    1.0570424    -3.855719      1728000    6335.4261       175050         5700 
35020000   0.97437633   -3.8468456      1728000    6337.2515       175100         5700 
35030000   0.98277793   -3.8360323      1728000    6339.1158       175150         5702 
35040000   0.93146941   -3.9099447      1728000     6340.997       175200         5703 
35050000    1.0126627   -3.7822888      1728000    6342.8424       175250         5703 
35060000   0.95806266   -3.8173545      1728000    6344.7153       175300         5704 
35070000   0.98991619   -3.8955932      1728000    6346.5398       175350         5704 
35080000    1.0342724   -3.8977215      1728000    6348.3736       175400         5704 
35090000   0.92909622   -3.8492727      1728000    6350.1953       175450         5705 
35100000    1.0343999   -3.8437545      1728000     6352.073       175500         5706 
35110000   0.95345677    -3.841913      1728000      6353.95       175550         5706 
35120000   0.99420722   -3.8908723      1728000    6355.8351       175600         5708 
35130000   0.96078019   -3.8463858      1728000    6357.6894       175650         5708 
35140000   0.98491857   -3.8164524      1728000    6359.5216       175700         5708 
35150000   0.96133517    -3.822916      1728000    6361.3651       175750         5708 
35160000    1.0462532   -3.7830067      1728000    6363.2253       175800         5709 
35170000    1.0544395   -3.9348842      1728000    6365.0505       175850         5709 
35180000    1.0397639   -3.7569715      1728000    6366.8723       175900         5709 
35190000    0.9877027   -3.9368608      1728000    6368.7199       175950         5709 
35200000   0.98835688   -3.8745925      1728000    6370.5922       176000         5709 
35210000    1.0338924   -3.8523355      1728000    6372.4172       176050         5709 
35220000   0.99362912   -3.8585589      1728000    6374.2831       176100         5709 
35230000    1.0504877   -3.7899951      1728000    6376.1631       176150         5709 
35240000    1.0205565   -3.9732527      1728000    6378.0091       176200         5709 
35250000   0.99204714   -3.9820096      1728000    6379.8722       176250         5709 
35260000   0.98976416   -3.9129505      1728000    6381.6861       176300         5710 
35270000    0.9752791   -3.8983522      1728000    6383.5162       176350         5710 
35280000    0.9818434   -3.8818363      1728000    6385.3422       176400         5711 
35290000   0.98129275   -3.7492261      1728000    6387.2142       176450         5711 
35300000    0.9509353   -3.7982773      1728000    6389.0722       176500         5711 
35310000    1.0385837   -3.9712951      1728000    6390.9032       176550         5711 
35320000   0.99575114   -3.7480699      1728000     6392.753       176600         5712 
35330000   0.96246745   -3.8505873      1728000    6394.6328       176650         5713 
35340000   0.98306808   -3.7413319      1728000     6396.545       176700         5713 
35350000   0.99743763   -3.7314748      1728000    6398.5071       176750         5714 
35360000   0.93190392   -3.9388101      1728000    6400.3282       176800         5715 
35370000   0.96694216   -3.7675994      1728000    6402.1652       176850         5715 
35380000     1.055827   -3.9221234      1728000    6403.9941       176900         5715 
35390000   0.98015473   -3.7413967      1728000    6405.8892       176950         5716 
35400000   0.99356381     -3.91453      1728000    6407.8071       177000         5716 
35410000    1.0010126   -3.8040606      1728000    6409.6291       177050         5717 
35420000    1.0275524   -3.9813351      1728000     6411.445       177100         5718 
35430000    1.0091536   -3.8919191      1728000    6413.2802       177150         5718 
35440000    1.0381578   -3.7493447      1728000    6415.1602       177200         5718 
35450000    1.0168912   -3.8482486      1728000    6417.0041       177250         5718 
35460000    1.0917227   -3.9795932      1728000     6418.882       177300         5719 
35470000    1.0398813    -3.875137      1728000    6420.7271       177350         5719 
35480000    1.0115148      -3.8954      1728000    6422.6361       177400         5719 
35490000    1.0074145   -3.9071067      1728000    6424.5621       177450         5719 
35500000    1.0073029   -3.9360354      1728000    6426.5163       177500         5719 
35510000   0.96878168    -3.900377      1728000    6428.3629       177550         5720 
35520000    1.0081534   -3.8896008      1728000     6430.237       177600         5720 
35530000    1.0434761   -3.7525824      1728000    6432.1139       177650         5721 
35540000    1.0009928   -3.8400909      1728000    6433.9602       177700         5723 
35550000    1.0208805   -3.7711647      1728000    6435.8331       177750         5723 
35560000   0.99800812    -3.819967      1728000    6437.6991       177800         5724 
35570000    1.0645006   -3.8477372      1728000      6439.54       177850         5725 
35580000    1.0216731   -3.7715113      1728000    6441.4145       177900         5727 
35590000    1.0236826   -3.7534209      1728000     6443.268       177950         5730 
35600000   0.96009869   -3.8496426      1728000    6445.1193       178000         5730 
35610000    1.0831312   -3.7348642      1728000    6447.0112       178050         5730 
35620000     1.097842   -3.9859034      1728000    6448.9096       178100         5731 
35630000    1.0027587   -3.8812028      1728000    6450.7471       178150         5731 
35640000    1.0386328   -3.7142163      1728000    6452.5874       178200         5732 
35650000     1.017005   -3.7115589      1728000    6454.4043       178250         5734 
35660000    1.0124975   -3.8146167      1728000    6456.2223       178300         5736 
35670000    1.0723619   -3.7788761      1728000    6458.0421       178350         5736 
35680000    1.0430744   -3.8857881      1728000     6459.905       178400         5736 
35690000    1.0758735   -3.7660204      1728000    6461.7548       178450         5737 
35700000    1.0256868   -3.8139725      1728000    6463.6272       178500         5737 
35710000    1.0140129   -3.6933907      1728000    6465.5251       178550         5737 
35720000   0.94054516   -3.8194168      1728000    6467.3761       178600         5737 
35730000    1.0179323   -3.7050279      1728000    6469.2471       178650         5737 
35740000   0.96784172   -3.9230608      1728000    6471.0749       178700         5738 
35750000    1.0371956   -3.7637127      1728000     6472.897       178750         5739 
35760000    1.0115619    -3.751491      1728000    6474.7728       178800         5741 
35770000   0.97829903   -3.7358548      1728000    6476.6641       178850         5741 
35780000    1.0173326   -3.8807836      1728000     6478.566       178900         5741 
35790000    1.0509283   -3.7762152      1728000     6480.416       178950         5741 
35800000    1.0265339    -3.864087      1728000     6482.306       179000         5743 
35810000   0.95123453   -3.8552407      1728000     6484.136       179050         5743 
35820000    1.0373059   -3.7928423      1728000    6485.9532       179100         5744 
35830000   0.95971277   -3.7368988      1728000     6487.798       179150         5744 
35840000   0.98597892   -3.8799963      1728000     6489.623       179200         5744 
35850000   0.97091945   -3.7640918      1728000     6491.439       179250         5745 
35860000    1.0002965   -3.7624023      1728000     6493.279       179300         5746 
35870000      1.05301   -3.8279972      1728000    6495.1219       179350         5746 
35880000   0.93433226   -3.7120855      1728000      6496.93       179400         5746 
35890000    1.0381253   -3.8514392      1728000     6498.789       179450         5748 
35900000    0.9987736   -3.8444653      1728000    6500.6433       179500         5750 
35910000    1.0036733   -3.8053647      1728000    6502.5585       179550         5750 
35920000   0.97585647   -3.7826917      1728000     6504.395       179600         5751 
35930000   0.97568902   -3.8797937      1728000    6506.2397       179650         5751 
35940000    1.0189439   -3.8131018      1728000    6508.0668       179700         5753 
35950000    1.0049249   -3.8306492      1728000    6509.9039       179750         5756 
35960000   0.99999307   -3.7764745      1728000    6511.7577       179800         5756 
35970000   0.93764386   -3.8163861      1728000    6513.5711       179850         5757 
35980000   0.96515486   -3.7473258      1728000    6515.3992       179900         5759 
35990000    1.0329428   -3.6816899      1728000    6517.1992       179950         5759 
36000000    1.0129291   -3.8177801      1728000    6519.0512       180000         5760 
36010000    1.0355574   -3.8232128      1728000    6520.8768       180050         5760 
36020000   0.97928565   -3.6900609      1728000     6522.696       180100         5762 
36030000    1.0145175   -3.8833089      1728000    6524.5421       180150         5762 
36040000   0.97755421   -3.7743514      1728000    6526.4085       180200         5762 
36050000   0.92819926   -3.7754211      1728000     6528.317       180250         5764 
36060000   0.96393733   -3.6879726      1728000     6530.216       180300         5766 
36070000   0.97569218   -3.7347458      1728000    6532.0891       180350         5768 
36080000    1.0539859    -3.745437      1728000    6533.9067       180400         5770 
36090000    1.0532767   -3.6344799      1728000    6535.6892       180450         5773 
36100000    1.0666994   -3.6547863      1728000    6537.5222       180500         5773 
36110000   0.96542951   -3.7738466      1728000    6539.3302       180550         5773 
36120000    1.0028244   -3.7155891      1728000      6541.12       180600         5774 
36130000     1.046124   -3.6355631      1728000      6542.92       180650         5775 
36140000   0.88381806   -3.7342216      1728000    6544.7309       180700         5776 
36150000   0.97133955   -3.7221003      1728000     6546.534       180750         5778 
36160000   0.98349017   -3.7701127      1728000    6548.4005       180800         5780 
36170000   0.99869996   -3.6739587      1728000    6550.3275       180850         5780 
36180000   0.95952862   -3.8414987      1728000     6552.132       180900         5780 
36190000     1.003069    -3.730587      1728000     6553.938       180950         5781 
36200000    1.0236774   -3.7962258      1728000     6555.759       181000         5781 
36210000    1.0234868   -3.7352626      1728000     6557.567       181050         5783 
36220000   0.99010098   -3.7187947      1728000     6559.505       181100         5784 
36230000     1.017918   -3.8351227      1728000    6561.3089       181150         5785 
36240000    1.0730381    -3.713476      1728000    6563.1219       181200         5786 
36250000    1.1057547   -3.8610192      1728000    6564.9828       181250         5787 
36260000   0.95381303   -3.8790162      1728000    6566.8021       181300         5790 
36270000    0.9982095   -3.7128642      1728000    6568.6879       181350         5793 
36280000    1.0306882   -3.6784246      1728000    6570.5628       181400         5795 
36290000   0.99744907   -3.7728752      1728000     6572.432       181450         5796 
36300000   0.99777625   -3.8780501      1728000    6574.3483       181500         5797 
36310000   0.98195837   -3.7711608      1728000    6576.1706       181550         5801 
36320000    1.0025617   -3.6701263      1728000    6577.9889       181600         5802 
36330000    0.9550819   -3.7317545      1728000    6579.8267       181650         5804 
36340000     1.046949   -3.8326559      1728000    6581.6548       181700         5804 
36350000      0.95958   -3.9129214      1728000    6583.4659       181750         5804 
36360000   0.97350968    -3.620837      1728000    6585.3039       181800         5805 
36370000   0.96333434   -3.8185399      1728000    6587.0949       181850         5806 
36380000     1.038808   -3.8485422      1728000    6588.9056       181900         5807 
36390000   0.98280136   -3.8344366      1728000    6590.7366       181950         5807 
36400000    1.0156866   -3.8717082      1728000      6592.56       182000         5808 
36410000   0.99931735   -3.8288954      1728000    6594.3921       182050         5808 
36420000    1.0103973   -3.8159229      1728000    6596.2148       182100         5809 
36430000    1.0170559   -3.6806471      1728000    6598.0309       182150         5810 
36440000   0.97295804   -3.7837388      1728000    6599.8478       182200         5810 
36450000   0.99097562   -3.7209926      1728000    6601.6709       182250         5811 
36460000   0.98435477    -3.752041      1728000    6603.4859       182300         5811 
36470000    1.0323783   -3.7058939      1728000    6605.3714       182350         5812 
36480000   0.94626527   -3.7133652      1728000     6607.212       182400         5813 
36490000   0.96681777   -3.7342088      1728000    6609.1257       182450         5814 
36500000   0.99464164   -3.6534656      1728000    6610.9737       182500         5816 
36510000   0.96427722   -3.7607839      1728000    6612.8138       182550         5819 
36520000    0.9534982   -3.6237171      1728000    6614.6476       182600         5819 
36530000    1.0187658   -3.7473843      1728000     6616.478       182650         5820 
36540000    1.0677281   -3.7979558      1728000    6618.3058       182700         5822 
36550000    1.0102103    -3.662524      1728000    6620.1298       182750         5824 
36560000     1.035554   -3.7441135      1728000    6621.9338       182800         5824 
36570000    1.0004884   -3.7145331      1728000    6623.7558       182850         5824 
36580000    1.0478205   -3.8804402      1728000    6625.6448       182900         5825 
36590000    1.0282106   -3.6990151      1728000    6627.5209       182950         5825 
36600000    1.0282569   -3.7875378      1728000    6629.3758       183000         5826 
36610000    1.0089164   -3.8309122      1728000    6631.4148       183050         5828 
36620000    1.0572239   -3.7108908      1728000    6633.2518       183100         5829 
36630000   0.97865395   -3.7626772      1728000    6635.1038       183150         5830 
36640000   0.96610124   -3.8298328      1728000    6636.9409       183200         5830 
36650000    1.0162964   -3.8733101      1728000    6638.8217       183250         5830 
36660000   0.93338035   -3.7765487      1728000     6641.043       183300         5830 
36670000    0.9966788   -3.7380793      1728000    6642.9375       183350         5832 
36680000   0.97370892   -3.8557889      1728000    6644.7961       183400         5833 
36690000   0.98556685   -3.7051045      1728000    6646.6906       183450         5834 
36700000   0.99889443   -3.8669804      1728000    6648.5208       183500         5835 
36710000    1.0338956    -3.795422      1728000    6650.3511       183550         5835 
36720000   0.95508707   -3.8764646      1728000    6652.1688       183600         5838 
36730000   0.99626362   -3.8126641      1728000    6653.9987       183650         5839 
36740000    1.0337696   -3.9346741      1728000     6655.878       183700         5840 
36750000    1.0401446   -3.7609583      1728000    6657.7412       183750         5843 
36760000    1.0183095   -3.9037366      1728000     6659.592       183800         5845 
36770000     1.011635    -3.813537      1728000    6661.4608       183850         5845 
36780000    1.0182145   -3.8178124      1728000    6663.3346       183900         5845 
36790000    1.0196391   -3.8183666      1728000    6665.1738       183950         5847 
36800000   0.93449513   -3.6936415      1728000    6667.0237       184000         5848 
36810000    1.0021874   -3.8721953      1728000    6668.9151       184050         5848 
36820000   0.99173721   -3.7422407      1728000    6670.8399       184100         5850 
36830000     1.038179   -3.7965999      1728000     6672.722       184150         5850 
36840000   0.96661826   -3.8035064      1728000     6674.537       184200         5851 
36850000    1.0122127   -3.9225956      1728000    6676.3965       184250         5851 
36860000   0.94975923   -3.7038842      1728000    6678.2657       184300         5851 
36870000   0.98049358   -3.8067391      1728000    6680.1325       184350         5851 
36880000   0.93674468   -3.8120948      1728000    6682.0207       184400         5851 
36890000     0.999139   -3.7984405      1728000    6683.8487       184450         5852 
36900000   0.98772676   -3.9338964      1728000     6685.701       184500         5852 
36910000    1.0053431   -3.7433617      1728000    6687.5367       184550         5853 
36920000    1.0316938   -3.8098551      1728000     6689.382       184600         5854 
36930000    1.0207831   -3.6845629      1728000    6691.2527       184650         5855 
36940000    1.0084002   -3.6716975      1728000    6693.1076       184700         5856 
36950000   0.98265476   -3.7900506      1728000    6695.0287       184750         5858 
36960000    1.0424603   -3.6986873      1728000    6696.8767       184800         5859 
36970000    1.0423716   -3.8446098      1728000    6698.8066       184850         5860 
36980000    1.0538818   -3.6893456      1728000    6700.6387       184900         5860 
36990000   0.94183057   -3.8793966      1728000    6702.4445       184950         5861 
37000000   0.98454275   -3.7852051      1728000    6704.2909       185000         5861 
37010000   0.97902384   -3.6978377      1728000    6706.0978       185050         5861 
37020000    1.0209421   -3.9046161      1728000    6707.9057       185100         5862 
37030000   0.95268357   -3.8027983      1728000    6709.7377       185150         5862 
37040000   0.98054512   -3.7687181      1728000    6711.5595       185200         5862 
37050000    1.1336311   -3.8667211      1728000    6713.3777       185250         5862 
37060000   0.93011778   -3.8418336      1728000    6715.2017       185300         5862 
37070000    1.0049302   -3.6880938      1728000    6717.0706       185350         5863 
37080000   0.96574032   -3.7662706      1728000    6718.9155       185400         5864 
37090000    1.0114598   -3.8631203      1728000    6720.8385       185450         5864 
37100000   0.92174284   -3.8702803      1728000    6722.7716       185500         5865 
37110000    1.0069718    -3.730757      1728000    6724.6147       185550         5866 
37120000    1.0403449   -3.8364102      1728000    6726.4749       185600         5868 
37130000   0.95986319   -3.7419432      1728000    6728.3227       185650         5868 
37140000    1.0009369   -3.7338454      1728000    6730.2035       185700         5870 
37150000    1.0180876   -3.7995244      1728000    6732.0627       185750         5871 
37160000    1.0761541   -3.7373762      1728000    6733.9468       185800         5872 
37170000    1.0270261   -3.8750007      1728000    6735.8359       185850         5872 
37180000   0.99854753   -3.7909206      1728000    6737.7688       185900         5872 
37190000    1.0771329   -3.8085826      1728000    6739.6279       185950         5874 
37200000   0.96400815   -3.8046591      1728000    6741.5159       186000         5875 
37210000   0.97982107    -3.703764      1728000    6743.4138       186050         5876 
37220000     1.042529   -3.8326867      1728000     6745.285       186100         5877 
37230000    1.0086287   -3.8020502      1728000    6747.1458       186150         5878 
37240000    0.9956421   -3.8608294      1728000     6749.055       186200         5878 
37250000    1.0086185   -3.7677097      1728000    6751.0929       186250         5879 
37260000   0.94763732   -3.8011976      1728000    6752.9689       186300         5880 
37270000   0.99311927   -3.9054583      1728000    6754.8077       186350         5880 
37280000   0.92563233    -3.855438      1728000    6756.7065       186400         5880 
37290000    1.0086825   -3.8146132      1728000    6758.5467       186450         5880 
37300000   0.96494107   -3.9412428      1728000    6760.4016       186500         5881 
37310000    1.0005336   -3.9002992      1728000    6762.2861       186550         5881 
37320000    1.0062676   -3.9076707      1728000    6764.2271       186600         5882 
37330000   0.96214199   -3.9441568      1728000    6766.1045       186650         5882 
37340000    1.0629652   -3.7782165      1728000    6767.9708       186700         5882 
37350000     1.001992   -3.8524463      1728000    6769.8529       186750         5882 
37360000   0.99758064    -3.866505      1728000     6771.729       186800         5883 
37370000    1.0653096   -3.9404068      1728000    6773.5844       186850         5883 
37380000    1.0385214   -3.8805005      1728000    6775.4285       186900         5885 
37390000    1.0084933   -3.9175683      1728000    6777.2986       186950         5886 
37400000   0.95267167   -3.7576978      1728000     6779.177       187000         5888 
37410000    1.0071002   -3.7589365      1728000    6780.9998       187050         5890 
37420000    1.0115179   -3.7645921      1728000    6782.8279       187100         5890 
37430000    1.0144043   -3.8911869      1728000     6784.666       187150         5891 
37440000   0.97953719   -3.9032107      1728000    6786.4946       187200         5891 
37450000   0.97042353      -3.8943      1728000    6788.3726       187250         5893 
37460000    1.0337857   -3.7452905      1728000    6790.2577       187300         5894 
37470000   0.99443834   -3.8809735      1728000    6792.2167       187350         5894 
37480000    1.0202189   -3.9011112      1728000     6794.089       187400         5894 
37490000   0.99590615   -3.9054005      1728000    6796.0078       187450         5894 
37500000   0.98242591   -4.0141892      1728000    6797.8818       187500         5894 
37510000   0.97550968    -3.878145      1728000    6799.7505       187550         5894 
37520000   0.99147967   -3.7373942      1728000    6801.6031       187600         5894 
37530000      1.06218   -3.8176592      1728000    6803.4326       187650         5894 
37540000    1.0032355   -3.8702191      1728000    6805.2815       187700         5894 
37550000    1.0532144   -3.8111822      1728000    6807.1316       187750         5894 
37560000   0.98483416   -3.8236918      1728000    6808.9856       187800         5894 
37570000   0.97731172   -3.8736378      1728000    6810.8235       187850         5894 
37580000   0.99876665   -3.8310988      1728000    6812.6665       187900         5894 
37590000    1.0612263   -3.7760556      1728000    6814.5114       187950         5894 
37600000    1.0151141   -3.8224952      1728000    6816.3465       188000         5895 
37610000   0.96440227   -3.8538444      1728000    6818.1814       188050         5895 
37620000    1.0039229   -3.8436467      1728000    6820.0244       188100         5898 
37630000    1.0153602   -3.9123305      1728000    6821.8855       188150         5899 
37640000    1.0127798   -3.8978114      1728000    6823.7495       188200         5899 
37650000   0.98384452   -3.8675368      1728000    6825.5755       188250         5899 
37660000   0.97081796   -3.9964576      1728000    6827.4244       188300         5899 
37670000   0.96582734   -3.8421189      1728000    6829.3102       188350         5900 
37680000    1.0075466   -3.7856916      1728000    6831.2306       188400         5900 
37690000   0.97670113   -3.7542057      1728000    6833.1344       188450         5901 
37700000    1.0017405   -3.8506104      1728000    6834.9575       188500         5901 
37710000    1.0114878   -3.7687875      1728000    6836.7836       188550         5902 
37720000   0.99303095   -3.8970848      1728000    6838.6243       188600         5902 
37730000    1.0191549    -3.902684      1728000    6840.4415       188650         5902 
37740000    1.0205558   -3.8960455      1728000    6842.2683       188700         5902 
37750000   0.96662678   -3.9273244      1728000    6844.1625       188750         5902 
37760000   0.99675302   -4.0740377      1728000    6846.0068       188800         5902 
37770000    1.0112021     -3.88221      1728000    6847.8745       188850         5902 
37780000     1.007526   -3.8575258      1728000    6849.7025       188900         5905 
37790000    1.0130372   -3.8830042      1728000    6851.5206       188950         5905 
37800000   0.93539298   -3.7199557      1728000    6853.3526       189000         5906 
37810000    1.0200378   -3.8269949      1728000    6855.1834       189050         5907 
37820000     0.972805   -3.7762417      1728000    6857.0085       189100         5910 
37830000   0.98701233   -3.7983887      1728000    6858.8566       189150         5911 
37840000   0.95792155   -3.8410322      1728000    6860.6745       189200         5911 
37850000   0.92228865   -3.8348678      1728000    6862.5065       189250         5911 
37860000     1.009264   -3.7648512      1728000    6864.3472       189300         5912 
37870000    1.0166618   -3.7377407      1728000    6866.1566       189350         5913 
37880000   0.98774045   -3.7529462      1728000    6867.9833       189400         5914 
37890000    1.0479096   -3.8505282      1728000    6869.8244       189450         5914 
37900000    1.0133641    -3.969023      1728000    6871.6795       189500         5914 
37910000    1.0021336   -3.7837546      1728000    6873.5084       189550         5915 
37920000    1.0093545    -3.936751      1728000    6875.3344       189600         5916 
37930000   0.99451063   -3.8808343      1728000    6877.1673       189650         5916 
37940000    1.0182442   -3.8272183      1728000    6879.0125       189700         5917 
37950000   0.91271504   -3.8106149      1728000    6880.8323       189750         5918 
37960000    1.0203067   -3.8236327      1728000    6882.6754       189800         5918 
37970000   0.99715758   -3.8630205      1728000    6884.5586       189850         5919 
37980000   0.96118104   -3.8290676      1728000    6886.4024       189900         5919 
37990000    1.0328528   -3.9458043      1728000    6888.2193       189950         5921 
38000000    1.0039899   -3.8737264      1728000    6890.0935       190000         5921 
38010000    1.0270474   -3.8118395      1728000    6891.9151       190050         5921 
38020000     0.970211   -3.6401399      1728000    6893.7626       190100         5921 
38030000   0.95690695   -3.8779411      1728000    6895.5922       190150         5922 
38040000   0.96489693   -3.7890974      1728000    6897.4622       190200         5922 
38050000   0.99422603   -3.7295196      1728000    6899.3463       190250         5923 
38060000    1.0020551   -3.8971261      1728000    6901.1913       190300         5924 
38070000   0.99372299   -3.9006584      1728000    6903.0284       190350         5924 
38080000   0.98059727   -3.8376839      1728000    6905.0255       190400         5924 
38090000    1.0666484   -3.7231848      1728000    6906.9547       190450         5924 
38100000    1.0596408   -3.8193262      1728000    6908.8588       190500         5925 
38110000    1.0101607   -3.8304022      1728000    6910.7978       190550         5925 
38120000    1.0377902   -3.8575163      1728000    6912.8687       190600         5925 
38130000    1.0956982   -3.7755364      1728000    6915.0125       190650         5925 
38140000    1.0258665   -3.8722427      1728000    6916.9665       190700         5926 
38150000     1.026454   -3.7938205      1728000    6918.9495       190750         5927 
38160000   0.99408415   -3.7294114      1728000    6921.0053       190800         5928 
38170000   0.95936373   -3.7703907      1728000    6923.1551       190850         5928 
38180000    1.0176637   -3.7784316      1728000     6925.244       190900         5928 
38190000   0.95329585   -3.8923246      1728000    6927.4098       190950         5929 
38200000    0.9804987   -3.8322357      1728000    6929.4307       191000         5929 
38210000   0.99424823    -3.768956      1728000    6931.3199       191050         5929 
38220000     1.071009   -3.7621421      1728000     6933.239       191100         5930 
38230000    1.0108069   -3.7133409      1728000     6935.192       191150         5931 
38240000    0.9950138   -3.8401982      1728000     6937.154       191200         5931 
38250000   0.99946188    -3.840617      1728000    6939.0809       191250         5934 
38260000   0.99762372   -3.7865523      1728000     6940.949       191300         5935 
38270000     1.036149   -3.8491942      1728000    6942.8181       191350         5937 
38280000   0.96189786   -3.7570743      1728000    6944.7233       191400         5937 
38290000   0.99677228   -3.9098312      1728000    6946.5731       191450         5937 
38300000     1.000509   -3.8567781      1728000    6948.4791       191500         5940 
38310000    1.0444915   -3.7732044      1728000    6950.3971       191550         5942 
38320000    1.0338392   -3.6902966      1728000     6952.295       191600         5943 
38330000    0.9872877   -3.7448168      1728000    6954.1732       191650         5944 
38340000    1.0103709    -3.764137      1728000    6956.0453       191700         5944 
38350000     1.105848   -3.9200881      1728000    6957.9331       191750         5945 
38360000    1.0139728   -3.7472882      1728000    6959.8363       191800         5946 
38370000     1.030481   -3.8206431      1728000    6961.7498       191850         5946 
38380000    1.0195863   -3.8843466      1728000    6963.6813       191900         5947 
38390000    1.0395736   -3.7814951      1728000    6965.5403       191950         5949 
38400000   0.96436658   -3.9477927      1728000    6967.5764       192000         5949 
38410000   0.96144293   -3.6313245      1728000    6969.4173       192050         5949 
38420000   0.98712661   -3.8475983      1728000    6971.3043       192100         5949 
38430000    1.0430232   -3.8041773      1728000    6973.1353       192150         5950 
38440000    1.0063361   -3.7604547      1728000    6974.9873       192200         5951 
38450000   0.97727587   -3.7783052      1728000    6976.8763       192250         5951 
38460000   0.95448751   -3.7857436      1728000    6978.7703       192300         5951 
38470000   0.98660962    -3.822451      1728000    6980.6636       192350         5953 
38480000    1.0374082   -3.8829623      1728000    6982.5942       192400         5953 
38490000    1.0228385   -3.9519985      1728000    6984.6106       192450         5953 
38500000    1.0747547   -3.8823643      1728000    6986.5258       192500         5953 
38510000    1.0105424   -3.8817547      1728000    6988.5388       192550         5955 
38520000    1.0433729   -3.8933706      1728000    6990.4173       192600         5956 
38530000   0.99140252   -3.8390515      1728000    6992.3112       192650         5956 
38540000    1.0376468   -3.8931388      1728000    6994.1815       192700         5956 
38550000    1.0256697   -3.7956672      1728000    6995.9932       192750         5957 
38560000   0.97887242   -3.8197634      1728000    6997.9941       192800         5958 
38570000   0.93508404   -3.8641251      1728000    6999.8723       192850         5959 
38580000    1.0067825   -3.9189101      1728000    7001.7673       192900         5959 
38590000    1.0336375   -3.8125159      1728000    7003.6261       192950         5960 
38600000    1.0013518   -3.7317947      1728000    7005.5105       193000         5961 
38610000    1.0150611   -3.8492552      1728000    7007.3709       193050         5961 
38620000    1.0571465   -3.7666991      1728000    7009.2351       193100         5962 
38630000    1.0201176   -3.8011093      1728000    7011.1034       193150         5963 
38640000    1.0473933    -3.906078      1728000    7012.9834       193200         5963 
38650000    1.0960983   -3.8470146      1728000    7014.8618       193250         5963 
38660000    1.0222807    -3.947577      1728000    7016.7187       193300         5963 
38670000    1.0153735   -3.8165372      1728000    7018.6135       193350         5963 
38680000    1.0382515   -3.8287696      1728000    7020.5319       193400         5963 
38690000    1.0310215   -3.8738002      1728000    7022.3972       193450         5963 
38700000    0.9861525    -3.841722      1728000    7024.2603       193500         5963 
38710000   0.94742321   -3.8358039      1728000       7026.1       193550         5965 
38720000   0.95002413   -3.8429959      1728000    7027.9882       193600         5965 
38730000   0.98255696   -3.8333083      1728000    7029.9071       193650         5965 
38740000   0.98678479   -3.8490442      1728000    7031.8274       193700         5965 
38750000   0.94301393   -3.8765129      1728000    7033.7004       193750         5966 
38760000   0.94634103   -3.8322657      1728000    7035.6687       193800         5967 
38770000    1.0270131   -3.7330675      1728000    7037.6986       193850         5967 
38780000    1.0196698   -3.8121978      1728000    7039.6339       193900         5970 
38790000   0.99362279   -3.7236195      1728000    7041.5152       193950         5971 
38800000      1.01266    -3.856149      1728000    7043.4452       194000         5971 
38810000    1.0067952   -3.7688694      1728000    7045.3016       194050         5973 
38820000    1.0397823   -3.8495471      1728000    7047.1504       194100         5973 
38830000    1.0254676   -3.8318872      1728000    7049.0231       194150         5975 
38840000    0.9878597   -3.8013455      1728000    7050.9172       194200         5978 
38850000   0.95433633   -3.7531557      1728000    7052.8256       194250         5980 
38860000    1.0638108   -3.8456799      1728000    7054.7157       194300         5980 
38870000    1.0116929   -3.8540596      1728000    7056.5801       194350         5981 
38880000   0.93546696   -3.7056156      1728000    7058.6041       194400         5982 
38890000    1.0054754   -3.7019708      1728000    7060.7309       194450         5982 
38900000    1.0031573   -3.6559343      1728000     7062.637       194500         5983 
38910000    1.0394964   -3.7914317      1728000    7064.5211       194550         5983 
38920000    1.0242213    -3.795245      1728000    7066.4185       194600         5984 
38930000   0.95828027   -3.7406945      1728000    7068.2527       194650         5985 
38940000    1.0608965   -3.7735399      1728000     7070.111       194700         5986 
38950000   0.95987165   -3.7660206      1728000    7072.0165       194750         5988 
38960000    1.0017466   -3.8403749      1728000    7073.9126       194800         5989 
38970000   0.99985149   -3.8440775      1728000    7075.7722       194850         5989 
38980000   0.97572017   -3.9490312      1728000    7077.6411       194900         5990 
38990000   0.98872366   -3.9058423      1728000    7079.5219       194950         5990 
39000000   0.97075785    -3.792159      1728000    7081.3941       195000         5992 
39010000   0.98333969     -3.83796      1728000    7083.2382       195050         5992 
39020000   0.97986663    -3.780148      1728000    7085.2363       195100         5993 
39030000    1.0050914   -3.8106507      1728000    7087.1611       195150         5994 
39040000   0.98835371   -3.6876511      1728000    7088.9738       195200         5996 
39050000    1.0159118   -3.7627725      1728000     7090.789       195250         5996 
39060000   0.99128845   -3.8100809      1728000    7092.6301       195300         5999 
39070000    1.0319601   -3.8372565      1728000    7094.5011       195350         5999 
39080000    1.0707394   -3.7621087      1728000    7096.3661       195400         6000 
39090000   0.99806484   -3.8702957      1728000    7098.2951       195450         6001 
39100000    1.0369007   -3.9621355      1728000    7100.3021       195500         6001 
39110000    1.0306897   -3.8591372      1728000    7102.2098       195550         6001 
39120000   0.96577677    -3.852308      1728000    7104.0608       195600         6001 
39130000    1.0116588   -3.8034909      1728000    7105.9088       195650         6001 
39140000   0.98150107   -3.8543889      1728000    7107.8036       195700         6003 
39150000   0.99123895   -3.8867287      1728000    7109.7956       195750         6003 
39160000    1.0115082   -3.8039756      1728000    7111.6892       195800         6003 
39170000    1.0238033   -3.7726553      1728000    7113.9062       195850         6004 
39180000   0.98863241   -3.6879655      1728000    7115.8822       195900         6004 
39190000    1.0105008   -3.6878782      1728000    7117.8651       195950         6006 
39200000   0.98223579   -3.7045027      1728000    7119.7982       196000         6006 
39210000   0.95852434   -3.7063373      1728000    7121.7022       196050         6006 
39220000   0.97611318   -3.9758878      1728000     7123.588       196100         6006 
39230000    1.0462171   -3.7430119      1728000    7125.4583       196150         6006 
39240000    1.0129808   -3.7398903      1728000    7127.3531       196200         6008 
39250000   0.99788217   -3.8147327      1728000    7129.2074       196250         6009 
39260000    1.0145402   -3.7293403      1728000    7131.1014       196300         6010 
39270000   0.90576153    -3.772773      1728000    7133.0275       196350         6010 
39280000   0.97969376   -3.7719465      1728000    7134.9565       196400         6011 
39290000   0.98133771    -3.798484      1728000    7136.8541       196450         6012 
39300000    1.0087027   -3.8076594      1728000     7138.788       196500         6014 
39310000   0.99021086   -3.8382025      1728000     7140.719       196550         6014 
39320000    1.0396701   -3.6769484      1728000    7142.6428       196600         6016 
39330000    1.0460523   -3.7910459      1728000    7144.6397       196650         6018 
39340000    1.0229295   -3.7872675      1728000    7146.6117       196700         6018 
39350000    1.0015522   -3.7940039      1728000    7148.5687       196750         6019 
39360000    1.0439041   -3.6825439      1728000    7150.5047       196800         6020 
39370000   0.95690294   -3.7138237      1728000    7152.4318       196850         6020 
39380000   0.98525941   -3.7852056      1728000    7154.2909       196900         6021 
39390000   0.97447621   -3.7226458      1728000    7156.1611       196950         6024 
39400000   0.96940708   -3.6925162      1728000    7158.0951       197000         6026 
39410000   0.98582155   -3.7267269      1728000    7159.9319       197050         6026 
39420000    1.0127598   -3.7807055      1728000    7161.7908       197100         6028 
39430000    1.0266578   -3.7995983      1728000    7163.6531       197150         6030 
39440000    1.0197816   -3.7308591      1728000    7165.5832       197200         6030 
39450000    1.0004248   -3.7705158      1728000    7167.4568       197250         6033 
39460000   0.95813366   -3.7734717      1728000    7169.3299       197300         6035 
39470000    1.0479655   -3.8485586      1728000    7171.1959       197350         6037 
39480000    1.0792934   -3.9141936      1728000     7173.112       197400         6039 
39490000    1.0388795   -3.8689228      1728000     7174.974       197450         6039 
39500000    1.0399012   -3.7361087      1728000    7176.8549       197500         6040 
39510000   0.97375882   -3.6862945      1728000    7178.7544       197550         6040 
39520000    1.0182582   -3.8050159      1728000    7180.7074       197600         6041 
39530000   0.99321556   -3.8527192      1728000    7182.6485       197650         6042 
39540000   0.98847979   -3.6992929      1728000    7184.6204       197700         6042 
39550000   0.95152475   -3.8680596      1728000    7186.5204       197750         6043 
39560000    1.0315186    -3.765841      1728000    7188.3814       197800         6044 
39570000    1.0028449   -3.8390964      1728000    7190.2475       197850         6044 
39580000    1.0419553   -3.8060886      1728000    7192.1126       197900         6045 
39590000   0.97173892   -3.9356344      1728000    7194.0241       197950         6045 
39600000   0.98993664   -3.6738123      1728000    7195.9452       198000         6046 
39610000    1.0052765   -3.8701162      1728000    7197.7838       198050         6047 
39620000   0.94163762   -3.7369608      1728000     7199.688       198100         6048 
39630000   0.97011056   -3.7697067      1728000     7201.572       198150         6050 
39640000   0.99168939    -3.688732      1728000     7203.427       198200         6052 
39650000   0.95934224    -3.774112      1728000    7205.2668       198250         6052 
39660000   0.96865088   -4.0007335      1728000    7207.1129       198300         6052 
39670000    1.0116766   -3.8216298      1728000    7209.0013       198350         6052 
39680000   0.99925041   -3.9353552      1728000    7210.8853       198400         6054 
39690000   0.99218014    -3.785077      1728000    7212.7561       198450         6054 
39700000   0.98497451   -3.8727784      1728000    7214.6495       198500         6055 
39710000    1.0383328   -3.8043656      1728000    7216.5226       198550         6056 
39720000   0.90441998   -3.7128608      1728000    7218.4347       198600         6056 
39730000    1.0776208   -3.7664843      1728000    7220.2859       198650         6056 
39740000    1.0587783     -3.78005      1728000    7222.1297       198700         6057 
39750000   0.96553835   -3.9573498      1728000    7224.0049       198750         6057 
39760000   0.97039053   -3.8327449      1728000     7225.882       198800         6058 
39770000    1.0341883   -3.8790232      1728000    7227.8027       198850         6058 
39780000   0.98014167   -3.8531055      1728000    7229.7357       198900         6058 
39790000   0.97790119   -3.9300846      1728000    7231.6208       198950         6059 
39800000   0.97013817    -3.882968      1728000    7233.6891       199000         6059 
39810000   0.96761586   -3.9958676      1728000    7235.5931       199050         6059 
39820000    1.0282842   -3.7881281      1728000    7237.4942       199100         6059 
39830000    1.0200394   -3.9673735      1728000    7239.3664       199150         6059 
39840000    1.0770488   -3.8352588      1728000    7241.2377       199200         6060 
39850000    1.0143553   -3.8676254      1728000    7243.0894       199250         6061 
39860000    1.0520369    -3.861462      1728000    7244.9625       199300         6061 
39870000    1.0181591   -3.8667355      1728000    7246.8257       199350         6063 
39880000   0.97458942   -3.8470425      1728000    7248.7399       199400         6063 
39890000    1.0117388   -3.8360355      1728000    7250.6599       199450         6063 
39900000    1.0446268   -3.8484366      1728000    7252.5499       199500         6064 
39910000    1.0057354     -3.79767      1728000    7254.4409       199550         6065 
39920000   0.98208638   -3.7094401      1728000    7256.3639       199600         6066 
39930000   0.98213968    -3.783352      1728000    7258.2509       199650         6069 
39940000    1.0345464    -3.872555      1728000    7260.1477       199700         6070 
39950000     1.011668   -3.8113674      1728000    7262.0501       199750         6070 
39960000   0.99469821   -3.8072368      1728000    7263.9863       199800         6070 
39970000   0.96976261   -3.8548199      1728000    7265.8508       199850         6071 
39980000   0.97711309   -3.9396239      1728000    7267.7398       199900         6071 
39990000    1.0458379   -3.9428081      1728000    7269.6245       199950         6071 
40000000    1.0281938   -3.7042751      1728000    7271.5376       200000         6072 
40010000   0.98467673    -3.722655      1728000    7273.4298       200050         6072 
40020000     1.016868   -3.7835519      1728000    7275.3518       200100         6072 
40030000    1.0128924   -3.8859929      1728000     7277.236       200150         6072 
40040000   0.96247899   -3.7871304      1728000    7279.0851       200200         6072 
40050000    1.0470663   -3.8861531      1728000    7280.9655       200250         6072 
40060000   0.98404601   -3.8635141      1728000    7282.8109       200300         6073 
40070000    1.0054289   -3.9089274      1728000    7284.7315       200350         6073 
40080000     1.003521   -3.7903737      1728000    7286.6845       200400         6073 
40090000    1.0552745   -3.7545608      1728000    7288.5876       200450         6074 
40100000    1.0181161   -3.8109297      1728000    7290.4997       200500         6074 
40110000   0.98198655   -3.8830836      1728000    7292.3718       200550         6075 
40120000     1.017785   -3.7589092      1728000    7294.3441       200600         6075 
40130000    1.0392821   -3.9275597      1728000    7296.1978       200650         6076 
40140000    1.0300196   -3.7069243      1728000     7298.051       200700         6077 
40150000   0.99798707   -3.8827625      1728000    7300.2801       200750         6078 
40160000   0.97354917   -3.7903636      1728000    7302.1964       200800         6083 
40170000   0.98321103   -3.7729759      1728000    7304.1364       200850         6083 
40180000   0.99110728    -3.859665      1728000    7306.0018       200900         6085 
40190000    1.0411609   -3.8145255      1728000    7307.8286       200950         6086 
40200000   0.95512197   -3.7633254      1728000    7309.6861       201000         6086 
40210000     1.052525   -3.7621992      1728000    7311.5229       201050         6086 
40220000    1.0195911   -3.7472121      1728000    7313.3546       201100         6086 
40230000   0.97852325   -3.6775496      1728000    7315.2248       201150         6087 
40240000    1.0344375   -3.6776611      1728000    7317.0376       201200         6087 
40250000   0.95765101   -3.9108036      1728000    7318.8712       201250         6087 
40260000    1.0105804   -3.8931669      1728000    7320.7118       201300         6089 
40270000    1.0293752   -3.7401577      1728000    7322.5537       201350         6089 
40280000   0.98506578   -3.7374044      1728000    7324.3866       201400         6091 
40290000    1.0482041   -3.8586691      1728000    7326.2997       201450         6092 
40300000    1.0031225   -3.7061436      1728000    7328.1954       201500         6092 
40310000    1.0678435   -3.8128936      1728000    7330.1003       201550         6093 
40320000    0.9951134    -3.801331      1728000    7331.9076       201600         6093 
40330000   0.99360812   -3.8055697      1728000    7333.7714       201650         6094 
40340000    1.0169653   -3.8088216      1728000    7335.5784       201700         6096 
40350000    1.0264954    -3.792068      1728000    7337.4151       201750         6096 
40360000   0.99686541    -3.745772      1728000    7339.4917       201800         6096 
40370000    1.0510528   -3.9086199      1728000    7341.3031       201850         6096 
40380000    1.0317912   -3.7000756      1728000    7343.1277       201900         6096 
40390000    1.0351247   -3.7649871      1728000    7345.0159       201950         6097 
40400000   0.97823192    -3.815063      1728000    7346.9889       202000         6098 
40410000    1.0541204    -3.772685      1728000    7348.8448       202050         6100 
40420000   0.98730089   -3.8189705      1728000    7350.8725       202100         6101 
40430000    0.9870315   -3.7151959      1728000    7352.7604       202150         6101 
40440000   0.98306012   -3.8313801      1728000    7354.6144       202200         6102 
40450000    1.0459156   -3.7581567      1728000    7356.4653       202250         6103 
40460000   0.95000382   -3.8661421      1728000    7358.3141       202300         6103 
40470000    1.0288807    -3.772752      1728000    7360.1982       202350         6104 
40480000   0.97749805   -3.8537192      1728000    7362.0547       202400         6105 
40490000   0.97655727   -3.7276827      1728000    7363.9308       202450         6106 
40500000     1.050592   -3.8474546      1728000    7365.8848       202500         6106 
40510000    1.0033037    -3.844567      1728000    7367.7389       202550         6106 
40520000     1.034189   -3.9159127      1728000    7369.7848       202600         6108 
40530000   0.97404448   -3.8807411      1728000    7371.7268       202650         6109 
40540000    1.0133191    -3.950117      1728000    7373.7158       202700         6110 
40550000    1.0225111   -3.8169309      1728000    7375.6128       202750         6110 
40560000    1.0021099   -3.8277284      1728000    7377.5728       202800         6110 
40570000   0.97498915   -3.7621278      1728000    7379.4702       202850         6110 
40580000   0.98627155   -3.6879139      1728000    7381.3225       202900         6111 
40590000    1.0240702   -3.8512022      1728000    7383.2575       202950         6111 
40600000    1.0347174   -3.8081372      1728000    7385.1336       203000         6111 
40610000    1.0552952   -3.8776817      1728000    7386.9887       203050         6112 
40620000    1.0567923   -3.8859984      1728000    7388.9884       203100         6113 
40630000   0.97414017    -3.778477      1728000    7390.9617       203150         6113 
40640000    1.0392517   -3.8127038      1728000    7392.8268       203200         6114 
40650000    1.0177203    -3.826327      1728000    7394.7778       203250         6116 
40660000    1.0509953   -3.8511767      1728000    7396.6197       203300         6118 
40670000   0.98014512    -3.824428      1728000    7398.4848       203350         6118 
40680000   0.99395771   -3.8125763      1728000    7400.3679       203400         6120 
40690000   0.99077956   -3.8091814      1728000    7402.2043       203450         6123 
40700000   0.94955079   -3.9650527      1728000    7404.0502       203500         6124 
40710000   0.99996231   -3.7634911      1728000    7405.9453       203550         6124 
40720000   0.95716741   -3.8686289      1728000    7407.8613       203600         6124 
40730000    1.0665833   -3.8297598      1728000    7409.6958       203650         6126 
40740000    1.0009545   -3.7378865      1728000    7411.5464       203700         6127 
40750000    1.0197449   -3.7449467      1728000    7413.3898       203750         6128 
40760000    1.0026114   -3.7229535      1728000    7415.3087       203800         6129 
40770000    1.0114486   -3.7913664      1728000    7417.3211       203850         6132 
40780000     1.028191   -3.7519364      1728000    7419.2411       203900         6133 
40790000    1.0168398   -3.8234633      1728000    7421.1611       203950         6135 
40800000    1.0643104   -3.8168191      1728000    7423.0365       204000         6135 
40810000     1.017995   -3.8366387      1728000    7424.9336       204050         6138 
40820000   0.98780205   -3.8046565      1728000    7426.7957       204100         6138 
40830000   0.96457156    -3.950819      1728000    7428.6951       204150         6138 
40840000    1.0424599   -3.8642093      1728000    7430.5736       204200         6138 
40850000   0.98107019   -3.6813888      1728000    7432.4776       204250         6142 
40860000    0.9370844   -3.7709941      1728000    7434.3407       204300         6143 
40870000    1.0058228   -3.8251106      1728000    7436.1816       204350         6144 
40880000    1.0223749   -3.6756802      1728000    7438.0246       204400         6148 
40890000    1.0460717   -3.7795498      1728000    7439.8526       204450         6151 
40900000    1.0217553    -3.774971      1728000    7441.6901       204500         6152 
40910000    1.0230046   -3.8402514      1728000     7443.514       204550         6154 
40920000   0.97355234   -3.8444774      1728000    7445.3486       204600         6155 
40930000    1.0558124    -3.806011      1728000    7447.1767       204650         6155 
40940000     1.038341   -3.7338084      1728000    7449.0233       204700         6155 
40950000    1.0033937   -3.8646221      1728000    7450.8368       204750         6155 
40960000   0.97701368   -3.8151501      1728000     7452.669       204800         6155 
40970000     1.062039   -3.8395926      1728000    7454.5086       204850         6155 
40980000    1.0111844   -3.8607399      1728000    7456.3476       204900         6155 
40990000    1.0182722   -3.8923942      1728000    7458.1796       204950         6156 
41000000   0.91732041   -3.7635258      1728000    7460.0546       205000         6157 
41010000   0.99760536   -3.7379095      1728000    7461.8956       205050         6158 
41020000   0.98677704   -3.7058146      1728000    7463.7346       205100         6159 
41030000    1.0262909   -3.8445399      1728000    7465.5814       205150         6159 
41040000    1.0698469   -4.0135141      1728000    7467.4084       205200         6160 
41050000   0.94377178   -3.8416615      1728000    7469.2444       205250         6160 
41060000   0.93402868   -3.7609764      1728000    7471.0855       205300         6160 
41070000    1.0432307   -3.8734087      1728000    7472.9242       205350         6162 
41080000   0.93861834   -3.8148135      1728000    7474.8202       205400         6162 
41090000   0.97049657   -3.8369573      1728000    7476.7042       205450         6163 
41100000     1.016661    -3.796785      1728000    7478.5875       205500         6163 
41110000   0.95791333   -3.8378112      1728000     7480.555       205550         6164 
41120000   0.99177767   -3.8172822      1728000    7482.4385       205600         6164 
41130000    1.0290078   -3.8658503      1728000    7484.4136       205650         6164 
41140000    1.0862111   -3.8150753      1728000    7486.2797       205700         6166 
41150000    1.0325984   -3.9191015      1728000    7488.1165       205750         6167 
41160000    1.0297452   -3.7560019      1728000    7489.9696       205800         6167 
41170000   0.98074205   -3.7880848      1728000    7491.8466       205850         6167 
41180000   0.99568425    -3.853185      1728000    7493.8495       205900         6168 
41190000    1.0663651   -3.7923676      1728000    7495.8685       205950         6168 
41200000   0.98141072    -3.736582      1728000    7497.7458       206000         6168 
41210000    1.0710643   -3.8465592      1728000    7499.6028       206050         6168 
41220000   0.96662473   -3.7475303      1728000    7501.4624       206100         6168 
41230000   0.95541508   -3.8473581      1728000    7503.2749       206150         6169 
41240000     1.010825   -3.8469167      1728000    7505.1144       206200         6172 
41250000    1.0186193   -3.7677354      1728000    7506.9402       206250         6173 
41260000    1.0397978   -3.8840327      1728000    7508.7875       206300         6174 
41270000   0.99610372   -3.8397949      1728000    7510.6083       206350         6175 
41280000    1.0287748   -3.9041417      1728000    7512.4325       206400         6176 
41290000    1.0001902   -3.9172696      1728000    7514.2607       206450         6178 
41300000   0.97347651     -3.91795      1728000    7516.0962       206500         6178 
41310000    1.0445089   -3.7861326      1728000    7517.9126       206550         6179 
41320000    1.0091085   -3.8889464      1728000     7519.748       206600         6179 
41330000   0.97557765    -3.730912      1728000    7521.5704       206650         6181 
41340000    1.0350163   -3.8919714      1728000    7523.4065       206700         6183 
41350000   0.99277682    -3.857454      1728000    7525.2265       206750         6183 
41360000     1.025362   -3.9206769      1728000    7527.0663       206800         6183 
41370000   0.99235266   -3.8308583      1728000    7528.9543       206850         6187 
41380000   0.98266691   -3.8364718      1728000    7530.8963       206900         6187 
41390000   0.93472945   -3.8041704      1728000    7532.8263       206950         6187 
41400000    1.0232459   -3.8154436      1728000    7534.8253       207000         6189 
41410000    1.0406796   -3.8527761      1728000    7536.6964       207050         6189 
41420000   0.97263712   -3.8569125      1728000    7538.6824       207100         6189 
41430000    1.0594782   -3.8512157      1728000    7540.5648       207150         6190 
41440000    1.0433555   -4.0220533      1728000    7542.4743       207200         6190 
41450000    1.0465127   -3.8234585      1728000    7544.5602       207250         6190 
41460000   0.98303063   -3.8754682      1728000    7546.4722       207300         6190 
41470000   0.94766225   -3.8604081      1728000    7548.4192       207350         6191 
41480000   0.97927008   -3.8192199      1728000    7550.3452       207400         6191 
41490000   0.98138294    -3.899751      1728000    7552.2453       207450         6191 
41500000    1.0670739   -3.8264647      1728000    7554.1643       207500         6191 
41510000    1.0461251   -3.8129213      1728000    7556.1318       207550         6192 
41520000    1.0318323   -3.7901879      1728000    7558.0268       207600         6192 
41530000   0.99470324   -3.8278594      1728000    7559.9109       207650         6193 
41540000   0.99059444   -3.8551858      1728000     7561.804       207700         6193 
41550000    1.0166329    -3.963314      1728000    7563.6881       207750         6193 
41560000    1.0200206   -3.8651459      1728000    7565.6241       207800         6193 
41570000    1.0228683   -3.7750537      1728000    7567.5192       207850         6194 
41580000   0.97999586   -3.8558141      1728000    7569.4612       207900         6194 
41590000    1.0041002   -3.7495413      1728000    7571.3843       207950         6194 
41600000    1.0267633   -3.8959935      1728000    7573.4102       208000         6194 
41610000    1.0101826   -3.8886934      1728000    7575.3592       208050         6194 
41620000   0.98824222   -3.9494724      1728000    7577.3082       208100         6194 
41630000   0.95881653   -3.9239186      1728000    7579.2043       208150         6194 
41640000    1.0216754   -3.9118855      1728000    7581.1314       208200         6194 
41650000   0.97102799   -3.7033769      1728000    7583.0397       208250         6195 
41660000     1.029642   -3.9249455      1728000    7584.9568       208300         6196 
41670000    1.0151877   -3.9403833      1728000    7586.8648       208350         6196 
41680000    1.0680728   -3.9011242      1728000    7588.7889       208400         6197 
41690000   0.94202533   -3.7651803      1728000    7590.6539       208450         6197 
41700000     1.008778   -3.7836633      1728000    7592.6009       208500         6197 
41710000    1.0347775   -3.7989324      1728000    7594.6049       208550         6198 
41720000    0.9945045   -3.8609401      1728000    7596.4721       208600         6199 
41730000     1.018448   -3.8862768      1728000     7598.324       208650         6199 
41740000   0.99353565   -3.7235566      1728000     7600.319       208700         6199 
41750000    1.0285516   -3.9650955      1728000    7602.2063       208750         6199 
41760000    1.1314218   -3.8694732      1728000    7604.0523       208800         6199 
41770000    1.0074629   -3.8766974      1728000    7605.8869       208850         6199 
41780000    1.0856754   -3.7022023      1728000    7607.7313       208900         6199 
41790000    1.0161014   -3.8995518      1728000    7609.6003       208950         6199 
41800000    1.0382502   -3.7747781      1728000    7611.5315       209000         6200 
41810000    0.9779966   -3.8791564      1728000    7613.3692       209050         6201 
41820000    1.0202834   -3.9399835      1728000    7615.2204       209100         6202 
41830000    1.0453076   -3.7148506      1728000    7617.1264       209150         6203 
41840000    1.0042237   -3.8107191      1728000    7618.9894       209200         6204 
41850000    1.0619963   -3.7661216      1728000    7620.8392       209250         6204 
41860000     1.054998   -3.7917805      1728000    7622.7189       209300         6206 
41870000   0.97476592   -3.8230512      1728000    7624.8515       209350         6206 
41880000   0.97500983   -3.8439713      1728000    7626.7825       209400         6207 
41890000    1.0026991   -3.5933207      1728000    7628.6297       209450         6207 
41900000    1.0093955   -3.9232368      1728000    7630.4977       209500         6207 
41910000   0.99737991    -3.843657      1728000    7632.3719       209550         6208 
41920000    1.0606056   -3.8591657      1728000     7634.272       209600         6208 
41930000     1.003218   -3.7402454      1728000    7636.1175       209650         6210 
41940000     1.021734   -3.8546971      1728000    7638.0505       209700         6211 
41950000    1.0731907   -3.9986491      1728000    7639.9962       209750         6212 
41960000     1.050564   -3.7680634      1728000    7641.8943       209800         6213 
41970000    1.0561397   -3.8153413      1728000    7643.7285       209850         6213 
41980000    1.0424403   -3.8215438      1728000    7645.5586       209900         6213 
41990000   0.92814244   -3.8035564      1728000    7647.3713       209950         6213 
42000000   0.98875198   -3.9309626      1728000    7649.2194       210000         6214 
42010000    1.1382924   -3.7721024      1728000    7651.0624       210050         6214 
42020000   0.96640104   -3.8084491      1728000    7652.9364       210100         6215 
42030000     1.080649   -3.8795205      1728000    7654.7732       210150         6215 
42040000    1.0542255   -3.8264709      1728000    7656.6023       210200         6217 
42050000   0.97456596   -3.8807204      1728000    7658.4315       210250         6218 
42060000     1.021337   -3.7972341      1728000    7660.2438       210300         6218 
42070000    0.9613683   -3.9032784      1728000    7662.0742       210350         6219 
42080000   0.94127247   -3.9576247      1728000    7663.9182       210400         6220 
42090000    1.0234568   -3.8304507      1728000    7665.7603       210450         6220 
42100000   0.97783086   -3.9208169      1728000    7667.6033       210500         6220 
42110000    1.0163094   -3.9647948      1728000    7669.4897       210550         6220 
42120000   0.97698661   -3.8370982      1728000    7671.3798       210600         6220 
42130000   0.97533754    -3.951941      1728000    7673.2269       210650         6220 
42140000   0.97567218   -3.7983071      1728000    7675.1175       210700         6220 
42150000    1.0986464   -3.8981785      1728000    7676.9596       210750         6221 
42160000   0.96386149   -3.8561681      1728000       7678.8       210800         6221 
42170000   0.97173452   -3.9694148      1728000    7680.6473       210850         6221 
42180000    1.0002354   -3.8041002      1728000    7682.4741       210900         6221 
42190000   0.97117028   -3.8774539      1728000    7684.3725       210950         6222 
42200000   0.91452961   -3.8623005      1728000    7686.2486       211000         6222 
42210000   0.96425843    -3.896541      1728000    7688.0993       211050         6222 
42220000    1.0522209   -3.7044188      1728000    7689.9472       211100         6222 
42230000     1.016731   -3.9661284      1728000    7691.8071       211150         6222 
42240000     1.062763   -3.8353157      1728000    7693.7019       211200         6222 
42250000    1.0338262   -3.9945478      1728000    7695.5273       211250         6223 
42260000    1.0251028   -3.7985453      1728000    7697.3726       211300         6223 
42270000    1.0127359   -3.7948658      1728000    7699.2221       211350         6223 
42280000    1.0005279   -3.7690903      1728000    7701.0402       211400         6223 
42290000   0.95422345   -3.7808851      1728000    7702.8539       211450         6224 
42300000     1.002564   -3.8746443      1728000    7704.7285       211500         6226 
42310000   0.97604568   -3.9290513      1728000    7706.6305       211550         6226 
42320000   0.95390828    -3.890354      1728000     7708.497       211600         6227 
42330000    1.0171849   -3.7454837      1728000    7710.4022       211650         6227 
42340000    1.0356056   -3.8058671      1728000    7712.2952       211700         6230 
42350000   0.97299037   -3.7687801      1728000    7714.1877       211750         6234 
42360000   0.92416203    -3.904002      1728000    7716.0543       211800         6235 
42370000    1.0063868   -3.7865736      1728000     7717.933       211850         6237 
42380000    1.0651952   -3.7811359      1728000     7719.765       211900         6238 
42390000     1.014692   -3.8649393      1728000    7721.6372       211950         6240 
42400000    1.0485965   -3.6556126      1728000    7723.5401       212000         6240 
42410000    1.0879577   -3.6832863      1728000    7725.3752       212050         6242 
42420000   0.94910916   -3.8009078      1728000    7727.2192       212100         6242 
42430000   0.98873785   -3.7593409      1728000    7729.2231       212150         6243 
42440000    1.0364766   -3.8341864      1728000    7731.1521       212200         6245 
42450000    1.0498328   -3.8006172      1728000    7733.0642       212250         6246 
42460000   0.93182124   -3.8809987      1728000     7734.927       212300         6247 
42470000    1.0459579   -3.7894542      1728000    7736.7641       212350         6247 
42480000    1.0254462   -3.9153767      1728000      7738.61       212400         6248 
42490000     1.012067   -3.7264922      1728000    7740.4392       212450         6248 
42500000    1.0736266     -3.87926      1728000     7742.281       212500         6248 
42510000     1.025458   -3.6305346      1728000    7744.1283       212550         6249 
42520000    1.0539331   -3.7871982      1728000    7745.9648       212600         6249 
42530000    1.0194493   -3.7720293      1728000     7747.835       212650         6249 
42540000    0.9562921   -3.7649583      1728000    7749.7331       212700         6249 
42550000    1.0825394    -3.909003      1728000    7751.5971       212750         6249 
42560000    1.0023871   -3.7205989      1728000    7753.5194       212800         6249 
42570000    1.0341391    -3.809637      1728000     7755.351       212850         6249 
42580000    1.0120795   -3.8195587      1728000    7757.1564       212900         6251 
42590000    1.0204007   -3.8275983      1728000    7759.0061       212950         6251 
42600000    1.0085858   -3.8757981      1728000    7760.8491       213000         6252 
42610000   0.99793748   -3.9319023      1728000     7762.672       213050         6253 
42620000    0.9433622   -3.9468915      1728000    7764.5011       213100         6253 
42630000   0.96786036   -3.6166606      1728000    7766.3242       213150         6253 
42640000    1.0565888   -3.7869584      1728000    7768.1368       213200         6254 
42650000    1.0070388   -3.7572615      1728000    7769.9482       213250         6254 
42660000    0.9669784   -3.8638677      1728000     7771.768       213300         6256 
42670000   0.97431614   -3.8427267      1728000     7773.584       213350         6257 
42680000    1.0048492   -3.6831454      1728000     7775.395       213400         6258 
42690000    1.0665578    -3.863049      1728000    7777.2058       213450         6258 
42700000   0.96940614   -3.7788099      1728000    7779.0361       213500         6258 
42710000   0.97564706   -3.6918131      1728000    7780.8641       213550         6259 
42720000    1.0100298   -3.7300435      1728000    7782.6749       213600         6260 
42730000    1.0522508   -3.8529518      1728000    7784.4741       213650         6262 
42740000    1.0672416    -3.832345      1728000     7786.303       213700         6265 
42750000   0.95667072   -3.9635908      1728000    7788.3306       213750         6267 
42760000   0.98067481   -3.8678586      1728000      7790.15       213800         6267 
42770000    1.0389895   -3.8423634      1728000    7791.9572       213850         6267 
42780000   0.94998007   -3.9712452      1728000    7793.7744       213900         6267 
42790000    1.0760979   -3.8343168      1728000    7795.5672       213950         6267 
42800000    1.0609385    -3.777535      1728000    7797.3749       214000         6268 
42810000   0.97753477   -3.8325867      1728000    7799.1871       214050         6270 
42820000    1.0025717   -3.9082335      1728000    7801.0001       214100         6270 
42830000     1.026724   -3.8377214      1728000    7802.8021       214150         6270 
42840000   0.98068419   -3.7714691      1728000     7804.608       214200         6270 
42850000    1.0303952   -3.8773782      1728000    7806.4041       214250         6272 
42860000    0.9800947   -3.7902907      1728000    7808.2221       214300         6273 
42870000    1.0548867   -3.7693397      1728000    7810.0369       214350         6274 
42880000   0.95110539   -3.7333113      1728000    7811.8407       214400         6274 
42890000    1.0361221   -3.8688645      1728000     7813.679       214450         6276 
42900000    1.0229732   -3.6348551      1728000    7815.5608       214500         6277 
42910000     1.065974   -3.7587766      1728000     7817.364       214550         6279 
42920000    1.0064616   -3.6887344      1728000    7819.1658       214600         6283 
42930000   0.96305756   -3.6526206      1728000     7820.986       214650         6283 
42940000    0.9842241   -3.7023908      1728000     7822.777       214700         6283 
42950000   0.99506162   -3.6423794      1728000     7824.573       214750         6286 
42960000    1.0085526   -3.6818318      1728000     7826.354       214800         6287 
42970000    1.0249181   -3.6856806      1728000     7828.122       214850         6290 
42980000    1.0640157   -3.5667161      1728000    7829.9111       214900         6292 
42990000    1.0205971   -3.6161632      1728000    7831.6901       214950         6292 
43000000    1.0186466   -3.9103659      1728000    7833.4981       215000         6296 
43010000   0.96078636   -3.7468643      1728000    7835.3224       215050         6299 
43020000     1.005569   -3.7979569      1728000     7837.116       215100         6300 
43030000   0.96837036   -3.6423847      1728000     7838.907       215150         6302 
43040000    1.0003159   -3.7962381      1728000    7840.7089       215200         6302 
43050000    1.0131913   -3.6249945      1728000    7842.5196       215250         6304 
43060000    1.0125852   -3.6757827      1728000     7844.327       215300         6304 
43070000   0.97124664    -3.613494      1728000    7846.1663       215350         6304 
43080000    1.0041194   -3.6582906      1728000     7847.967       215400         6306 
43090000    1.0352549   -3.7670825      1728000    7849.7724       215450         6308 
43100000   0.98666241   -3.7468972      1728000    7851.5828       215500         6311 
43110000    1.0642535   -3.8070367      1728000      7853.37       215550         6313 
43120000   0.98379415   -3.7468204      1728000    7855.1529       215600         6315 
43130000   0.98025121   -3.6454234      1728000     7856.938       215650         6318 
43140000   0.97452431   -3.6846119      1728000    7858.7328       215700         6320 
43150000    1.0233064   -3.7304303      1728000     7860.545       215750         6321 
43160000    1.0356904   -3.7789488      1728000    7862.3858       215800         6322 
43170000   0.99067986   -3.7955723      1728000    7864.1919       215850         6322 
43180000   0.98836886   -3.8208652      1728000    7865.9878       215900         6326 
43190000    1.0312177   -3.7369911      1728000     7867.778       215950         6326 
43200000    1.0008405   -3.7588523      1728000    7869.6509       216000         6327 
43210000   0.99585909   -3.8262105      1728000    7871.5407       216050         6327 
43220000   0.97247428   -3.6609375      1728000    7873.4727       216100         6327 
43230000    0.9927359   -3.6355419      1728000    7875.4576       216150         6327 
43240000    0.9919398   -3.7617442      1728000     7877.266       216200         6330 
43250000    1.0276905   -3.6959091      1728000    7879.1685       216250         6332 
43260000   0.98759786   -3.8879913      1728000    7881.0016       216300         6332 
43270000   0.95104884   -3.7510067      1728000    7882.8227       216350         6332 
43280000    1.0300225   -3.7487142      1728000    7884.6427       216400         6332 
43290000    0.9980288   -3.7913959      1728000      7886.52       216450         6334 
43300000   0.96810841   -3.7921795      1728000     7888.319       216500         6334 
43310000   0.91719791   -3.7136204      1728000    7890.1097       216550         6335 
43320000   0.96334834   -3.8181938      1728000     7891.919       216600         6335 
43330000   0.97973759   -3.8673488      1728000    7893.7127       216650         6336 
43340000    1.0213237   -3.8254271      1728000    7895.5257       216700         6338 
43350000   0.99683035   -3.7470545      1728000     7897.342       216750         6339 
43360000   0.92920138   -3.8792515      1728000      7899.19       216800         6339 
43370000    1.0405167   -3.7974373      1728000    7900.9868       216850         6340 
43380000   0.95778545   -3.8133603      1728000    7902.8139       216900         6340 
43390000    1.0570231   -3.8538525      1728000    7904.6009       216950         6341 
43400000    1.0799539   -3.6029281      1728000    7906.4209       217000         6342 
43410000   0.97234641   -3.7446981      1728000    7908.2048       217050         6344 
43420000    1.0452602   -3.6616338      1728000    7910.0239       217100         6346 
43430000    1.0202066   -3.6805667      1728000    7911.8107       217150         6348 
43440000    1.0227839   -3.6059604      1728000    7913.6335       217200         6348 
43450000   0.93757861   -3.6276107      1728000    7915.4797       217250         6349 
43460000    1.0323549   -3.7868404      1728000    7917.3029       217300         6349 
43470000    1.0162774   -3.6152302      1728000    7919.0997       217350         6350 
43480000    1.0495785    -3.723394      1728000    7921.0061       217400         6357 
43490000    1.0259249     -3.67422      1728000    7922.8449       217450         6358 
43500000   0.93347459   -3.6705909      1728000    7924.6888       217500         6359 
43510000   0.99141769   -3.6957499      1728000    7926.4708       217550         6360 
43520000   0.99055773   -3.6785272      1728000      7928.27       217600         6361 
43530000     1.010306   -3.6672678      1728000     7930.109       217650         6363 
43540000   0.99970275   -3.6850923      1728000    7931.9121       217700         6363 
43550000    1.0511565   -3.8943122      1728000    7933.7982       217750         6363 
43560000   0.99958691   -3.7087911      1728000    7935.6382       217800         6365 
43570000   0.94777442   -3.6595866      1728000    7937.4419       217850         6367 
43580000    1.0480512    -3.677209      1728000     7939.327       217900         6369 
43590000    1.0465826   -3.8156945      1728000    7941.1928       217950         6371 
43600000    1.0832904   -3.5958647      1728000    7943.0193       218000         6371 
43610000   0.99447062   -3.5929658      1728000    7944.8729       218050         6372 
43620000    1.0118621   -3.7221289      1728000    7946.7705       218100         6373 
43630000   0.98622017   -3.8172245      1728000    7948.6027       218150         6373 
43640000   0.95508758   -3.6690043      1728000     7950.416       218200         6374 
43650000     0.970628   -3.7392374      1728000    7952.2701       218250         6375 
43660000    1.0089713    -3.605235      1728000    7954.1104       218300         6376 
43670000   0.99045757    -3.823715      1728000    7955.9368       218350         6377 
43680000   0.99594961    -3.743697      1728000    7957.7686       218400         6377 
43690000   0.97990123   -3.7042169      1728000    7959.5787       218450         6378 
43700000   0.95406122    -3.669385      1728000    7961.4628       218500         6380 
43710000    1.0208574   -3.7014585      1728000    7963.2679       218550         6380 
43720000    0.9630252   -3.6670378      1728000    7965.0819       218600         6383 
43730000   0.97841028    -3.615271      1728000    7966.8698       218650         6384 
43740000   0.96753611   -3.7120781      1728000    7968.6429       218700         6386 
43750000   0.98844142   -3.7024247      1728000    7970.4086       218750         6387 
43760000    1.0076488   -3.6147818      1728000    7972.1788       218800         6391 
43770000    1.0416625   -3.6991405      1728000    7973.9699       218850         6393 
43780000     1.011426   -3.6059425      1728000    7975.8148       218900         6394 
43790000    1.0255246     -3.76446      1728000    7977.6503       218950         6395 
43800000    1.0312344   -3.6464007      1728000    7979.5358       219000         6397 
43810000   0.94510602   -3.7705645      1728000    7981.4139       219050         6399 
43820000    1.0111713   -3.7957982      1728000    7983.2491       219100         6401 
43830000   0.95544734     -3.71644      1728000    7985.0848       219150         6402 
43840000     1.011908   -3.8206703      1728000    7986.9519       219200         6402 
43850000   0.97764756   -3.8192058      1728000    7988.7936       219250         6402 
43860000    1.0217326   -3.7655488      1728000    7990.6148       219300         6403 
43870000   0.96379616   -3.8514715      1728000    7992.5944       219350         6403 
43880000   0.99737698   -3.7985956      1728000    7994.4599       219400         6403 
43890000    1.0039283   -3.7038665      1728000    7996.2671       219450         6404 
43900000   0.97383762   -3.7580264      1728000    7998.0918       219500         6405 
43910000   0.97192662   -3.7806194      1728000    7999.8945       219550         6408 
43920000    1.0394814   -3.7974113      1728000    8001.7167       219600         6408 
43930000    1.0022827   -3.8621197      1728000    8003.5925       219650         6410 
43940000   0.98015072   -3.7446794      1728000    8005.4236       219700         6411 
43950000    1.0594446   -3.8099922      1728000    8007.3507       219750         6411 
43960000   0.95897175   -3.8407313      1728000    8009.1437       219800         6411 
43970000    1.0377116   -3.8118628      1728000    8010.9427       219850         6412 
43980000   0.96489621   -3.9092649      1728000    8012.7567       219900         6412 
43990000    1.0365165   -3.7333569      1728000    8014.5567       219950         6413 
44000000    1.0208339   -3.8742638      1728000    8016.3704       220000         6414 
44010000    1.0433348   -3.7315951      1728000    8018.1898       220050         6415 
44020000    1.0416617   -3.8154369      1728000    8020.0657       220100         6415 
44030000    1.0128583    -3.737158      1728000    8021.8707       220150         6415 
44040000    1.0554835   -3.8003969      1728000     8024.011       220200         6415 
44050000   0.96707877   -3.6783518      1728000    8025.9338       220250         6416 
44060000     1.022651   -3.8559474      1728000    8027.8274       220300         6416 
44070000   0.96186644   -3.7470479      1728000    8029.6829       220350         6418 
44080000    1.0236683   -3.7055788      1728000    8031.5307       220400         6419 
44090000    1.0237589   -3.7876356      1728000    8033.3417       220450         6420 
44100000    1.0175254   -3.6834588      1728000    8035.1674       220500         6421 
44110000    1.0033039   -3.7916642      1728000    8037.0026       220550         6421 
44120000    1.0020897   -3.8326996      1728000    8038.8458       220600         6421 
44130000    1.0179726   -3.7407729      1728000    8040.6465       220650         6421 
44140000     1.034281   -3.8068421      1728000    8042.5547       220700         6421 
44150000   0.96227705   -3.7720705      1728000    8044.3947       220750         6421 
44160000   0.96425367    -3.804679      1728000    8046.2057       220800         6422 
44170000    1.0459598   -3.8194314      1728000    8048.0608       220850         6422 
44180000    1.0616588   -3.7889146      1728000    8049.8747       220900         6423 
44190000   0.97959798     -3.68573      1728000    8051.6667       220950         6423 
44200000     1.099707   -3.7578406      1728000    8053.4861       221000         6424 
44210000   0.99722436   -3.8624179      1728000     8055.337       221050         6424 
44220000    1.0161861   -3.7844855      1728000    8057.2281       221100         6424 
44230000   0.96784963   -3.7149283      1728000    8059.0944       221150         6425 
44240000    1.0109169   -3.6527918      1728000    8060.9807       221200         6426 
44250000    1.0038019   -3.7923923      1728000    8062.8627       221250         6427 
44260000     1.027987   -3.8111214      1728000    8064.7307       221300         6428 
44270000    1.0082039   -3.8723464      1728000    8066.5572       221350         6429 
44280000    0.9644636   -3.7738054      1728000    8068.4043       221400         6430 
44290000    1.0495864   -3.7305342      1728000    8070.2375       221450         6431 
44300000    1.0272223   -3.6814893      1728000    8072.1108       221500         6432 
44310000    0.9438942   -3.7992847      1728000    8073.9336       221550         6432 
44320000   0.98509573   -3.8404104      1728000    8075.7956       221600         6432 
44330000   0.94503932   -3.8211292      1728000    8077.6194       221650         6432 
44340000    1.0248113    -3.885919      1728000    8079.4576       221700         6433 
44350000   0.98106733   -3.8197388      1728000    8081.2866       221750         6434 
44360000    1.0262449   -3.8182407      1728000    8083.1404       221800         6434 
44370000   0.97245101   -3.6896397      1728000    8084.9836       221850         6434 
44380000    1.0198485   -3.8654056      1728000    8086.8527       221900         6435 
44390000    1.0181275     -3.82944      1728000    8088.6825       221950         6435 
44400000    0.9835878   -3.9726657      1728000    8090.5266       222000         6435 
44410000    1.0437542   -3.7250126      1728000    8092.3506       222050         6436 
44420000   0.97801266    -3.779788      1728000    8094.1915       222100         6436 
44430000    1.0699481   -3.9422829      1728000    8096.0036       222150         6436 
44440000    1.0227659   -3.7483845      1728000    8097.8357       222200         6438 
44450000    1.0147297   -3.7674315      1728000    8099.6466       222250         6438 
44460000     1.058676   -3.9570971      1728000    8101.4827       222300         6439 
44470000   0.98195744   -3.8603253      1728000    8103.3306       222350         6440 
44480000    1.0216122   -3.9085061      1728000    8105.1738       222400         6440 
44490000   0.99433924    -3.791157      1728000    8107.0065       222450         6440 
44500000    1.0259117   -3.6896634      1728000    8108.8534       222500         6440 
44510000   0.96629789    -3.809669      1728000    8110.6776       222550         6440 
44520000    0.9854808   -3.7837263      1728000    8112.4998       222600         6440 
44530000   0.97869443   -3.9024844      1728000     8114.489       222650         6440 
44540000    1.0230457   -3.8612998      1728000    8116.4479       222700         6441 
44550000   0.97485349   -3.8693954      1728000    8118.3362       222750         6441 
44560000    0.9537812    -3.783366      1728000    8120.2063       222800         6442 
44570000   0.98928722   -3.9566412      1728000    8122.0309       222850         6442 
44580000   0.99980314   -3.6745829      1728000     8123.878       222900         6442 
44590000   0.93307267    -3.869646      1728000     8125.853       222950         6442 
44600000   0.98250912   -3.8488936      1728000    8127.7145       223000         6442 
44610000    1.0150436   -3.8490444      1728000    8129.5745       223050         6443 
44620000   0.98123952   -3.8318816      1728000    8131.4065       223100         6444 
44630000    1.0311618   -3.7901872      1728000    8133.2325       223150         6447 
44640000    1.0213881   -3.7468088      1728000    8135.0805       223200         6447 
44650000    1.0158967     -3.81555      1728000    8136.8726       223250         6449 
44660000    0.9909956   -3.7094252      1728000    8138.6776       223300         6449 
44670000    1.0550879   -3.7641225      1728000    8140.4974       223350         6449 
44680000    1.0548748   -3.8522102      1728000    8142.3995       223400         6450 
44690000     1.006626   -3.8071057      1728000    8144.2425       223450         6450 
44700000   0.97617638   -3.6647329      1728000    8146.0896       223500         6450 
44710000   0.94144157   -3.7561241      1728000    8147.9375       223550         6451 
44720000   0.98867564    -3.758158      1728000    8149.7706       223600         6451 
44730000    1.0359256   -3.8222339      1728000    8151.6045       223650         6451 
44740000   0.95537026   -3.8734903      1728000    8153.5026       223700         6452 
44750000   0.98412394   -3.7348377      1728000    8155.3466       223750         6453 
44760000   0.98958766   -3.8846039      1728000    8157.1835       223800         6454 
44770000   0.93431142     -3.64786      1728000    8158.9943       223850         6455 
44780000   0.99424557   -3.7803574      1728000    8160.8166       223900         6456 
44790000     1.052328   -3.7623368      1728000    8162.6596       223950         6457 
44800000   0.96777895   -3.8051778      1728000    8164.4764       224000         6457 
44810000    0.9909264   -3.7888826      1728000    8166.3201       224050         6459 
44820000   0.96243348   -3.8180015      1728000    8168.1855       224100         6459 
44830000   0.99598132   -3.7999325      1728000    8170.0326       224150         6463 
44840000   0.98668411   -3.7797358      1728000    8171.9453       224200         6465 
44850000    1.0262037   -3.8198214      1728000    8173.8244       224250         6465 
44860000    1.0096286   -3.8498073      1728000    8175.7044       224300         6466 
44870000   0.93209923   -3.8505649      1728000    8177.8237       224350         6466 
44880000     1.006783   -3.6742083      1728000    8179.6828       224400         6466 
44890000    1.0675235   -3.8266004      1728000    8181.5295       224450         6466 
44900000    1.0099377    -3.726589      1728000    8183.3616       224500         6466 
44910000   0.97849515   -3.8234305      1728000    8185.1643       224550         6466 
44920000   0.96782494   -3.9146606      1728000    8187.4095       224600         6466 
44930000    1.0711633   -3.7858613      1728000    8189.2194       224650         6466 
44940000    1.0094679   -3.9123772      1728000    8191.0566       224700         6466 
44950000    1.0059427   -3.8542526      1728000    8192.8637       224750         6467 
44960000    1.0097149   -3.7781877      1728000    8194.7127       224800         6467 
44970000    1.0018095   -3.7947425      1728000    8196.5255       224850         6467 
44980000    1.0501044   -3.8529516      1728000    8198.3404       224900         6469 
44990000   0.99472265   -3.7287041      1728000    8200.1633       224950         6470 
45000000    1.0195324   -3.8149684      1728000    8201.9873       225000         6471 
45010000   0.98605425   -3.8129818      1728000    8203.7924       225050         6473 
45020000    1.0123925   -3.8274332      1728000    8205.6202       225100         6474 
45030000   0.97473975   -3.7458313      1728000    8207.4573       225150         6474 
45040000   0.96010382   -3.9003424      1728000    8209.3294       225200         6475 
45050000   0.99888279   -3.9492233      1728000    8211.1956       225250         6479 
45060000   0.98882557   -3.7219109      1728000    8213.0365       225300         6479 
45070000     1.013804   -3.8537547      1728000    8214.8665       225350         6480 
45080000    1.0138482   -3.7225386      1728000    8216.6804       225400         6482 
45090000   0.98640658   -3.8063907      1728000    8218.4833       225450         6483 
45100000   0.96755018   -3.8585408      1728000    8220.3694       225500         6483 
45110000   0.99066426   -3.7659082      1728000    8222.2524       225550         6485 
45120000    1.0677043   -3.8244266      1728000     8224.082       225600         6486 
45130000   0.94523318   -3.8514658      1728000    8225.9425       225650         6486 
45140000    1.0567543   -3.9448017      1728000     8227.793       225700         6486 
45150000    1.0724287   -3.7989665      1728000    8229.6464       225750         6486 
45160000    1.0413207   -3.7771406      1728000    8231.4723       225800         6486 
45170000   0.93139048   -3.9173531      1728000    8233.3765       225850         6487 
45180000    1.0331129   -3.8464659      1728000     8235.239       225900         6487 
45190000    1.0002657   -3.8366955      1728000    8237.1046       225950         6487 
45200000    0.9859698   -3.8403303      1728000    8238.9383       226000         6487 
45210000   0.99669125   -3.9429757      1728000    8240.7368       226050         6487 
45220000    1.0676562   -3.8542615      1728000    8242.5505       226100         6488 
45230000    1.0002277   -3.9098344      1728000    8244.3666       226150         6488 
45240000    1.0293637   -3.7439419      1728000    8246.2107       226200         6488 
45250000    1.0487187   -3.8840197      1728000    8248.0207       226250         6488 
45260000   0.97734862   -3.8961581      1728000    8249.8382       226300         6489 
45270000    1.0015957   -3.8288909      1728000    8251.6754       226350         6490 
45280000    1.0253683   -3.7581988      1728000    8253.4941       226400         6490 
45290000    1.0320168   -3.7082897      1728000    8255.2884       226450         6490 
45300000   0.99305058   -3.8318486      1728000    8257.1414       226500         6490 
45310000    1.0113719   -3.7922376      1728000    8258.9785       226550         6490 
45320000    1.0459896   -3.8688378      1728000    8260.8032       226600         6490 
45330000   0.98245778   -3.8733634      1728000    8262.6184       226650         6490 
45340000   0.95166471   -3.8588157      1728000    8264.4343       226700         6490 
45350000   0.95429787   -3.8022231      1728000    8266.2444       226750         6490 
45360000   0.97069226   -3.6999521      1728000    8268.0493       226800         6491 
45370000    1.0423989    -3.815173      1728000    8269.8581       226850         6491 
45380000   0.93731242   -3.7705229      1728000    8271.6634       226900         6491 
45390000    1.0798789   -3.7981088      1728000    8273.4733       226950         6491 
45400000    1.0051061   -3.7548678      1728000    8275.2943       227000         6491 
45410000    1.0502806   -3.8074733      1728000    8277.0963       227050         6492 
45420000   0.99335694   -3.8982813      1728000    8278.9254       227100         6493 
45430000   0.95709278   -3.7839926      1728000    8280.7324       227150         6494 
45440000   0.99008988   -3.8140579      1728000    8282.5304       227200         6494 
45450000    1.0264521   -3.8192625      1728000    8284.3833       227250         6494 
45460000   0.98781133   -3.9866529      1728000    8286.2354       227300         6494 
45470000   0.90321979   -3.8050577      1728000    8288.0614       227350         6494 
45480000    1.0188081   -3.8566989      1728000    8289.9013       227400         6494 
45490000    0.9810899   -3.7717894      1728000    8291.7253       227450         6495 
45500000    1.0269218   -3.7300713      1728000    8293.5447       227500         6495 
45510000   0.96060282   -3.8448235      1728000    8295.3577       227550         6495 
45520000   0.98994788   -3.8555166      1728000    8297.1654       227600         6496 
45530000    1.0240269   -3.8124064      1728000    8298.9813       227650         6497 
45540000    1.0221446   -3.8326414      1728000    8300.7953       227700         6499 
45550000   0.98173456   -3.7257177      1728000    8302.6546       227750         6499 
45560000   0.98461939   -3.8540925      1728000    8304.5529       227800         6499 
45570000    1.0280396    -3.695269      1728000    8306.4082       227850         6500 
45580000   0.98660886   -3.8404321      1728000    8308.2361       227900         6500 
45590000    1.0102698   -3.8462688      1728000    8310.1073       227950         6500 
45600000   0.96091915   -4.0088779      1728000    8312.0052       228000         6501 
45610000   0.99575395   -3.8251883      1728000    8313.8751       228050         6501 
45620000   0.99495702   -3.8509689      1728000    8315.7243       228100         6501 
45630000   0.97876006   -3.8568186      1728000    8317.5713       228150         6501 
45640000   0.99736329   -3.8066211      1728000    8319.4126       228200         6503 
45650000   0.97673859   -3.8886331      1728000    8321.2352       228250         6505 
45660000   0.97605384    -3.962995      1728000     8323.112       228300         6506 
45670000   0.99220859   -3.7800925      1728000    8324.9453       228350         6506 
45680000   0.99220374   -3.8851028      1728000    8326.8151       228400         6506 
45690000    1.0333043   -3.7923757      1728000    8328.6912       228450         6506 
45700000   0.98890893   -3.8454128      1728000    8330.6109       228500         6506 
45710000    1.0111704   -3.8451229      1728000     8332.499       228550         6506 
45720000     1.000775   -3.8912371      1728000    8334.3809       228600         6508 
45730000    1.0601336   -3.7684788      1728000    8336.2151       228650         6509 
45740000     0.993257   -3.8178645      1728000    8338.0242       228700         6510 
45750000   0.96101743   -3.7087546      1728000    8339.8392       228750         6510 
45760000    1.0277448   -3.6864674      1728000    8341.6412       228800         6510 
45770000   0.99106663   -3.7509599      1728000    8343.4642       228850         6510 
45780000    1.0329545   -3.9572528      1728000    8345.2932       228900         6510 
45790000     1.068504   -3.8184605      1728000    8347.1379       228950         6510 
45800000    1.0046968   -3.8235896      1728000    8348.9943       229000         6510 
45810000   0.99954774   -3.8069099      1728000    8350.8052       229050         6511 
45820000   0.92445017   -3.6404783      1728000     8352.641       229100         6513 
45830000    1.0161908   -3.7786657      1728000    8354.4981       229150         6518 
45840000   0.98919871   -3.8416021      1728000    8356.3214       229200         6519 
45850000   0.95072702   -3.7987109      1728000    8358.1213       229250         6520 
45860000    1.0466972   -3.7290277      1728000    8359.9442       229300         6521 
45870000   0.98602888   -3.8277998      1728000    8361.7631       229350         6522 
45880000   0.93749512   -3.7397918      1728000    8363.6051       229400         6524 
45890000   0.97274439   -3.8284341      1728000    8365.4132       229450         6526 
45900000   0.97096486   -3.6967572      1728000    8367.2442       229500         6528 
45910000    0.9979898   -3.8134979      1728000    8369.0601       229550         6529 
45920000    0.9838599   -3.9356571      1728000    8370.8932       229600         6529 
45930000    1.0231199   -3.7984354      1728000    8372.7391       229650         6530 
45940000    0.9749938   -3.7528748      1728000    8374.5834       229700         6531 
45950000   0.93133437   -3.7582232      1728000    8376.4162       229750         6531 
45960000    1.0456095   -3.7526349      1728000      8378.23       229800         6531 
45970000   0.98513431   -3.7418165      1728000      8380.07       229850         6532 
45980000   0.99912834   -3.9153179      1728000    8381.8882       229900         6532 
45990000   0.98443653   -3.7985238      1728000    8383.7092       229950         6534 
46000000   0.96938833   -3.8595675      1728000    8385.5549       230000         6535 
46010000   0.95322451   -3.6765643      1728000    8387.3693       230050         6535 
46020000    1.0128648   -3.7719171      1728000    8389.2111       230100         6536 
46030000   0.91224894   -3.8221926      1728000    8391.0532       230150         6536 
46040000   0.97147594   -3.7972575      1728000    8392.9009       230200         6537 
46050000   0.98261838    -3.742444      1728000    8394.7753       230250         6537 
46060000    1.0635093   -3.8082938      1728000    8396.9094       230300         6538 
46070000   0.94133652   -3.9172819      1728000    8398.8106       230350         6538 
46080000   0.94370043   -3.8490487      1728000    8400.7056       230400         6538 
46090000   0.96217249   -3.8519387      1728000     8402.566       230450         6540 
46100000   0.97760536   -3.7420402      1728000     8404.437       230500         6542 
46110000   0.99516803   -3.7069077      1728000    8406.3092       230550         6542 
46120000   0.99424235   -3.8453733      1728000    8408.1734       230600         6542 
46130000    1.0398154   -3.6375559      1728000    8410.0894       230650         6543 
46140000   0.98293694   -3.8047208      1728000    8411.9239       230700         6543 
46150000   0.99031239   -3.8074766      1728000    8413.7694       230750         6544 
46160000    1.0393878   -3.6907785      1728000    8415.6425       230800         6545 
46170000     0.993341   -3.7198835      1728000    8417.4659       230850         6547 
46180000    1.0014605   -3.7572666      1728000    8419.2839       230900         6548 
46190000   0.98084534   -3.6597106      1728000    8421.1161       230950         6550 
46200000    1.0297457   -3.7868361      1728000    8423.0512       231000         6552 
46210000   0.97243133   -3.7956396      1728000    8424.9111       231050         6552 
46220000    1.0645191   -3.8327546      1728000    8426.8252       231100         6552 
46230000    1.0155152   -3.8153533      1728000    8428.7464       231150         6552 
46240000    1.0115259   -3.6610192      1728000    8430.6169       231200         6556 
46250000   0.99991971   -3.6970455      1728000    8432.4912       231250         6556 
46260000   0.95569545   -3.7182046      1728000    8434.3622       231300         6558 
46270000    1.0306497   -3.7938941      1728000    8436.2555       231350         6558 
46280000   0.97546993   -3.7366237      1728000     8438.131       231400         6558 
46290000   0.92514194   -3.7229971      1728000     8440.014       231450         6559 
46300000    1.0281755   -3.7760317      1728000    8441.9103       231500         6559 
46310000    1.0058005   -3.7859585      1728000    8443.7726       231550         6559 
46320000   0.98174184   -3.7745784      1728000    8445.6041       231600         6560 
46330000    0.9486786    -3.782496      1728000    8447.4259       231650         6562 
46340000   0.99616697   -3.7362292      1728000    8449.3451       231700         6562 
46350000   0.94958664   -3.7000206      1728000    8451.1712       231750         6564 
46360000    1.0049572   -3.5821982      1728000    8453.0153       231800         6564 
46370000    1.0451835   -3.8638881      1728000    8454.8564       231850         6565 
46380000    1.0193419   -3.6864414      1728000    8456.7705       231900         6565 
46390000   0.96674911   -3.8159052      1728000    8458.6634       231950         6565 
46400000   0.96252582   -3.8508818      1728000    8460.5147       232000         6567 
46410000    1.0325312   -3.8074116      1728000     8462.396       232050         6567 
46420000    1.0102657   -3.8176378      1728000    8464.3041       232100         6568 
46430000   0.94988075   -3.7881907      1728000    8466.1359       232150         6569 
46440000   0.96450907   -3.6243055      1728000    8467.9979       232200         6569 
46450000    0.9951399   -3.6897253      1728000    8469.9889       232250         6572 
46460000   0.99325494   -3.7082079      1728000    8471.9147       232300         6573 
46470000    1.0222429   -3.7511652      1728000    8473.8049       232350         6576 
46480000    1.1328214   -3.8493917      1728000    8475.7469       232400         6576 
46490000    1.0552029   -3.8366507      1728000      8477.63       232450         6576 
46500000   0.99761985   -3.8381727      1728000    8479.5302       232500         6578 
46510000   0.98630369   -3.7521026      1728000    8481.5112       232550         6578 
46520000    1.0233521   -3.5401759      1728000    8483.4223       232600         6578 
46530000    1.0420723    -3.819815      1728000    8485.2573       232650         6579 
46540000    1.0203807    -3.799987      1728000    8487.0949       232700         6581 
46550000   0.96495996   -3.8900702      1728000    8488.9489       232750         6582 
46560000    1.0290699   -3.8038407      1728000     8490.906       232800         6583 
46570000   0.99786071   -3.8355816      1728000     8492.999       232850         6583 
46580000    1.0851945   -3.8517022      1728000     8494.936       232900         6585 
46590000   0.90616357   -3.8147495      1728000    8496.8979       232950         6586 
46600000   0.98881249   -3.7514686      1728000    8498.8189       233000         6587 
46610000   0.88486328    -3.722871      1728000    8500.7119       233050         6587 
46620000   0.94754002   -3.7939306      1728000     8502.588       233100         6588 
46630000   0.94794079   -3.8747693      1728000     8504.536       233150         6590 
46640000   0.95222933   -3.8778275      1728000     8506.485       233200         6591 
46650000    0.9990109   -3.7336964      1728000     8508.415       233250         6591 
46660000    1.0388751   -3.7763562      1728000     8510.347       233300         6592 
46670000   0.99648268   -3.8382676      1728000    8512.2231       233350         6593 
46680000   0.98342283   -3.8498768      1728000    8514.1112       233400         6595 
46690000   0.99302709   -3.6697213      1728000    8516.0063       233450         6595 
46700000   0.97500129   -3.7848601      1728000    8517.9193       233500         6596 
46710000    1.0501379   -3.8640074      1728000    8519.8343       233550         6598 
46720000   0.99340751   -3.8350394      1728000    8521.7903       233600         6602 
46730000    1.0334433   -3.8389748      1728000    8523.7333       233650         6602 
46740000   0.99708138    -3.837932      1728000    8525.6544       233700         6602 
46750000    1.0200648   -3.8962874      1728000    8527.6303       233750         6603 
46760000   0.95622474   -3.8239477      1728000    8529.7332       233800         6603 
46770000    1.0645309   -3.8199779      1728000    8531.6752       233850         6605 
46780000    1.0628465   -3.8064746      1728000    8533.6225       233900         6608 
46790000     1.007045   -3.9136651      1728000    8535.5071       233950         6609 
46800000    1.0176992   -3.8912635      1728000    8537.4112       234000         6609 
46810000    1.0350011   -3.8930419      1728000    8539.3092       234050         6610 
46820000    1.0210263   -3.8237805      1728000    8541.1943       234100         6610 
46830000   0.99192356   -3.8069399      1728000    8543.1064       234150         6610 
46840000   0.97051648   -3.7908443      1728000    8545.0155       234200         6610 
46850000    1.0432333   -3.9548124      1728000    8546.9705       234250         6610 
46860000   0.94914805    -3.803071      1728000    8548.8804       234300         6611 
46870000    1.0067974   -3.7130095      1728000    8550.8853       234350         6612 
46880000   0.99466019   -3.8246784      1728000    8552.8234       234400         6614 
46890000   0.97125071   -3.6307236      1728000    8554.7094       234450         6616 
46900000    1.0042882   -3.8240105      1728000    8556.5985       234500         6617 
46910000   0.99350527    -3.899461      1728000    8558.5635       234550         6618 
46920000   0.97362946   -3.8124375      1728000    8560.6363       234600         6619 
46930000   0.99146352   -3.8369413      1728000    8562.5234       234650         6619 
46940000    1.0305926    -3.715611      1728000    8564.4706       234700         6620 
46950000   0.96801068   -3.7751149      1728000    8566.4235       234750         6621 
46960000   0.97204913   -3.8127402      1728000    8568.3376       234800         6621 
46970000    1.0278173    -3.881591      1728000    8570.2806       234850         6621 
46980000     1.023472   -3.8689348      1728000    8572.1986       234900         6621 
46990000    1.0299393    -3.931873      1728000    8574.1287       234950         6621 
47000000    0.9650813   -3.8179838      1728000    8576.0787       235000         6622 
47010000    1.0869744   -3.8250698      1728000    8577.9887       235050         6623 
47020000   0.97675626   -3.8689321      1728000    8580.0826       235100         6623 
47030000   0.90005082   -3.6853763      1728000    8582.1285       235150         6623 
47040000   0.99456315   -3.6384817      1728000    8584.1124       235200         6623 
47050000    1.0119261   -3.8151192      1728000    8586.0575       235250         6624 
47060000    1.0077682   -3.7533914      1728000    8588.0125       235300         6624 
47070000    1.0381801   -3.8023425      1728000    8589.9855       235350         6626 
47080000    1.0000888   -3.7320458      1728000    8592.0353       235400         6626 
47090000    0.9782643   -3.9027265      1728000    8593.9394       235450         6626 
47100000   0.95415964   -3.8476312      1728000    8595.9144       235500         6626 
47110000    1.0224129   -3.8034212      1728000    8597.9183       235550         6626 
47120000    1.0462681   -3.7228081      1728000    8599.9123       235600         6627 
47130000    1.0346292    -3.833819      1728000    8601.9262       235650         6627 
47140000   0.96468142   -3.9636368      1728000    8603.8842       235700         6627 
47150000   0.97335204   -3.8923202      1728000    8605.8722       235750         6627 
47160000   0.99198253   -3.8734777      1728000    8607.7942       235800         6628 
47170000   0.98503513   -3.9027656      1728000    8609.6705       235850         6628 
47180000   0.98107984   -3.8356197      1728000    8611.7903       235900         6629 
47190000   0.99254768   -3.9063531      1728000    8613.6924       235950         6630 
47200000   0.98354039   -3.6930037      1728000    8615.6953       236000         6631 
47210000    1.0300536   -3.9070001      1728000    8617.5776       236050         6631 
47220000   0.93716036   -3.8059769      1728000    8619.4537       236100         6631 
47230000    1.0156236   -3.8316539      1728000    8621.3716       236150         6632 
47240000    1.0075088   -3.7975989      1728000    8623.3615       236200         6635 
47250000    1.0467191   -3.8362276      1728000    8625.3055       236250         6635 
47260000   0.98499259   -4.0029864      1728000    8627.2016       236300         6635 
47270000   0.92717633   -3.6434347      1728000    8629.1159       236350         6635 
47280000    1.0446137   -3.7295449      1728000    8631.0224       236400         6636 
47290000    1.1059992   -3.7384413      1728000     8632.911       236450         6637 
47300000   0.95199936   -3.7847278      1728000    8634.8373       236500         6637 
47310000     1.013426   -3.8353625      1728000    8636.6903       236550         6637 
47320000   0.92915573   -3.8300218      1728000    8638.5963       236600         6639 
47330000    0.9985076   -3.7986332      1728000    8640.5265       236650         6639 
47340000   0.99866159   -3.8057257      1728000    8642.4186       236700         6639 
47350000   0.98105416   -3.7064129      1728000    8644.3306       236750         6639 
47360000   0.94294389   -3.8671553      1728000    8646.2207       236800         6639 
47370000   0.92806127   -3.9007956      1728000    8648.1221       236850         6639 
47380000    0.9952719   -3.8115658      1728000    8650.0531       236900         6639 
47390000    1.0017997   -3.8550891      1728000    8651.9981       236950         6641 
47400000    1.0169783   -3.9762798      1728000    8653.9032       237000         6641 
47410000    1.0007831   -3.8656632      1728000     8655.763       237050         6641 
47420000    1.0042294   -3.8879626      1728000    8657.6578       237100         6641 
47430000   0.99002712   -3.5880606      1728000    8659.5698       237150         6641 
47440000   0.97253051    -3.770782      1728000    8661.4309       237200         6641 
47450000   0.95265275   -3.7804875      1728000    8663.3166       237250         6642 
47460000   0.95899028   -3.7722606      1728000    8665.1723       237300         6643 
47470000   0.98143443   -3.7350522      1728000    8667.0108       237350         6644 
47480000    1.0437611    -3.818019      1728000    8668.8737       237400         6644 
47490000   0.99086255   -3.6876226      1728000    8670.7265       237450         6645 
47500000    1.0188059   -3.8059366      1728000    8672.6138       237500         6645 
47510000    0.9939112   -3.9136518      1728000    8674.6067       237550         6646 
47520000    1.0066705   -3.7202485      1728000    8676.5507       237600         6646 
47530000   0.99501008   -3.7367165      1728000    8678.4139       237650         6647 
47540000   0.94651475   -3.8555961      1728000    8680.3238       237700         6647 
47550000    1.0676806   -3.6763589      1728000    8682.1828       237750         6649 
47560000    0.9823137   -3.8211209      1728000    8684.1315       237800         6649 
47570000    1.0696557    -3.840919      1728000     8686.035       237850         6649 
47580000   0.98518916   -3.7743446      1728000    8687.9094       237900         6649 
47590000   0.97316028    -3.875844      1728000    8689.8125       237950         6649 
47600000    0.9520582   -3.8322535      1728000    8691.7635       238000         6650 
47610000    1.0348342   -3.8362514      1728000    8693.7075       238050         6651 
47620000   0.99209774   -3.7985296      1728000    8695.6375       238100         6653 
47630000   0.96968293   -3.7540259      1728000    8697.5516       238150         6653 
47640000    1.0256794   -3.7787538      1728000    8699.4806       238200         6654 
47650000   0.94664318   -3.7522869      1728000    8701.3846       238250         6655 
47660000    1.0220316   -3.8317321      1728000    8703.3356       238300         6656 
47670000    1.0215668   -3.7642162      1728000    8705.2077       238350         6657 
47680000    1.0368765   -3.7325901      1728000    8707.1477       238400         6658 
47690000    0.9667466   -3.8203561      1728000    8709.1017       238450         6659 
47700000   0.97002314   -3.7308212      1728000    8711.0367       238500         6660 
47710000    1.0362424   -3.8456106      1728000    8712.9578       238550         6660 
47720000   0.99993702   -3.7570143      1728000    8715.1845       238600         6660 
47730000   0.98892865   -3.8105651      1728000    8717.0262       238650         6660 
47740000   0.94605578   -3.8641297      1728000    8718.9492       238700         6660 
47750000    1.0712626    -3.788653      1728000    8720.8367       238750         6661 
47760000   0.95228913   -3.8441424      1728000    8722.8035       238800         6662 
47770000    1.0227126   -3.8235637      1728000    8724.6607       238850         6663 
47780000   0.97871928    -3.879168      1728000     8726.559       238900         6663 
47790000    1.0254918   -3.7956624      1728000    8728.4407       238950         6666 
47800000   0.98303617    -3.833657      1728000    8730.3426       239000         6666 
47810000    0.9914928   -3.7310835      1728000    8732.2427       239050         6666 
47820000    1.0018934   -3.8753173      1728000    8734.2011       239100         6666 
47830000   0.99749816    -3.954471      1728000    8736.1062       239150         6666 
47840000    0.9803331   -3.7460309      1728000    8738.0802       239200         6666 
47850000   0.94653524   -3.8434108      1728000    8739.9636       239250         6666 
47860000    1.0091963   -3.8060124      1728000    8741.9328       239300         6667 
47870000    1.0700651   -3.7671816      1728000    8743.9208       239350         6667 
47880000    1.0114677    -3.754591      1728000    8745.8558       239400         6668 
47890000    0.8958281   -3.8152881      1728000    8747.7968       239450         6668 
47900000    1.0135632    -3.900854      1728000    8749.6669       239500         6668 
47910000    1.0404884   -3.6760159      1728000       8751.6       239550         6668 
47920000   0.97365546   -3.7824174      1728000    8753.6179       239600         6671 
47930000    1.0157161   -3.8667906      1728000    8755.6339       239650         6671 
47940000   0.96677316   -3.8100771      1728000    8757.5589       239700         6672 
47950000    0.9659462   -3.9711052      1728000    8759.4211       239750         6673 
47960000    0.9533302   -3.8232047      1728000    8761.3002       239800         6673 
47970000    1.0465091   -3.7653213      1728000    8763.2162       239850         6674 
47980000    1.0839522   -3.8377989      1728000    8765.0933       239900         6675 
47990000   0.96226391   -3.7144145      1728000    8766.9864       239950         6675 
48000000   0.96986394   -3.7815514      1728000    8768.9064       240000         6676 
48010000    0.9488773   -3.7321637      1728000    8770.7895       240050         6677 
48020000   0.99468944   -3.7474303      1728000    8772.6316       240100         6677 
48030000   0.98118689   -3.7370268      1728000    8774.5726       240150         6677 
48040000   0.95500529   -3.8076085      1728000    8776.5416       240200         6677 
48050000    1.0499048   -3.7679388      1728000    8778.4846       240250         6679 
48060000    1.0108383   -3.8123514      1728000    8780.3737       240300         6680 
48070000   0.95741997   -3.7395264      1728000    8782.2449       240350         6684 
48080000   0.96662469   -3.8276616      1728000     8784.125       240400         6685 
48090000    1.0271564   -3.7851768      1728000    8785.9616       240450         6686 
48100000    1.0633099   -3.7904921      1728000    8787.8377       240500         6688 
48110000    1.0453461   -3.8322888      1728000    8789.7378       240550         6688 
48120000    1.0486058   -3.7980649      1728000    8791.5923       240600         6689 
48130000   0.97052781   -3.7074477      1728000    8793.4248       240650         6691 
48140000   0.98229802   -3.6549211      1728000    8795.2858       240700         6691 
48150000    1.0290449   -3.8578573      1728000    8797.2248       240750         6693 
48160000    1.0308118   -3.8256512      1728000    8799.1016       240800         6693 
48170000    1.0379493   -3.8273652      1728000    8800.9427       240850         6693 
48180000   0.97627084   -3.6592182      1728000     8802.841       240900         6693 
48190000    1.0266581   -3.9512086      1728000    8804.7641       240950         6693 
48200000    1.0187806   -3.7782687      1728000    8806.6423       241000         6693 
48210000   0.96351777   -3.6750743      1728000    8808.4715       241050         6693 
48220000    1.0030766   -3.8907567      1728000    8810.3315       241100         6693 
48230000   0.99459211   -3.8395333      1728000    8812.2176       241150         6693 
48240000   0.98446069   -3.7037553      1728000    8814.0816       241200         6693 
48250000   0.98859772   -3.9093326      1728000    8815.9466       241250         6693 
48260000    1.0067005   -3.9606943      1728000    8817.7845       241300         6693 
48270000    1.0839691   -3.6811406      1728000    8819.6745       241350         6694 
48280000   0.99421384   -3.7833591      1728000    8821.5365       241400         6694 
48290000   0.98020201   -3.8630964      1728000    8823.4355       241450         6694 
48300000   0.98768954   -3.7708909      1728000    8825.3865       241500         6696 
48310000    1.0065671   -3.8052097      1728000    8827.2622       241550         6697 
48320000    1.0255524   -3.7466317      1728000    8829.1227       241600         6697 
48330000   0.98442514    -3.808693      1728000    8830.9842       241650         6697 
48340000    1.0318673   -3.6665099      1728000    8832.8484       241700         6700 
48350000   0.98180751   -3.7586074      1728000    8834.7056       241750         6700 
48360000   0.99470244    -3.822687      1728000     8836.578       241800         6700 
48370000   0.93177974   -3.7347049      1728000    8838.4671       241850         6704 
48380000   0.98198099   -3.9691571      1728000    8840.3195       241900         6705 
48390000   0.99138947   -3.8468099      1728000    8842.1716       241950         6705 
48400000   0.94881907   -3.7855989      1728000    8844.0437       242000         6705 
48410000   0.99661277   -3.7727626      1728000    8845.8817       242050         6706 
48420000   0.99008943   -3.7743271      1728000    8847.7245       242100         6707 
48430000   0.97808744   -3.8725286      1728000    8849.6084       242150         6707 
48440000   0.99668068   -3.7522351      1728000    8851.4371       242200         6708 
48450000    1.0176798   -3.7647561      1728000    8853.2893       242250         6708 
48460000   0.96634792   -3.8545279      1728000    8855.2008       242300         6708 
48470000    1.0116451   -3.6865823      1728000    8857.0802       242350         6708 
48480000   0.99377275   -3.7517099      1728000    8858.9532       242400         6708 
48490000   0.99835324     -3.87277      1728000    8860.8652       242450         6708 
48500000    1.0383461   -3.8622404      1728000    8862.7773       242500         6708 
48510000   0.97756802   -3.7083696      1728000    8864.6777       242550         6709 
48520000    1.0216831   -3.7607535      1728000    8866.5749       242600         6711 
48530000    1.0134074   -3.8226699      1728000     8868.462       242650         6711 
48540000    1.0522829   -3.6670298      1728000     8870.387       242700         6713 
48550000    1.0172984   -3.9925364      1728000    8872.2797       242750         6715 
48560000    1.0195456   -3.7657523      1728000    8874.1389       242800         6717 
48570000    1.0418216   -3.9175769      1728000    8876.0448       242850         6719 
48580000    1.0555333   -3.7359697      1728000    8877.8844       242900         6720 
48590000    1.0049681   -3.8038335      1728000    8880.0859       242950         6721 
48600000   0.94447884   -3.8559577      1728000    8881.9907       243000         6723 
48610000    1.0117848   -3.7698512      1728000    8883.8571       243050         6727 
48620000    1.0018325   -3.7788563      1728000    8885.7291       243100         6729 
48630000   0.93661844   -3.7215548      1728000    8887.5904       243150         6730 
48640000     1.079158   -3.6973503      1728000    8889.4624       243200         6730 
48650000    1.0014508   -3.6605272      1728000    8891.3555       243250         6733 
48660000    1.0135859   -3.8994956      1728000    8893.2279       243300         6735 
48670000    1.0191878   -3.9347007      1728000    8895.1346       243350         6736 
48680000    1.0468193    -3.820793      1728000    8896.9882       243400         6737 
48690000    1.0032862    -3.824446      1728000    8898.8512       243450         6737 
48700000   0.99093197   -3.7879751      1728000    8900.6843       243500         6737 
48710000   0.96081154   -3.8248038      1728000    8902.5673       243550         6738 
48720000     1.062105   -3.8701803      1728000    8904.4684       243600         6738 
48730000   0.99893583   -3.9647234      1728000    8906.3575       243650         6740 
48740000   0.97520631   -3.8203894      1728000    8908.2516       243700         6740 
48750000   0.94688868   -3.8722762      1728000    8910.1327       243750         6740 
48760000   0.97754797   -3.8574808      1728000    8912.0077       243800         6740 
48770000    1.0438343   -3.9302952      1728000    8913.9038       243850         6740 
48780000    1.0528387   -3.7404179      1728000    8915.7769       243900         6740 
48790000   0.99650357   -3.5757578      1728000    8917.6982       243950         6741 
48800000   0.99632302   -3.8782544      1728000    8919.6405       244000         6742 
48810000   0.97723468   -3.6722337      1728000    8921.5086       244050         6743 
48820000   0.91616145   -3.8336593      1728000    8923.3957       244100         6744 
48830000    1.1050278   -3.7723544      1728000    8925.2974       244150         6745 
48840000   0.99899878   -3.7929286      1728000    8927.1668       244200         6745 
48850000    1.0341276    -3.695247      1728000    8929.0529       244250         6747 
48860000   0.98868754   -3.7345531      1728000    8930.9652       244300         6747 
48870000   0.98246488   -3.8288654      1728000    8932.8604       244350         6747 
48880000    1.0496806    -3.908518      1728000    8934.7155       244400         6747 
48890000    1.0096227   -3.7434988      1728000       8936.6       244450         6749 
48900000    1.0222077   -3.8898511      1728000    8938.4881       244500         6749 
48910000    1.0282168   -3.7308961      1728000    8940.3627       244550         6750 
48920000   0.89122359   -3.8911935      1728000    8942.2299       244600         6751 
48930000    1.0504089   -3.6711661      1728000    8944.0764       244650         6752 
48940000   0.91677019   -3.7802333      1728000    8945.9746       244700         6754 
48950000   0.95815873   -3.8426938      1728000    8947.9193       244750         6755 
48960000   0.92943814   -3.8843224      1728000    8949.8073       244800         6755 
48970000    1.0013961   -3.8072161      1728000    8951.7293       244850         6755 
48980000   0.98770594   -3.7972427      1728000    8953.6533       244900         6757 
48990000   0.96487992   -3.6951896      1728000    8955.5514       244950         6758 
49000000    1.0278186   -3.7678492      1728000    8957.5014       245000         6758 
49010000   0.93009225   -3.8348356      1728000    8959.4824       245050         6760 
49020000     1.053809    -3.873738      1728000    8961.4563       245100         6760 
49030000     1.029798   -3.7604786      1728000    8963.3944       245150         6761 
49040000    1.0468904   -3.8233828      1728000    8965.3124       245200         6762 
49050000   0.98021558   -3.8245093      1728000    8967.2334       245250         6764 
49060000   0.99107095   -3.7990477      1728000    8969.1754       245300         6764 
49070000    1.0190167   -3.8581081      1728000    8971.0342       245350         6765 
49080000    1.0180581   -3.7378453      1728000    8972.9673       245400         6766 
49090000    1.0102956   -3.6235356      1728000    8974.8903       245450         6767 
49100000   0.97123083   -3.8803778      1728000    8976.8143       245500         6768 
49110000   0.99153516   -3.8314628      1728000    8978.7154       245550         6769 
49120000   0.96666398   -3.6150499      1728000    8980.5776       245600         6769 
49130000    1.0273123   -3.8367986      1728000    8982.4336       245650         6770 
49140000   0.97970063   -3.8188166      1728000    8984.3341       245700         6770 
49150000   0.98561975   -3.8309281      1728000    8986.1854       245750         6770 
49160000   0.99931555   -3.7469267      1728000    8988.0387       245800         6771 
49170000   0.99945622   -3.8642229      1728000    8989.9927       245850         6771 
49180000   0.90651056   -3.9019532      1728000    8991.8819       245900         6771 
49190000    1.0502175    -3.695373      1728000    8993.7523       245950         6771 
49200000   0.99492897    -3.812629      1728000    8995.6062       246000         6772 
49210000   0.98841608   -3.7562271      1728000    8997.5163       246050         6775 
49220000   0.98694089   -3.7424008      1728000    8999.4053       246100         6776 
49230000   0.96395246   -3.7701207      1728000    9001.3318       246150         6778 
49240000    1.0060899   -3.8322595      1728000    9003.2488       246200         6779 
49250000   0.99357972    -3.791104      1728000    9005.1458       246250         6783 
49260000    1.0214511   -3.7327253      1728000    9007.0211       246300         6783 
49270000   0.98868436   -3.9209129      1728000    9008.9964       246350         6783 
49280000     1.003352   -3.7256143      1728000    9010.8377       246400         6785 
49290000    1.0080818   -3.7888224      1728000     9012.677       246450         6787 
49300000    1.0387332   -3.6973139      1728000    9014.5482       246500         6788 
49310000    1.0753822   -3.7770555      1728000    9016.3801       246550         6789 
49320000    1.0334869   -3.7722308      1728000    9018.2672       246600         6789 
49330000    1.0525376   -3.8113161      1728000    9020.1634       246650         6790 
49340000   0.99266191   -3.8364074      1728000    9022.0452       246700         6791 
49350000    1.0414374   -3.8691246      1728000    9023.9233       246750         6792 
49360000   0.96742839   -3.8537643      1728000     9025.812       246800         6792 
49370000   0.99210828    -3.916854      1728000    9027.7157       246850         6792 
49380000    1.0427479    -3.743484      1728000    9029.6547       246900         6792 
49390000    1.0139631   -3.8496164      1728000    9031.8424       246950         6793 
49400000    1.0105736   -3.8044358      1728000    9033.8244       247000         6793 
49410000   0.94980876   -3.6722437      1728000    9035.7454       247050         6796 
49420000    1.0118405   -3.7970501      1728000    9037.6625       247100         6796 
49430000   0.96670823   -3.8421043      1728000    9039.5775       247150         6797 
49440000   0.98898257   -3.6620187      1728000    9041.5774       247200         6797 
49450000    1.0553301   -3.8468492      1728000    9043.4269       247250         6799 
49460000    1.0114786   -3.8877399      1728000    9045.2823       247300         6799 
49470000    1.0996499   -3.7927271      1728000    9047.1739       247350         6801 
49480000    1.0132708   -3.7849395      1728000    9049.0372       247400         6802 
49490000    1.0565303   -3.8554369      1728000    9050.9212       247450         6802 
49500000   0.95838868   -3.8685281      1728000     9052.824       247500         6803 
49510000    1.0072724    -3.854687      1728000    9054.7211       247550         6804 
49520000    1.0182617   -3.7384063      1728000    9056.6684       247600         6804 
49530000   0.97682765   -3.7259608      1728000    9058.5405       247650         6804 
49540000    1.0097147   -3.7005632      1728000    9060.4099       247700         6804 
49550000     1.026084   -3.8271002      1728000     9062.305       247750         6806 
49560000   0.99715874   -3.9414321      1728000    9064.2059       247800         6806 
49570000    1.0564952    -3.915322      1728000    9066.0921       247850         6807 
49580000    1.0456644    -3.794449      1728000    9067.9772       247900         6808 
49590000   0.97274609   -3.9097277      1728000    9069.8631       247950         6808 
49600000   0.88443875   -3.7772905      1728000    9071.7567       248000         6808 
49610000    1.0399097   -3.7776551      1728000    9073.6492       248050         6808 
49620000    1.0188493   -3.7988807      1728000    9075.4933       248100         6809 
49630000    1.0409961   -3.8515592      1728000    9077.4352       248150         6810 
49640000    1.0474277   -3.8432018      1728000    9079.3403       248200         6811 
49650000   0.96700023   -3.8310575      1728000    9081.2473       248250         6811 
49660000     1.053771   -3.9194385      1728000    9083.1094       248300         6813 
49670000    1.0258261   -3.8366985      1728000    9085.0432       248350         6814 
49680000     0.983228   -3.9499116      1728000    9086.9311       248400         6814 
49690000     1.020099   -3.7983664      1728000    9088.8312       248450         6815 
49700000    1.0106917    -3.839763      1728000    9090.7134       248500         6816 
49710000    1.0098283   -3.7541432      1728000    9092.5867       248550         6816 
49720000   0.97648315   -3.7585575      1728000    9094.4617       248600         6817 
49730000    1.0013292   -3.8247017      1728000    9096.3528       248650         6818 
49740000   0.99202473   -3.9766978      1728000    9098.2588       248700         6819 
49750000   0.96950434   -3.8804434      1728000    9100.1654       248750         6819 
49760000    1.0019221   -3.7900611      1728000    9102.1057       248800         6819 
49770000    1.0124798   -3.8305182      1728000    9103.9967       248850         6819 
49780000   0.96594441   -3.7862665      1728000    9105.8689       248900         6820 
49790000    1.0075737   -3.6535585      1728000     9107.766       248950         6821 
49800000   0.93434471   -3.8961983      1728000    9109.6794       249000         6822 
49810000    1.0679752   -3.7896512      1728000    9111.5314       249050         6823 
49820000   0.98959611   -3.8369874      1728000    9113.3712       249100         6823 
49830000    1.0426457   -3.8862531      1728000    9115.2679       249150         6825 
49840000   0.96368941   -3.6843898      1728000    9117.1719       249200         6825 
49850000    1.0052101   -3.8317052      1728000     9119.052       249250         6825 
49860000   0.98248011   -3.7641259      1728000    9120.9071       249300         6825 
49870000    1.0551434    -3.725526      1728000     9122.755       249350         6826 
49880000   0.99050637    -3.803667      1728000    9124.5959       249400         6827 
49890000    1.0369831   -3.8812032      1728000     9126.492       249450         6827 
49900000     1.028144   -3.7800097      1728000    9128.4237       249500         6828 
49910000    1.0152462   -3.7677844      1728000    9130.3478       249550         6829 
49920000    1.0802063   -3.7641798      1728000    9132.2618       249600         6831 
49930000   0.99213803   -3.8821521      1728000    9134.1429       249650         6832 
49940000   0.96316351   -3.8001336      1728000      9136.03       249700         6832 
49950000    1.0021882   -3.8413292      1728000    9137.9039       249750         6834 
49960000   0.98746252   -3.7862836      1728000    9139.7722       249800         6834 
49970000   0.95694867   -3.8390758      1728000    9141.6154       249850         6835 
49980000    0.9538598   -3.7894943      1728000    9143.5214       249900         6835 
49990000    1.0075433   -3.9033939      1728000    9145.3965       249950         6835 
50000000    1.0186432   -3.6991483      1728000    9147.2878       250000         6835 
Loop time of 9147.29 on 1 procs for 50000000 steps with 500 atoms

Performance: 4722710.358 tau/day, 5466.100 timesteps/s
99.3% CPU use with 1 MPI tasks x 1 OpenMP threads

MPI task timing breakdown:
Section |  min time  |  avg time  |  max time  |%varavg| %total
---------------------------------------------------------------
Pair    | 4668.8     | 4668.8     | 4668.8     |   0.0 | 51.04
Bond    | 1080.8     | 1080.8     | 1080.8     |   0.0 | 11.82
Neigh   | 1537       | 1537       | 1537       |   0.0 | 16.80
Comm    | 32.849     | 32.849     | 32.849     |   0.0 |  0.36
Output  | 16.982     | 16.982     | 16.982     |   0.0 |  0.19
Modify  | 1746.1     | 1746.1     | 1746.1     |   0.0 | 19.09
Other   |            | 64.72      |            |       |  0.71

Nlocal:    500 ave 500 max 500 min
Histogram: 1 0 0 0 0 0 0 0 0 0
Nghost:    0 ave 0 max 0 min
Histogram: 1 0 0 0 0 0 0 0 0 0
Neighs:    14316 ave 14316 max 14316 min
Histogram: 1 0 0 0 0 0 0 0 0 0

Total # of neighbors = 14316
Ave neighs/atom = 28.632
Ave special neighs/atom = 5.976
Neighbor list builds = 2528216
Dangerous builds = 0

################
## ULOOP    ####
################
clear
OMP_NUM_THREADS environment is not set. Defaulting to 1 thread. (../comm.cpp:87)
  using 1 OpenMP thread(s) per MPI task
variable rname delete
variable simname delete
variable folder delete
variable seed delete
variable E delete
variable RW delete
variable SimOutType delete
variable SimInType delete
variable jn delete
variable jf delete

next jbn
Increment via next: value 2 on partition 0
jump SELF #last line!!!

### If e.g. I run this on 10 partitions of 1 processor,
### and initialise the variable with 'uloop N'
### it will run 10 simulations with 'jobnumber' taking
### values 1-10. Then when a particular simulation finishes, the
### script will be run again with the next value of jobnumber,
### until N simulations have been run.
## SO ULOOP IS "SERIAL" BUT FOR SURE 10x1 PROCs ARE ALWAYS BUSY
Total wall time: 2:32:37
