LAMMPS (1 Feb 2019)
OMP_NUM_THREADS environment is not set. Defaulting to 1 thread. (../comm.cpp:87)
  using 1 OpenMP thread(s) per MPI task
####################################
####	ULOOP			####
####################################
variable jbn uloop 1  # run n simulations
variable startfrom equal 0
variable jn equal ${jbn}+${startfrom}
variable jn equal 1+${startfrom}
variable jn equal 1+0
print ${jn}
print 1
1
variable seed equal (11+4)*51-2*11
variable seedr equal (11+2)*22

#
variable N equal 2000
timestep 0.01
variable Dt equal 100000
variable Temp equal 1.0
variable Norm equal 0.88585294441338
if "${jn} <= 20" then "variable E equal 1.4"
variable E equal 1.4
#if "${jn} > 2 && ${jn} <= 4" then "variable E equal 1.5"
#if "${jn} > 4 && ${jn} <= 6" then "variable E equal 2.0"
#if "${jn} > 6 && ${jn} <= 8" then "variable E equal 2.5"
#if "${jn} > 8 && ${jn} <= 10" then "variable E equal 3.0"
#if "${jn} > 10 && ${jn} <= 12" then "variable E equal 3.5"
#if "${jn} > 12 && ${jn} <= 14" then "variable E equal 4.0"
#if "${jn} > 14 && ${jn} <= 16" then "variable E equal 4.5"
#if "${jn} > 16 && ${jn} <= 18" then "variable E equal 5.0"

#
####################################
####	DEFINTIONS 	########
####################################
#
variable N equal 500
variable folder index RW_Dt${Dt}_E${E}
variable folder index RW_Dt100000_E${E}
variable folder index RW_Dt100000_E1.4
shell mkdir ${folder}
shell mkdir RW_Dt100000_E1.4
variable SimOutType index RW${jn}Dt${Dt}E${E}
variable SimOutType index RW1Dt${Dt}E${E}
variable SimOutType index RW1Dt100000E${E}
variable SimOutType index RW1Dt100000E1.4
variable rname index INIT/Poly.N${N}.dat
variable rname index INIT/Poly.N500.dat
variable simname index Poly.N${N}.${SimOutType}
variable simname index Poly.N500.${SimOutType}
variable simname index Poly.N500.RW1Dt100000E1.4
#
units lj
atom_style angle
boundary        p p p
neighbor 1.3 bin
neigh_modify every 5 delay 5 check yes
#
restart 1000000 ${folder}/Restart.neutr.${simname}.
restart 1000000 RW_Dt100000_E1.4/Restart.neutr.${simname}.
restart 1000000 RW_Dt100000_E1.4/Restart.neutr.Poly.N500.RW1Dt100000E1.4.
print ${rname}
print INIT/Poly.N500.dat
INIT/Poly.N500.dat
read_data ${rname}
read_data INIT/Poly.N500.dat
  orthogonal box = (-50 -50 -50) to (50 50 50)
  1 by 1 by 1 MPI processor grid
  reading atoms ...
  500 atoms
  scanning bonds ...
  1 = max bonds/atom
  scanning angles ...
  1 = max angles/atom
  reading bonds ...
  499 bonds
  reading angles ...
  498 angles
  2 = max # of 1-2 neighbors
  2 = max # of 1-3 neighbors
  4 = max # of 1-4 neighbors
  6 = max # of special neighbors

####################################
####	GROUPS	             #######
####################################
group blue type 1
500 atoms in group blue
group red type 2
0 atoms in group red
group grey type 3
0 atoms in group grey

change_box all x final -60 60 y final -60 60 z final -60 60 boundary f f f units box
  orthogonal box = (-60 -50 -50) to (60 50 50)
  orthogonal box = (-60 -60 -50) to (60 60 50)
  orthogonal box = (-60 -60 -60) to (60 60 60)

####################################
####	ANGLE	             #######
####################################
angle_style   cosine
angle_coeff  1 3.0  #20 sigma for realistic DNA (1 bead = 2.5 nm)

####################################
####	PAIRS	             #######
####################################
pair_style  soft 2.5
pair_modify     shift yes
pair_coeff      * * 20 1.12246152962189

variable prefactor equal ramp(0,50)
fix pushapart all adapt 1 pair soft a * * v_prefactor

####################################
####	FENE	             #######
####################################
bond_style   fene
special_bonds fene#<=== I M P O R T A N T (new command)
  2 = max # of 1-2 neighbors
  6 = max # of special neighbors
bond_coeff   1  30.0   1.6  1.0  1.0

####################################
####	FIXES	             #######
####################################
fix 1 all   nve
fix 2 all  langevin   1.0 1.0   1.0   ${seed}
fix 2 all  langevin   1.0 1.0   1.0   743

####################################
####	WALL	             #######
####################################
fix WALL all wall/lj126 xhi EDGE 1.0 1.0 1.122462048 xlo EDGE 1.0 1.0 1.122462048 yhi EDGE 1.0 1.0 1.122462048 ylo EDGE 1.0 1.0 1.122462048 zhi EDGE 1.0 1.0 1.122462048 zlo EDGE 1.0 1.0 1.122462048 units box

####################################
####	RESET TIME             #######
####################################
reset_timestep 0

####################################
####	SWAP - ATOMS         #######
####################################
##HERE I USE fix atom/swap to attempt an atom swap between types
## In theory, I don't need to do a loop as the fix does it every
## N timesteps
##FIRST Dt IS NOT SWAPPING ANYWAY!
group Polymer type 1 2 3
500 atoms in group Polymer
fix Aswap Polymer atom/swap ${Dt} ${N} ${seed} ${Temp} semi-grand yes types 1 2 3 mu 0.0 0.0 0.0
fix Aswap Polymer atom/swap 100000 ${N} ${seed} ${Temp} semi-grand yes types 1 2 3 mu 0.0 0.0 0.0
fix Aswap Polymer atom/swap 100000 500 ${seed} ${Temp} semi-grand yes types 1 2 3 mu 0.0 0.0 0.0
fix Aswap Polymer atom/swap 100000 500 743 ${Temp} semi-grand yes types 1 2 3 mu 0.0 0.0 0.0
fix Aswap Polymer atom/swap 100000 500 743 1 semi-grand yes types 1 2 3 mu 0.0 0.0 0.0
variable Swaps equal f_Aswap[2]/1.0
variable Attempts equal f_Aswap[1]/1.0

####################################
####    THERMO AND INTEGRATION
####################################
timestep 0.01
thermo 10000
thermo_style   custom   step  temp  epair vol cpu v_Attempts v_Swaps

####################################
####	EQUILIBRATION        #######
####################################
#THIS IS TO TEST
#PUT LARGER NUMBER WHEN DOING ACTUAL SIMULATIONS
run 100000
Neighbor list info ...
  update every 5 steps, delay 5 steps, check yes
  max neighbors/atom: 2000, page size: 100000
  master list distance cutoff = 2.42246
  ghost atom cutoff = 2.42246
  binsize = 1.21123, bins = 100 100 100
  1 neighbor lists, perpetual/occasional/extra = 1 0 0
  (1) pair soft, perpetual
      attributes: half, newton on
      pair build: half/bin/newton
      stencil: half/bin/3d/newton
      bin: standard
Per MPI rank memory allocation (min/avg/max) = 9.234 | 9.234 | 9.234 Mbytes
Step Temp E_pair Volume CPU v_Attempts v_Swaps 
       0            0            0      1728000            0            0            0 
   10000   0.99546959 0.0012152918      1728000    1.1038871          500          500 
   20000     1.017267  0.005066189      1728000    2.0089669          500          500 
   30000   0.99193115  0.006000438      1728000     2.872082          500          500 
   40000    1.0192509 0.0044975486      1728000     3.736196          500          500 
   50000   0.98706984 0.0073441782      1728000     4.601372          500          500 
   60000     1.015873 0.0013372895      1728000    5.4984529          500          500 
   70000   0.98741272 0.0080565379      1728000      6.37955          500          500 
   80000    1.0063218 0.0028956377      1728000    7.2586541          500          500 
   90000    1.0253261 0.00029157261      1728000    8.1118121          500          500 
  100000    1.0050939 0.0055565379      1728000      8.96594          500          500 
Loop time of 8.96792 on 1 procs for 100000 steps with 500 atoms

Performance: 9634341.004 tau/day, 11150.858 timesteps/s
99.5% CPU use with 1 MPI tasks x 1 OpenMP threads

MPI task timing breakdown:
Section |  min time  |  avg time  |  max time  |%varavg| %total
---------------------------------------------------------------
Pair    | 0.65817    | 0.65817    | 0.65817    |   0.0 |  7.34
Bond    | 2.6029     | 2.6029     | 2.6029     |   0.0 | 29.02
Neigh   | 2.5599     | 2.5599     | 2.5599     |   0.0 | 28.54
Comm    | 0.11486    | 0.11486    | 0.11486    |   0.0 |  1.28
Output  | 0.020893   | 0.020893   | 0.020893   |   0.0 |  0.23
Modify  | 2.9103     | 2.9103     | 2.9103     |   0.0 | 32.45
Other   |            | 0.101      |            |       |  1.13

Nlocal:    500 ave 500 max 500 min
Histogram: 1 0 0 0 0 0 0 0 0 0
Nghost:    0 ave 0 max 0 min
Histogram: 1 0 0 0 0 0 0 0 0 0
Neighs:    831 ave 831 max 831 min
Histogram: 1 0 0 0 0 0 0 0 0 0

Total # of neighbors = 831
Ave neighs/atom = 1.662
Ave special neighs/atom = 1.996
Neighbor list builds = 4472
Dangerous builds = 0


unfix pushapart
unfix Aswap
reset_timestep 0

#######################################################
####	PAIRS -- REPULSIVE + REDS FERROMAGN 	#######
#######################################################
#ENERGYSCALE
variable Et equal ${E}/${Norm}
variable Et equal 1.4/${Norm}
variable Et equal 1.4/0.88585294441338

pair_style  lj/cut 1.8
pair_modify     shift yes
pair_coeff      * *  1.0 1.0 1.12246152962189

pair_coeff      1 1  ${Et} 1.0 1.8
pair_coeff      1 1  1.5803977497948 1.0 1.8
pair_coeff      1 2  1.0 1.0 1.12246152962189
pair_coeff      1 3  1.0 1.0 1.12246152962189

pair_coeff      2 2  ${Et} 1.0 1.8
pair_coeff      2 2  1.5803977497948 1.0 1.8
pair_coeff      2 3  1.0 1.0 1.12246152962189

pair_coeff      3 3  1.0 1.0 1.12246152962189
#######################################################


########################
## PER PRIMI VICINI   ##
########################
bond_style harmonic
special_bonds lj 1 1 1
  2 = max # of 1-2 neighbors
  2 = max # of 1-3 neighbors
  4 = max # of 1-4 neighbors
  6 = max # of special neighbors
bond_coeff 1 200 1.12246
#bond_style fene
#special_bonds fene
#bond_coeff 1 30 1.6 1.0 1.0

########################
## RECOLOR #############
########################
group Polymer type 1 2 3
500 atoms in group Polymer
variable smooth equal 10
variable dtsmooth equal ${Dt}/${smooth}
variable dtsmooth equal 100000/${smooth}
variable dtsmooth equal 100000/10
variable Nsmooth equal ${N}/${smooth}
variable Nsmooth equal 500/${smooth}
variable Nsmooth equal 500/10
fix Aswap Polymer atom/swap ${dtsmooth} ${Nsmooth} ${seedr} ${Temp} semi-grand yes types 1 2 3 mu 0.0 0.0 0.0
fix Aswap Polymer atom/swap 10000 ${Nsmooth} ${seedr} ${Temp} semi-grand yes types 1 2 3 mu 0.0 0.0 0.0
fix Aswap Polymer atom/swap 10000 50 ${seedr} ${Temp} semi-grand yes types 1 2 3 mu 0.0 0.0 0.0
fix Aswap Polymer atom/swap 10000 50 286 ${Temp} semi-grand yes types 1 2 3 mu 0.0 0.0 0.0
fix Aswap Polymer atom/swap 10000 50 286 1 semi-grand yes types 1 2 3 mu 0.0 0.0 0.0
variable Swaps equal f_Aswap[2]/1.0
variable Attempts equal f_Aswap[1]/1.0

####################################
####    DUMPS                 #######
####################################
##VMD
#dump 1 all custom 1000 ${folder}/${simname}.lammpstrj id mol type x y z
#dump_modify  1   format "%d %d %d %.5f %.5f %.5f"

##DAT
dump 2 all custom 100000 ${folder}/${simname}.* id type x y z ix iy iz
dump 2 all custom 100000 RW_Dt100000_E1.4/${simname}.* id type x y z ix iy iz
dump 2 all custom 100000 RW_Dt100000_E1.4/Poly.N500.RW1Dt100000E1.4.* id type x y z ix iy iz
#dump_modify   2   format "%d %d %.5f %.5f %.5f %d %d %d"

##CFG
#dump 3 all cfg 1000 ${folder}/CFG/${simname}.tot.*.cfg mass type xs ys zs id mol type
#dump_modify 3 element N C O Ca Xe

##XYZ
dump 4 all xyz 100000 XYZ_${simname}.xyz
dump 4 all xyz 100000 XYZ_Poly.N500.RW1Dt100000E1.4.xyz
dump_modify 4 element C O N Xe

###########################
thermo 10000
thermo_style   custom   step  temp  epair vol cpu v_Attempts v_Swaps
run 50000000
Neighbor list info ...
  update every 5 steps, delay 5 steps, check yes
  max neighbors/atom: 2000, page size: 100000
  master list distance cutoff = 3.1
  ghost atom cutoff = 3.1
  binsize = 1.55, bins = 78 78 78
  1 neighbor lists, perpetual/occasional/extra = 1 0 0
  (1) pair lj/cut, perpetual
      attributes: half, newton on
      pair build: half/bin/newton
      stencil: half/bin/3d/newton
      bin: standard
Per MPI rank memory allocation (min/avg/max) = 9.566 | 9.566 | 9.566 Mbytes
Step Temp E_pair Volume CPU v_Attempts v_Swaps 
       0    1.0050939    2.1911676      1728000            0            0            0 
   10000    1.0086706  -0.48486581      1728000   0.86712885           50           43 
   20000   0.98138262  -0.55352371      1728000    1.7532158          100           76 
   30000    1.0340303  -0.54280011      1728000     2.659287          150          108 
   40000    1.0328039  -0.58434156      1728000    3.5643599          200          138 
   50000    1.0296922  -0.61443928      1728000    4.4504628          250          172 
   60000     1.025283  -0.77181185      1728000    5.3789949          300          198 
   70000   0.98455433  -0.80657844      1728000     6.312989          350          233 
   80000    0.9572679  -0.89258612      1728000    7.2959919          400          254 
   90000    1.0352133   -1.0188014      1728000    8.2991588          450          278 
  100000   0.97003223   -1.0512262      1728000    9.3318088          500          302 
  110000     1.047463   -1.1227581      1728000    10.365805          550          322 
  120000    1.0410413    -1.329657      1728000    11.465692          600          346 
  130000      0.98756   -1.6718217      1728000    12.580635          650          369 
  140000    1.0119034   -1.7376102      1728000    13.781404          700          392 
  150000    1.0156641   -1.8850604      1728000      15.0541          750          411 
  160000     1.030465   -1.9443274      1728000    16.346776          800          429 
  170000    1.0226103   -2.1034556      1728000    17.651439          850          449 
  180000    1.0136462   -2.1692875      1728000    19.030038          900          462 
  190000    1.0174672   -2.2622517      1728000    20.385637          950          476 
  200000    1.0746772    -2.265309      1728000    21.811176         1000          487 
  210000   0.96704043   -2.4381634      1728000     23.24377         1050          499 
  220000    1.0889921   -2.3873235      1728000    24.635134         1100          509 
  230000    1.0089327   -2.4614981      1728000    26.079719         1150          515 
  240000   0.97066761   -2.6099162      1728000    27.492284         1200          530 
  250000   0.99503971   -2.5636089      1728000    28.911794         1250          542 
  260000    1.0720813   -2.6146199      1728000    30.339324         1300          551 
  270000    1.0107613   -2.7013963      1728000    31.785828         1350          566 
  280000   0.99887938   -2.6948738      1728000    33.320279         1400          574 
  290000   0.98175302    -2.853271      1728000    34.814732         1450          581 
  300000   0.98999821   -2.8695875      1728000    36.377103         1500          590 
  310000    1.0081373   -2.9659854      1728000    37.981445         1550          604 
  320000   0.98859825   -3.2042211      1728000    39.614784         1600          611 
  330000   0.97748047   -3.2396265      1728000    41.225569         1650          619 
  340000   0.98574962   -3.2511926      1728000    42.800568         1700          627 
  350000    1.0061546   -3.2953467      1728000    44.437932         1750          636 
  360000    1.0402872   -3.3659607      1728000     46.35787         1800          648 
  370000    0.9783707   -3.4342448      1728000    48.047225         1850          651 
  380000    1.0300517   -3.5970598      1728000    49.737529         1900          657 
  390000   0.97702597    -3.403695      1728000    51.388995         1950          666 
  400000     1.055714   -3.5799089      1728000    53.031297         2000          675 
  410000    1.0340325   -3.6684072      1728000    54.713106         2050          681 
  420000    1.0116274   -3.7514162      1728000    56.442335         2100          686 
  430000   0.98371055   -3.5632758      1728000    58.131737         2150          692 
  440000   0.96596096   -3.4762148      1728000    59.802357         2200          700 
  450000   0.98084108   -3.6497121      1728000    61.485653         2250          706 
  460000   0.97513047   -3.7942075      1728000    63.157587         2300          714 
  470000    1.0015025   -3.7235813      1728000     64.88499         2350          720 
  480000   0.98644232     -3.69486      1728000    66.618515         2400          724 
  490000   0.95083498   -3.8551539      1728000    68.355035         2450          729 
  500000   0.99888901   -3.8226242      1728000    70.124242         2500          734 
  510000    1.0112426   -3.8097224      1728000    71.918404         2550          738 
  520000     1.026282   -3.8213111      1728000    73.708581         2600          744 
  530000    1.0260718   -3.9209012      1728000    75.426846         2650          747 
  540000   0.99436102   -3.9692155      1728000    77.190055         2700          755 
  550000    1.0329743   -3.9087987      1728000    78.917475         2750          759 
  560000   0.96417747   -3.7968616      1728000    80.634123         2800          761 
  570000     1.002844   -3.9281669      1728000    82.362257         2850          762 
  580000   0.95244936   -3.9297697      1728000    84.143025         2900          769 
  590000   0.99320882   -4.1364299      1728000    85.901206         2950          771 
  600000   0.99811595   -4.2237397      1728000    87.711402         3000          776 
  610000    1.0132164   -4.0319994      1728000    89.520548         3050          783 
  620000   0.96344189   -4.1789595      1728000     91.34791         3100          789 
  630000    1.0079687   -4.2324747      1728000    93.180032         3150          795 
  640000   0.95313861   -4.2856051      1728000    95.033134         3200          795 
  650000   0.95381211    -4.202527      1728000    96.881244         3250          798 
  660000     1.031893   -4.2029252      1728000    98.674777         3300          803 
  670000    1.0713875   -4.2979719      1728000    100.52987         3350          808 
  680000    1.0265806    -4.223816      1728000    102.41195         3400          808 
  690000     1.014518   -4.1107836      1728000    104.22708         3450          811 
  700000   0.99886474   -4.2600674      1728000    106.01206         3500          815 
  710000    1.0198674   -4.2278646      1728000    107.78523         3550          816 
  720000   0.96799143   -4.1598122      1728000     109.5674         3600          818 
  730000   0.93596933    -4.184505      1728000    111.41155         3650          822 
  740000    1.0532475   -4.2655208      1728000    113.24607         3700          824 
  750000       1.0234   -4.1026305      1728000    115.03823         3750          827 
  760000    1.0039274   -4.2562679      1728000    116.87036         3800          829 
  770000   0.96225775   -4.2436132      1728000    118.70847         3850          830 
  780000    1.0269998   -4.2483101      1728000    120.55857         3900          832 
  790000   0.95046511   -4.2656666      1728000     122.3997         3950          836 
  800000    1.0692661   -4.2308348      1728000    124.24502         4000          838 
  810000   0.95674553   -4.0328069      1728000    126.17605         4050          839 
  820000    1.0463342    -4.280192      1728000     127.9842         4100          841 
  830000    1.0080085   -4.2459723      1728000    129.85428         4150          845 
  840000    1.0628214   -4.1052931      1728000     131.7004         4200          847 
  850000    1.0050751   -4.2127576      1728000    133.59344         4250          849 
  860000    1.0236977   -4.1773825      1728000    135.45254         4300          851 
  870000   0.97628646   -4.2156845      1728000    137.37358         4350          852 
  880000   0.97245437   -4.2546444      1728000    139.24965         4400          854 
  890000    1.0654689    -4.230434      1728000    141.08778         4450          855 
  900000   0.98857448    -4.243985      1728000     142.9199         4500          856 
  910000    1.0135456     -4.32202      1728000    144.70534         4550          859 
  920000    1.0886104   -4.2751242      1728000    146.51096         4600          862 
  930000   0.99422443   -4.1784085      1728000    148.31643         4650          865 
  940000   0.98431096   -4.1150827      1728000    150.07803         4700          868 
  950000    1.0618583   -4.3620922      1728000    151.83832         4750          872 
  960000     1.055073   -4.1816883      1728000    153.69098         4800          874 
  970000    0.9755702   -4.3111341      1728000    155.49712         4850          875 
  980000   0.97768873     -4.28323      1728000    157.34026         4900          875 
  990000   0.97554176   -4.2739708      1728000    159.19737         4950          877 
 1000000    1.0024742   -4.3410432      1728000    161.09341         5000          879 
 1010000   0.98575587   -4.2335619      1728000    163.00545         5050          883 
 1020000   0.97005614   -4.4313169      1728000    164.84858         5100          887 
 1030000    0.9868103   -4.3705429      1728000     166.6717         5150          892 
 1040000    1.0047957   -4.3210768      1728000    168.50182         5200          893 
 1050000   0.94495094   -4.2841605      1728000    170.38988         5250          895 
 1060000   0.99747034    -4.441239      1728000    172.38684         5300          897 
 1070000    1.0228529    -4.394778      1728000    174.20998         5350          898 
 1080000   0.98931292   -4.3222539      1728000    176.10557         5400          901 
 1090000    1.0061368   -4.3509861      1728000    177.94569         5450          902 
 1100000   0.91307596    -4.358636      1728000    179.81675         5500          904 
 1110000    1.0171331    -4.359283      1728000    181.63489         5550          906 
 1120000    1.0396475   -4.5516021      1728000    183.50597         5600          908 
 1130000    1.0080274   -4.3341339      1728000    185.33311         5650          909 
 1140000   0.94118433   -4.3999596      1728000    187.18126         5700          910 
 1150000    0.9895787   -4.4197418      1728000    189.03035         5750          912 
 1160000    1.0329718   -4.3621159      1728000    190.89644         5800          915 
 1170000    1.0011232   -4.3129457      1728000     192.8015         5850          916 
 1180000    1.0081977   -4.4949611      1728000    194.64761         5900          918 
 1190000    0.9621035   -4.4882461      1728000    196.46973         5950          919 
 1200000    1.0053588   -4.4262382      1728000    198.39876         6000          919 
 1210000   0.96983179   -4.4717755      1728000    200.31779         6050          920 
 1220000    1.0266715   -4.3664601      1728000    202.22583         6100          921 
 1230000    1.0636964   -4.3988578      1728000    204.16386         6150          922 
 1240000    0.9953038   -4.4354407      1728000    206.20076         6200          925 
 1250000    1.0200043   -4.3687075      1728000     208.1268         6250          927 
 1260000    1.0180859   -4.4526672      1728000    209.95692         6300          930 
 1270000    1.0600964   -4.4270736      1728000    211.82599         6350          932 
 1280000   0.97729996   -4.2857045      1728000    213.68009         6400          932 
 1290000    1.0112022   -4.4778547      1728000    215.52523         6450          932 
 1300000   0.93758129   -4.3787249      1728000    217.51917         6500          934 
 1310000    1.0066103   -4.4233545      1728000     219.3623         6550          934 
 1320000    1.0278722   -4.3346322      1728000    221.27333         6600          935 
 1330000    1.0031966   -4.3638666      1728000    223.13242         6650          936 
 1340000    1.0050438   -4.4370241      1728000    224.99852         6700          938 
 1350000    1.0263179   -4.3641724      1728000    226.89358         6750          940 
 1360000    1.0020641   -4.2684045      1728000    228.73368         6800          941 
 1370000    1.0176935   -4.4129226      1728000    230.63473         6850          941 
 1380000    1.0023984    -4.466997      1728000    232.47087         6900          942 
 1390000    1.0066395    -4.344845      1728000    234.37192         6950          943 
 1400000    1.0193844   -4.3427141      1728000      236.234         7000          943 
 1410000    1.0423334   -4.4904546      1728000    238.22296         7050          944 
 1420000   0.98492812   -4.4360455      1728000    240.16197         7100          944 
 1430000   0.98398727   -4.4203422      1728000    242.02308         7150          945 
 1440000   0.98039974    -4.447219      1728000    243.98906         7200          945 
 1450000   0.99451883   -4.3545817      1728000    245.87613         7250          945 
 1460000   0.98939457    -4.511058      1728000     247.7592         7300          945 
 1470000    1.0171834   -4.4570408      1728000    249.65325         7350          946 
 1480000    1.0203212   -4.3571955      1728000    251.52334         7400          946 
 1490000   0.97892303   -4.4234933      1728000    253.37543         7450          948 
 1500000   0.95741805   -4.3977876      1728000    255.22054         7500          950 
 1510000    1.0621521   -4.3787619      1728000    257.09662         7550          951 
 1520000   0.96930274   -4.4461673      1728000    259.08659         7600          952 
 1530000    1.0632318   -4.3790942      1728000    260.98763         7650          952 
 1540000    1.0133328    -4.233015      1728000    262.86176         7700          953 
 1550000    1.0462174   -4.4756325      1728000    264.85771         7750          953 
 1560000    1.0605746   -4.4808562      1728000    266.81071         7800          954 
 1570000     1.025886   -4.3059693      1728000    268.64484         7850          955 
 1580000    1.0270569   -4.3771022      1728000    270.47997         7900          957 
 1590000   0.94177762   -4.3399451      1728000    272.31209         7950          961 
 1600000   0.98328104   -4.4121724      1728000    274.13225         8000          962 
 1610000    1.0711922   -4.4976948      1728000    276.04928         8050          965 
 1620000    1.0097863    -4.413058      1728000    277.92347         8100          968 
 1630000     1.028731   -4.3909607      1728000    279.78096         8150          968 
 1640000    1.0510255   -4.4692809      1728000    281.58636         8200          970 
 1650000    0.9686114   -4.4999408      1728000    283.45444         8250          973 
 1660000    1.0514253   -4.4107014      1728000    285.31963         8300          974 
 1670000   0.99198589   -4.4017459      1728000    287.19826         8350          975 
 1680000    1.0170183   -4.3915919      1728000    289.01738         8400          977 
 1690000    1.0196038   -4.3551258      1728000    290.87049         8450          978 
 1700000    1.0286563   -4.3394861      1728000    292.74457         8500          980 
 1710000     1.017442   -4.3163191      1728000    294.64162         8550          981 
 1720000    1.0418258    -4.449075      1728000    296.54367         8600          984 
 1730000    1.0059317   -4.4776561      1728000     298.4657         8650          984 
 1740000    1.0210559   -4.4320144      1728000    300.38774         8700          984 
 1750000    1.0329218   -4.4815319      1728000    302.26082         8750          986 
 1760000    1.0073844   -4.5749213      1728000    304.11692         8800          987 
 1770000     1.009205   -4.4582369      1728000    305.99099         8850          990 
 1780000    1.0340495   -4.4308249      1728000      307.928         8900          990 
 1790000   0.99706858   -4.5850304      1728000    309.84811         8950          992 
 1800000    1.0008973   -4.5306658      1728000    311.76014         9000          992 
 1810000     0.945618   -4.5709986      1728000    313.71413         9050          992 
 1820000   0.99497768   -4.5624551      1728000    315.57023         9100          992 
 1830000    1.0180597   -4.5884298      1728000    317.43136         9150          993 
 1840000    1.0484936   -4.6149511      1728000    319.33341         9200          993 
 1850000   0.97596243   -4.4742748      1728000    321.18755         9250          994 
 1860000    1.0472258   -4.4975863      1728000    323.04064         9300          995 
 1870000   0.98417872   -4.4789822      1728000    324.93469         9350          995 
 1880000   0.99439522   -4.4558839      1728000    326.83176         9400          997 
 1890000   0.90561881    -4.411782      1728000    328.74181         9450          997 
 1900000   0.99833541   -4.3805685      1728000     330.6029         9500         1000 
 1910000   0.98014832   -4.5037056      1728000    332.43102         9550         1002 
 1920000    1.0298953   -4.4385051      1728000    334.26941         9600         1003 
 1930000    1.0685846      -4.3019      1728000    336.18744         9650         1008 
 1940000   0.98202353   -4.5124744      1728000    338.40319         9700         1008 
 1950000   0.91886305   -4.5141079      1728000    340.27228         9750         1008 
 1960000    1.0652307   -4.6230983      1728000    342.20728         9800         1010 
 1970000     0.934474   -4.4156886      1728000    344.09196         9850         1012 
 1980000   0.99035935   -4.4923113      1728000    345.94406         9900         1013 
 1990000     0.999302   -4.4086582      1728000    347.85009         9950         1014 
 2000000   0.97965202   -4.4126712      1728000    349.85804        10000         1015 
 2010000   0.97797901   -4.5925253      1728000     351.7511        10050         1016 
 2020000   0.91885417   -4.4631636      1728000    353.62328        10100         1019 
 2030000    1.0573868   -4.4849633      1728000    355.52132        10150         1019 
 2040000   0.95848817   -4.6290045      1728000     357.4674        10200         1019 
 2050000    1.0034881    -4.428815      1728000    359.34349        10250         1019 
 2060000   0.99190891   -4.3365944      1728000    361.19859        10300         1019 
 2070000     1.022917   -4.5490244      1728000    363.11063        10350         1021 
 2080000   0.98729019   -4.5127299      1728000    364.93776        10400         1025 
 2090000    1.0343442   -4.4564586      1728000    366.81899        10450         1026 
 2100000   0.97019305   -4.3567628      1728000    368.78896        10500         1026 
 2110000    1.1232886   -4.4462985      1728000    370.72797        10550         1028 
 2120000   0.95601113   -4.4483768      1728000    372.63901        10600         1029 
 2130000    1.0132166   -4.5117873      1728000    374.68492        10650         1030 
 2140000    1.0140852   -4.6525745      1728000    376.73482        10700         1031 
 2150000   0.98940522   -4.4163667      1728000    378.63188        10750         1032 
 2160000   0.97594869   -4.4646905      1728000    380.55591        10800         1032 
 2170000   0.98194767   -4.4992649      1728000    382.46296        10850         1034 
 2180000    1.0094743   -4.4246178      1728000    384.32805        10900         1035 
 2190000    0.9868704   -4.6031768      1728000    386.20912        10950         1035 
 2200000      1.02863   -4.4781237      1728000    388.12015        11000         1037 
 2210000   0.96301467   -4.4712481      1728000    390.00323        11050         1039 
 2220000   0.93570603   -4.5608807      1728000    391.89628        11100         1040 
 2230000   0.97543639   -4.5681391      1728000    393.76936        11150         1041 
 2240000    1.0060731   -4.5079489      1728000    395.66342        11200         1041 
 2250000    1.0078063   -4.6148952      1728000    397.55148        11250         1041 
 2260000   0.99002713   -4.5193046      1728000    399.46552        11300         1043 
 2270000   0.97478055   -4.4882023      1728000    401.38356        11350         1044 
 2280000    1.0870628   -4.4925771      1728000    403.24665        11400         1045 
 2290000   0.95661005   -4.5332811      1728000    405.12173        11450         1045 
 2300000    1.0527472   -4.4843406      1728000    407.02378        11500         1045 
 2310000    1.0094285   -4.4837984      1728000    408.92982        11550         1046 
 2320000    1.0643146    -4.525419      1728000    410.81989        11600         1047 
 2330000    1.0045827   -4.4822499      1728000    412.69498        11650         1049 
 2340000    1.0242575   -4.3123573      1728000    414.60002        11700         1049 
 2350000    1.0074138   -4.3927195      1728000    416.48309        11750         1051 
 2360000    0.9941963    -4.460552      1728000    418.34219        11800         1051 
 2370000    1.0171148   -4.4590178      1728000    420.20527        11850         1052 
 2380000    1.0081139   -4.4401864      1728000    422.11531        11900         1054 
 2390000    1.0031708   -4.3721764      1728000    423.98042        11950         1056 
 2400000    1.0651769   -4.5592331      1728000    425.87945        12000         1056 
 2410000   0.93890941   -4.4255256      1728000     427.7855        12050         1057 
 2420000    1.0101351    -4.433097      1728000    429.64374        12100         1059 
 2430000   0.95844396   -4.3510562      1728000    431.50684        12150         1060 
 2440000    1.0082563   -4.4049893      1728000    433.36093        12200         1061 
 2450000   0.99580444   -4.4399888      1728000    435.24102        12250         1062 
 2460000   0.91895828   -4.4478716      1728000    437.10709        12300         1062 
 2470000    1.0840819   -4.3442227      1728000    438.99216        12350         1063 
 2480000   0.92655315   -4.5298875      1728000    440.87922        12400         1063 
 2490000    1.0048195   -4.5139968      1728000     442.7713        12450         1064 
 2500000    1.0710615   -4.5680367      1728000    444.64736        12500         1064 
 2510000   0.98580592   -4.3590512      1728000    446.53243        12550         1065 
 2520000    1.0287867   -4.6468696      1728000    448.41651        12600         1065 
 2530000   0.99896725   -4.5100937      1728000    450.28559        12650         1065 
 2540000    1.1143841   -4.4526778      1728000    452.16367        12700         1066 
 2550000   0.97833707   -4.4649115      1728000    454.03977        12750         1066 
 2560000   0.95859385   -4.4718569      1728000    455.90485        12800         1067 
 2570000    1.0418636   -4.4673342      1728000    457.78692        12850         1068 
 2580000    0.9878302   -4.3738058      1728000    459.66999        12900         1070 
 2590000   0.95327684   -4.4644096      1728000    461.55308        12950         1072 
 2600000    1.0796962    -4.474649      1728000    463.43613        13000         1074 
 2610000    1.0382138   -4.4606494      1728000     465.3292        13050         1074 
 2620000   0.94100184   -4.4102101      1728000     467.1813        13100         1074 
 2630000   0.96887755    -4.394042      1728000    469.05637        13150         1076 
 2640000   0.98303572   -4.5990225      1728000    470.92945        13200         1076 
 2650000   0.97004553   -4.3905539      1728000    472.79953        13250         1077 
 2660000   0.93667854   -4.5007456      1728000    474.68362        13300         1079 
 2670000    1.0100934   -4.4018472      1728000    476.56068        13350         1079 
 2680000    1.0275214   -4.3760846      1728000    478.41679        13400         1079 
 2690000   0.94965345   -4.4301629      1728000    480.29487        13450         1079 
 2700000    1.0019991   -4.5506895      1728000    482.21588        13500         1081 
 2710000   0.96665805   -4.4582048      1728000    484.05801        13550         1083 
 2720000    1.0162808   -4.4248344      1728000    485.91709        13600         1084 
 2730000    1.0034791   -4.4639341      1728000    487.76819        13650         1087 
 2740000   0.96164457   -4.5144682      1728000    489.62929        13700         1087 
 2750000    1.0350301   -4.4162073      1728000    491.50037        13750         1088 
 2760000    1.0256782    -4.507716      1728000    493.40144        13800         1091 
 2770000    1.0378858     -4.60652      1728000    495.33645        13850         1091 
 2780000    1.0668004   -4.3783791      1728000    497.22151        13900         1093 
 2790000    1.0051566   -4.4993852      1728000    499.07961        13950         1095 
 2800000    1.0078367    -4.501586      1728000    500.99464        14000         1096 
 2810000   0.94914601   -4.4322252      1728000    502.86174        14050         1098 
 2820000     1.011371   -4.4365581      1728000    505.09311        14100         1099 
 2830000    1.0249439   -4.5167115      1728000    506.98422        14150         1099 
 2840000    1.0036851   -4.5515632      1728000    508.88123        14200         1100 
 2850000   0.98219511   -4.6083847      1728000    510.78526        14250         1100 
 2860000    1.0274089   -4.4456314      1728000    512.69033        14300         1102 
 2870000   0.97482844   -4.4667378      1728000    514.56041        14350         1105 
 2880000    1.0119316   -4.3809974      1728000    516.47044        14400         1106 
 2890000    1.0148053   -4.5029525      1728000    518.36351        14450         1108 
 2900000   0.97265269   -4.6085421      1728000    520.30751        14500         1113 
 2910000    1.0377186   -4.4802483      1728000     522.2615        14550         1114 
 2920000     1.003142   -4.4882677      1728000    524.16456        14600         1115 
 2930000   0.89425385   -4.4282104      1728000    526.05462        14650         1117 
 2940000    0.9728026   -4.5468675      1728000     527.9377        14700         1117 
 2950000    1.0258885   -4.3985088      1728000    529.80677        14750         1118 
 2960000    1.0484006   -4.5119781      1728000    531.68287        14800         1120 
 2970000   0.99992098   -4.3886551      1728000    533.52298        14850         1121 
 2980000    1.0789848   -4.4638714      1728000    535.41103        14900         1124 
 2990000    1.0101234   -4.4566667      1728000    537.25915        14950         1124 
 3000000    1.0205299   -4.5518223      1728000     539.1502        15000         1127 
 3010000    1.0862972   -4.4846318      1728000    541.03627        15050         1128 
 3020000    1.0288359   -4.4759832      1728000    542.91335        15100         1129 
 3030000    1.0668047   -4.6202869      1728000    544.83738        15150         1129 
 3040000   0.94052182   -4.6408415      1728000    546.71245        15200         1129 
 3050000   0.92963874   -4.6270615      1728000    548.58654        15250         1130 
 3060000    1.0405968   -4.4518185      1728000    550.45562        15300         1133 
 3070000    1.0697242   -4.3424978      1728000    552.34068        15350         1133 
 3080000    1.0325012   -4.5714037      1728000    554.23374        15400         1135 
 3090000   0.98246489   -4.5319794      1728000    556.15379        15450         1137 
 3100000    1.0029759   -4.5616755      1728000    558.05782        15500         1138 
 3110000    1.0152641   -4.4479376      1728000    559.90994        15550         1140 
 3120000   0.91838016   -4.4874167      1728000    561.84495        15600         1142 
 3130000   0.96102321   -4.3808901      1728000    563.69106        15650         1143 
 3140000   0.99973569   -4.4558521      1728000    565.55131        15700         1143 
 3150000   0.97253522   -4.4522267      1728000    567.36452        15750         1143 
 3160000   0.94084257   -4.4959302      1728000    569.26906        15800         1144 
 3170000   0.94044452   -4.5680656      1728000    571.09049        15850         1144 
 3180000    1.0475721    -4.442751      1728000    572.90067        15900         1144 
 3190000    1.0051647   -4.3441717      1728000    574.75815        15950         1145 
 3200000   0.96951041   -4.4398515      1728000     576.5875        16000         1147 
 3210000    1.0186226   -4.4768637      1728000    578.45789        16050         1148 
 3220000    1.0266381   -4.6122049      1728000    580.31008        16100         1148 
 3230000   0.99219114   -4.5493436      1728000     582.1223        16150         1148 
 3240000    1.0103394   -4.5215504      1728000    583.95082        16200         1149 
 3250000   0.98975369   -4.5160969      1728000    585.79858        16250         1150 
 3260000   0.96421787    -4.598848      1728000     587.6091        16300         1151 
 3270000     1.020614    -4.584765      1728000    589.43527        16350         1152 
 3280000   0.99434864   -4.4424341      1728000    591.25131        16400         1154 
 3290000    1.0168813   -4.5924975      1728000     593.0796        16450         1154 
 3300000    1.0310709   -4.5147034      1728000    594.90512        16500         1154 
 3310000    1.0333338   -4.5430347      1728000    596.75924        16550         1154 
 3320000   0.97050375   -4.5984266      1728000    598.57102        16600         1154 
 3330000    1.0033847   -4.4946044      1728000    600.38314        16650         1154 
 3340000    1.0474466    -4.603822      1728000    602.24158        16700         1155 
 3350000   0.94208488   -4.5225986      1728000    604.08399        16750         1155 
 3360000    1.0377291   -4.5172157      1728000    605.91103        16800         1155 
 3370000     1.046911   -4.5166039      1728000    607.70541        16850         1156 
 3380000    1.0119403   -4.4375528      1728000    609.52505        16900         1156 
 3390000    1.0261243   -4.5653481      1728000    611.34207        16950         1156 
 3400000   0.96614579   -4.5095527      1728000    613.18375        17000         1157 
 3410000   0.93781919   -4.5534916      1728000    615.01933        17050         1157 
 3420000    1.0002509   -4.4899591      1728000     616.8281        17100         1157 
 3430000     0.969848   -4.5168249      1728000    618.61894        17150         1158 
 3440000   0.97348601   -4.5469041      1728000    620.43208        17200         1158 
 3450000   0.94898463   -4.4625775      1728000    622.25689        17250         1160 
 3460000    1.0849305   -4.5819459      1728000    624.05977        17300         1161 
 3470000    1.0182355   -4.4891863      1728000    625.88701        17350         1162 
 3480000   0.93156431   -4.4125443      1728000    627.68694        17400         1163 
 3490000    1.0788982   -4.5224146      1728000    629.49494        17450         1164 
 3500000   0.97141375   -4.5073012      1728000    631.33574        17500         1165 
 3510000    1.0443448    -4.512874      1728000    633.20417        17550         1165 
 3520000    1.0526233    -4.589265      1728000    635.02798        17600         1167 
 3530000    1.0005499   -4.6736823      1728000    636.85418        17650         1168 
 3540000   0.98645378   -4.6361435      1728000    638.68776        17700         1168 
 3550000   0.95724301   -4.5619087      1728000    640.50335        17750         1168 
 3560000   0.92575909   -4.5302167      1728000    642.35749        17800         1168 
 3570000   0.98605467   -4.6337351      1728000    644.20511        17850         1170 
 3580000   0.96707237   -4.3408635      1728000    646.02231        17900         1171 
 3590000   0.95566169   -4.6650964      1728000    647.83606        17950         1171 
 3600000   0.97029128   -4.4781338      1728000    649.69178        18000         1171 
 3610000    0.9528909   -4.4803413      1728000    651.52738        18050         1171 
 3620000   0.97099796   -4.5847671      1728000    653.32375        18100         1171 
 3630000    1.0020788    -4.491181      1728000    655.13015        18150         1171 
 3640000    0.9908376   -4.5487417      1728000    657.21547        18200         1171 
 3650000    1.0530244   -4.4617912      1728000    659.06198        18250         1171 
 3660000    1.0088883   -4.4888345      1728000    660.94397        18300         1172 
 3670000    1.0418257   -4.6523574      1728000    662.74911        18350         1172 
 3680000    1.0430695   -4.4631634      1728000    664.60693        18400         1172 
 3690000     1.015746   -4.4737008      1728000    666.47801        18450         1172 
 3700000   0.96896052   -4.4777325      1728000    668.32431        18500         1173 
 3710000    1.0442597   -4.5751039      1728000    670.19602        18550         1174 
 3720000   0.97141904   -4.4438459      1728000    672.05932        18600         1175 
 3730000     0.974731   -4.7077977      1728000     673.9204        18650         1176 
 3740000   0.99745281   -4.6641545      1728000    675.74593        18700         1177 
 3750000    1.0436868   -4.4747714      1728000    677.59802        18750         1181 
 3760000    1.0369171    -4.461269      1728000    679.40196        18800         1181 
 3770000    1.0501829   -4.5642574      1728000    681.22824        18850         1183 
 3780000   0.97250024   -4.4544164      1728000    683.08097        18900         1184 
 3790000   0.99415198   -4.4657653      1728000     684.8888        18950         1184 
 3800000   0.95652967   -4.4354277      1728000     686.7097        19000         1186 
 3810000   0.99298821   -4.5887594      1728000    688.51477        19050         1187 
 3820000   0.99302561   -4.5565495      1728000    690.35891        19100         1187 
 3830000    1.1005311   -4.5150186      1728000    692.17207        19150         1187 
 3840000   0.97634441   -4.6104127      1728000    693.99576        19200         1187 
 3850000   0.95760368   -4.5828128      1728000    695.82573        19250         1187 
 3860000    1.0331741   -4.3881234      1728000    697.63561        19300         1188 
 3870000    1.0352136   -4.4743864      1728000      699.467        19350         1189 
 3880000   0.94332991   -4.5623835      1728000    701.32181        19400         1191 
 3890000   0.95411787   -4.5174453      1728000    703.16075        19450         1193 
 3900000    1.0007088   -4.4933109      1728000    705.01285        19500         1194 
 3910000    1.0473552   -4.4441973      1728000    706.84289        19550         1197 
 3920000   0.99481757   -4.5901972      1728000    708.70722        19600         1198 
 3930000    1.0684774   -4.6435416      1728000    710.55667        19650         1199 
 3940000    1.0241523   -4.6713595      1728000    712.39779        19700         1201 
 3950000   0.95170141   -4.5782792      1728000    714.25629        19750         1201 
 3960000   0.96847988    -4.566067      1728000    716.06603        19800         1201 
 3970000    1.0634019   -4.5258488      1728000    717.88831        19850         1202 
 3980000    1.0745526   -4.4813774      1728000    719.70475        19900         1203 
 3990000    1.0440261   -4.5326627      1728000    721.52459        19950         1203 
 4000000    0.9894423   -4.6334897      1728000    723.38201        20000         1203 
 4010000    1.0101033   -4.4416092      1728000    725.22191        20050         1204 
 4020000    1.0443547   -4.5419103      1728000    727.06287        20100         1205 
 4030000    1.0345287   -4.5769526      1728000    728.91766        20150         1206 
 4040000   0.97413874   -4.7002731      1728000    730.75273        20200         1206 
 4050000   0.97385802   -4.5977293      1728000     732.6098        20250         1207 
 4060000   0.96615737    -4.670914      1728000    734.41888        20300         1208 
 4070000    1.0591209   -4.5468276      1728000    736.22674        20350         1208 
 4080000   0.98990366   -4.6700325      1728000    738.09243        20400         1209 
 4090000    1.0452503   -4.4936918      1728000    739.91592        20450         1210 
 4100000    1.0203056   -4.6151976      1728000    741.77287        20500         1210 
 4110000    0.9994822   -4.3949567      1728000    743.62046        20550         1210 
 4120000    1.0741967    -4.531653      1728000    745.44106        20600         1210 
 4130000    1.0004655   -4.6394019      1728000     747.3783        20650         1210 
 4140000     1.065177   -4.5678034      1728000    749.50911        20700         1210 
 4150000   0.95100682   -4.5080473      1728000    751.41959        20750         1210 
 4160000    1.0021086   -4.6562214      1728000    753.27397        20800         1210 
 4170000    1.0184614   -4.5668637      1728000    755.11945        20850         1211 
 4180000   0.96926157   -4.5882235      1728000    756.92284        20900         1211 
 4190000    1.0340408   -4.5561248      1728000    758.72694        20950         1213 
 4200000   0.96128784   -4.5207821      1728000    760.55707        21000         1214 
 4210000    1.0246507   -4.4677815      1728000    762.38059        21050         1215 
 4220000    1.0321742   -4.5780277      1728000    764.19275        21100         1216 
 4230000    1.0074616   -4.4332045      1728000    766.01661        21150         1216 
 4240000   0.98848829   -4.6154059      1728000    767.84965        21200         1217 
 4250000    1.0654285   -4.5829406      1728000     769.7142        21250         1217 
 4260000   0.94302382    -4.423181      1728000    771.53965        21300         1221 
 4270000      1.00716   -4.4207202      1728000    773.38975        21350         1221 
 4280000    1.0236285   -4.5494407      1728000    775.22895        21400         1222 
 4290000    1.0107769   -4.5796962      1728000     777.0655        21450         1223 
 4300000   0.95508828   -4.3988665      1728000     778.8908        21500         1224 
 4310000    1.0221773   -4.5888683      1728000    780.73052        21550         1226 
 4320000    1.0060616   -4.5069322      1728000    782.59237        21600         1227 
 4330000    1.0446716   -4.5977432      1728000     784.4406        21650         1227 
 4340000   0.96663221   -4.6456896      1728000    786.27799        21700         1227 
 4350000     1.078052   -4.5989053      1728000    788.11631        21750         1228 
 4360000   0.98778095   -4.5748783      1728000    789.93893        21800         1231 
 4370000    1.0317647    -4.576856      1728000    791.75158        21850         1231 
 4380000    0.9760708   -4.5626608      1728000    793.57708        21900         1232 
 4390000   0.96385026   -4.6269176      1728000    795.39767        21950         1232 
 4400000    1.0480036   -4.5944606      1728000    797.27395        22000         1232 
 4410000   0.97465639   -4.4701208      1728000     799.1283        22050         1232 
 4420000   0.95062536   -4.4889287      1728000     800.9825        22100         1232 
 4430000    1.0314505   -4.4762735      1728000    802.81267        22150         1232 
 4440000    1.0109278   -4.5418927      1728000    804.67078        22200         1236 
 4450000    1.0163679    -4.490433      1728000    806.49593        22250         1236 
 4460000   0.97718427   -4.5720445      1728000    808.31746        22300         1237 
 4470000    0.9519935   -4.5274104      1728000    810.17471        22350         1240 
 4480000   0.96135008   -4.5569776      1728000    811.99952        22400         1241 
 4490000   0.95186297   -4.4174386      1728000    813.81556        22450         1241 
 4500000   0.99624624   -4.5163975      1728000    815.69076        22500         1242 
 4510000    1.0128349   -4.5067912      1728000     817.5119        22550         1243 
 4520000    1.0645266   -4.5198856      1728000    819.35154        22600         1243 
 4530000   0.98434103    -4.485239      1728000    821.22662        22650         1244 
 4540000   0.94913736   -4.4860108      1728000    823.21659        22700         1244 
 4550000   0.93538029   -4.5655302      1728000    825.02177        22750         1247 
 4560000    1.0454916   -4.6188053      1728000    826.87393        22800         1248 
 4570000    1.0009884   -4.5838002      1728000    828.69081        22850         1249 
 4580000    1.0291711   -4.4572325      1728000    830.54461        22900         1249 
 4590000    1.0170033   -4.5715966      1728000    832.47318        22950         1249 
 4600000    1.0100707   -4.5411981      1728000    834.30321        23000         1249 
 4610000   0.98645564   -4.6018692      1728000    836.13868        23050         1250 
 4620000    1.0827985   -4.6030338      1728000    837.95664        23100         1251 
 4630000   0.97305684   -4.6079449      1728000    839.93121        23150         1251 
 4640000      1.00533   -4.5557811      1728000    841.74263        23200         1252 
 4650000    0.9858329   -4.5030566      1728000    843.56593        23250         1252 
 4660000    1.0252549    -4.578306      1728000    845.38068        23300         1252 
 4670000   0.95570804   -4.5333574      1728000    847.22987        23350         1253 
 4680000    1.0397114   -4.5785982      1728000    849.12796        23400         1254 
 4690000    1.0059469   -4.5957971      1728000    850.95372        23450         1256 
 4700000     1.038266   -4.6015516      1728000    852.79752        23500         1256 
 4710000   0.97822425   -4.5365993      1728000    854.62844        23550         1256 
 4720000    1.0234333   -4.6776952      1728000    856.46852        23600         1257 
 4730000   0.96464272   -4.7489595      1728000    858.30354        23650         1257 
 4740000   0.94936181   -4.5165971      1728000     860.1458        23700         1258 
 4750000    1.0430701    -4.582273      1728000    861.96077        23750         1258 
 4760000    1.0462634   -4.5789535      1728000    863.79172        23800         1258 
 4770000    1.0034007   -4.6398178      1728000     865.6186        23850         1258 
 4780000    1.0763492   -4.5372495      1728000    867.45063        23900         1258 
 4790000   0.93307701   -4.4657606      1728000    869.27383        23950         1259 
 4800000    1.0149909   -4.4812188      1728000    871.12167        24000         1259 
 4810000   0.98765708   -4.5338914      1728000    872.98732        24050         1259 
 4820000    1.0512282   -4.5652841      1728000    874.83568        24100         1259 
 4830000    0.9956966    -4.536888      1728000    876.75957        24150         1259 
 4840000   0.95210213   -4.6248704      1728000    878.58382        24200         1259 
 4850000    1.0709629   -4.6257684      1728000    880.39947        24250         1260 
 4860000    1.0163454   -4.6048479      1728000    882.24563        24300         1260 
 4870000    1.0138171   -4.5021662      1728000    884.07313        24350         1261 
 4880000   0.95986842   -4.4472511      1728000    885.90714        24400         1261 
 4890000    1.0220081   -4.5260864      1728000    887.75176        24450         1261 
 4900000   0.96474869   -4.5455472      1728000     889.5964        24500         1261 
 4910000   0.95042583   -4.4262965      1728000     891.4203        24550         1262 
 4920000    1.0131094   -4.6514525      1728000    893.30144        24600         1262 
 4930000    1.0304862   -4.5073782      1728000    895.13912        24650         1262 
 4940000   0.98419885   -4.5781421      1728000    896.96691        24700         1263 
 4950000   0.98294042   -4.4985445      1728000    898.78928        24750         1263 
 4960000    1.0118169   -4.5766785      1728000    900.63371        24800         1264 
 4970000   0.97599202    -4.485454      1728000    902.47155        24850         1265 
 4980000   0.95505404   -4.5524276      1728000    904.33762        24900         1266 
 4990000   0.98908926   -4.6169069      1728000    906.20582        24950         1266 
 5000000   0.97031633   -4.5982179      1728000    908.03341        25000         1268 
 5010000    1.0454261   -4.5596177      1728000    909.85337        25050         1269 
 5020000   0.98308781   -4.6004174      1728000    911.70368        25100         1269 
 5030000   0.95481033   -4.4159473      1728000    913.52156        25150         1270 
 5040000    1.0204987   -4.4056177      1728000    915.33871        25200         1271 
 5050000    1.0158559   -4.5225817      1728000    917.17945        25250         1271 
 5060000   0.96917789   -4.4762903      1728000    918.98044        25300         1272 
 5070000   0.98555836   -4.5437635      1728000    920.81467        25350         1274 
 5080000    1.0032269   -4.5057016      1728000    922.64954        25400         1275 
 5090000   0.97106106   -4.7231254      1728000    924.49858        25450         1275 
 5100000    1.0207844   -4.4024942      1728000    926.32162        25500         1276 
 5110000   0.97428909   -4.6111507      1728000    928.12861        25550         1276 
 5120000    1.0006475   -4.6005997      1728000    929.99453        25600         1277 
 5130000   0.95855117   -4.5761918      1728000    931.82153        25650         1278 
 5140000   0.95248203    -4.566817      1728000    933.62961        25700         1278 
 5150000   0.96512926   -4.6407371      1728000    935.48172        25750         1278 
 5160000    1.0215655   -4.4327799      1728000     937.2935        25800         1278 
 5170000    1.0282706   -4.4569419      1728000    939.13844        25850         1279 
 5180000    1.0339906   -4.6687694      1728000    940.96672        25900         1280 
 5190000    1.0269872   -4.6646011      1728000    942.78277        25950         1280 
 5200000    1.0210202   -4.6840105      1728000    944.73856        26000         1280 
 5210000   0.98262233    -4.523398      1728000    946.59049        26050         1281 
 5220000   0.96655333   -4.5636493      1728000    948.42347        26100         1282 
 5230000    1.0257957   -4.4769465      1728000    950.25526        26150         1282 
 5240000   0.92188731   -4.5205558      1728000    952.08645        26200         1283 
 5250000    1.0313547   -4.4956797      1728000    953.90962        26250         1283 
 5260000    1.0830955   -4.5914963      1728000    955.74778        26300         1284 
 5270000    0.9561803   -4.6809551      1728000    957.55598        26350         1284 
 5280000   0.97534286   -4.5839171      1728000    959.40237        26400         1284 
 5290000   0.93401782   -4.6259257      1728000    961.24559        26450         1284 
 5300000   0.99651157   -4.6000579      1728000    963.08956        26500         1284 
 5310000   0.97168687   -4.4955543      1728000    964.95961        26550         1284 
 5320000    1.0296469   -4.5490995      1728000    966.79347        26600         1285 
 5330000    1.0088933   -4.6378181      1728000    968.64855        26650         1285 
 5340000   0.95876535   -4.5404493      1728000     970.4795        26700         1286 
 5350000   0.94964704   -4.6173842      1728000    972.35201        26750         1288 
 5360000   0.97372309   -4.5442398      1728000    974.20471        26800         1291 
 5370000   0.99840144   -4.6781793      1728000    976.03272        26850         1291 
 5380000    1.0655554   -4.5523248      1728000    977.88357        26900         1291 
 5390000   0.96817958   -4.5045166      1728000     979.6996        26950         1291 
 5400000    1.0086001   -4.6088576      1728000    981.57919        27000         1291 
 5410000    1.0028365   -4.5648253      1728000    983.41169        27050         1293 
 5420000    1.0929773   -4.5210258      1728000     985.2536        27100         1296 
 5430000   0.97859901   -4.5661795      1728000    987.05783        27150         1296 
 5440000   0.93493407   -4.6035885      1728000    988.86848        27200         1298 
 5450000   0.98099602   -4.5643059      1728000    990.69945        27250         1298 
 5460000    1.0136398   -4.4630991      1728000    992.51437        27300         1298 
 5470000    1.0570622   -4.4208475      1728000    994.35032        27350         1298 
 5480000    1.0088707   -4.5781129      1728000    996.18462        27400         1298 
 5490000    1.0745858   -4.6305497      1728000    998.00544        27450         1299 
 5500000    1.0267891   -4.5112197      1728000    999.85234        27500         1299 
 5510000    1.0188157   -4.5637213      1728000    1001.6653        27550         1300 
 5520000    1.0298655   -4.4221684      1728000    1003.4936        27600         1301 
 5530000    1.0055126   -4.5271048      1728000    1005.3056        27650         1302 
 5540000    1.0104906   -4.5331593      1728000    1007.1375        27700         1302 
 5550000   0.98722093   -4.5860719      1728000    1008.9674        27750         1302 
 5560000     1.038961   -4.5614478      1728000    1010.8152        27800         1302 
 5570000   0.94606194   -4.5608409      1728000    1012.6207        27850         1305 
 5580000    1.0274495   -4.6466506      1728000    1014.4554        27900         1306 
 5590000   0.98170839    -4.551466      1728000    1016.2902        27950         1310 
 5600000    0.9769087   -4.5033607      1728000    1018.1336        28000         1310 
 5610000   0.99435698   -4.6208119      1728000     1019.966        28050         1312 
 5620000    0.9665226   -4.4604476      1728000    1021.8097        28100         1313 
 5630000    0.9898175   -4.5184681      1728000    1023.6644        28150         1314 
 5640000    1.0657361   -4.5575517      1728000    1025.4646        28200         1315 
 5650000   0.94743354   -4.3569763      1728000    1027.2925        28250         1317 
 5660000    1.0427903   -4.4875839      1728000    1029.1394        28300         1317 
 5670000    1.0222177   -4.5915429      1728000    1030.9556        28350         1317 
 5680000   0.94238855   -4.4400874      1728000    1032.8162        28400         1317 
 5690000    1.0080907   -4.6431296      1728000    1034.6506        28450         1320 
 5700000   0.98119171   -4.6302249      1728000    1036.5355        28500         1320 
 5710000   0.99510135   -4.5016502      1728000      1038.37        28550         1321 
 5720000    1.0066304   -4.5170388      1728000    1040.1987        28600         1322 
 5730000   0.98228606   -4.5399642      1728000    1042.0447        28650         1322 
 5740000   0.97339744   -4.4551484      1728000    1043.8815        28700         1322 
 5750000   0.97386615   -4.6158372      1728000    1045.7015        28750         1323 
 5760000   0.98731449   -4.6609997      1728000    1047.5302        28800         1325 
 5770000    1.0757061   -4.5247204      1728000    1049.3632        28850         1325 
 5780000    1.0737859   -4.5107184      1728000    1051.5056        28900         1326 
 5790000   0.94224483   -4.5649852      1728000    1053.3614        28950         1328 
 5800000       1.0441   -4.5173815      1728000    1055.2014        29000         1328 
 5810000     1.007026   -4.6110541      1728000    1057.0284        29050         1328 
 5820000    1.0219606   -4.5813344      1728000    1058.8663        29100         1331 
 5830000    1.0199334   -4.6190557      1728000    1060.7223        29150         1332 
 5840000    1.0332734    -4.485461      1728000    1062.5894        29200         1335 
 5850000   0.96681215    -4.577701      1728000    1064.4123        29250         1335 
 5860000    1.0495794   -4.4486989      1728000     1066.257        29300         1335 
 5870000    1.0352648   -4.5196893      1728000    1068.0765        29350         1335 
 5880000    1.0091412   -4.3502313      1728000    1069.8984        29400         1336 
 5890000   0.97261897   -4.4533526      1728000    1071.7023        29450         1339 
 5900000   0.94523228    -4.450798      1728000    1073.5388        29500         1339 
 5910000   0.98125493   -4.5507638      1728000     1075.362        29550         1340 
 5920000   0.96581204   -4.3552651      1728000    1077.2156        29600         1340 
 5930000    1.0610438   -4.6382825      1728000    1079.0294        29650         1340 
 5940000    1.0211368   -4.5370536      1728000    1080.8712        29700         1340 
 5950000    1.0265501   -4.5041801      1728000    1082.7011        29750         1341 
 5960000   0.97470018   -4.5240881      1728000    1084.5214        29800         1341 
 5970000   0.92859581   -4.6188806      1728000    1086.3553        29850         1341 
 5980000    1.0546889   -4.6217484      1728000    1088.1906        29900         1341 
 5990000     1.017564   -4.5136257      1728000    1090.0364        29950         1342 
 6000000   0.96604883   -4.5015099      1728000    1091.8752        30000         1345 
 6010000   0.97794869   -4.4996347      1728000    1093.6996        30050         1345 
 6020000    1.0363546   -4.5155724      1728000    1095.5015        30100         1346 
 6030000    1.0116295   -4.5701821      1728000    1097.3541        30150         1348 
 6040000    1.0279436   -4.5322357      1728000    1099.1662        30200         1348 
 6050000    1.0393324   -4.4935604      1728000    1100.9733        30250         1348 
 6060000    1.0016475   -4.6277796      1728000    1102.8053        30300         1349 
 6070000    1.0145926    -4.394993      1728000    1104.6031        30350         1349 
 6080000   0.95925613    -4.583025      1728000    1106.4234        30400         1350 
 6090000    1.0289866    -4.503564      1728000    1108.2501        30450         1352 
 6100000    1.0243652   -4.5446085      1728000    1110.0944        30500         1353 
 6110000   0.94860063   -4.4467968      1728000    1111.9044        30550         1354 
 6120000   0.96326868   -4.5723955      1728000    1113.7474        30600         1354 
 6130000   0.96485298   -4.5748482      1728000    1115.5672        30650         1355 
 6140000    1.0081741    -4.635721      1728000    1117.4019        30700         1355 
 6150000    1.0107264   -4.5475187      1728000    1119.2314        30750         1356 
 6160000   0.99111799   -4.5952221      1728000    1121.0546        30800         1356 
 6170000    1.0127319   -4.5412269      1728000    1122.9094        30850         1357 
 6180000    1.0584403   -4.5569946      1728000    1124.7233        30900         1358 
 6190000    0.9537845   -4.5533285      1728000    1126.5652        30950         1359 
 6200000   0.95638416    -4.632508      1728000    1128.3943        31000         1361 
 6210000   0.92179317   -4.4129934      1728000    1130.2214        31050         1361 
 6220000   0.99910334   -4.5515241      1728000    1132.0391        31100         1362 
 6230000    1.0063162   -4.5163121      1728000    1133.9003        31150         1362 
 6240000    1.0211912   -4.5572097      1728000    1135.7274        31200         1364 
 6250000    1.0484533   -4.5664432      1728000    1137.5623        31250         1366 
 6260000     1.032585   -4.6174149      1728000    1139.3903        31300         1366 
 6270000    1.0502362   -4.6069558      1728000    1141.2382        31350         1366 
 6280000   0.96225791   -4.5334101      1728000    1143.0794        31400         1366 
 6290000   0.98755256   -4.5018703      1728000    1144.9404        31450         1367 
 6300000    1.0409226   -4.6425643      1728000    1146.7685        31500         1368 
 6310000    1.0630827   -4.4564397      1728000    1148.6052        31550         1369 
 6320000    1.0285264   -4.5119374      1728000    1150.4083        31600         1369 
 6330000    1.0094569   -4.4819536      1728000    1152.2204        31650         1369 
 6340000    1.0220902   -4.4779582      1728000    1154.0344        31700         1369 
 6350000    1.0042958   -4.5838781      1728000    1155.8584        31750         1370 
 6360000   0.94715834   -4.5050926      1728000    1157.6881        31800         1373 
 6370000   0.99979868   -4.5470288      1728000    1159.5433        31850         1373 
 6380000   0.98349262   -4.4527756      1728000    1161.4185        31900         1373 
 6390000   0.97182372   -4.6938233      1728000      1163.23        31950         1374 
 6400000   0.98156801   -4.5814547      1728000    1165.1041        32000         1374 
 6410000    1.0566735   -4.5747225      1728000    1166.9426        32050         1375 
 6420000    1.0113248   -4.5524504      1728000     1168.794        32100         1375 
 6430000    1.0500854    -4.454829      1728000    1170.6281        32150         1375 
 6440000   0.98765749    -4.443164      1728000    1172.4422        32200         1375 
 6450000    1.0251785   -4.6362244      1728000    1174.2751        32250         1377 
 6460000    1.0646097   -4.6835888      1728000    1176.0922        32300         1379 
 6470000   0.95708616   -4.5761375      1728000    1178.2471        32350         1382 
 6480000   0.97145546   -4.6698474      1728000     1180.374        32400         1382 
 6490000    1.0112141   -4.5284145      1728000    1182.2055        32450         1383 
 6500000   0.97022515   -4.4527553      1728000    1184.0572        32500         1384 
 6510000    1.0001316    -4.509958      1728000    1185.8921        32550         1384 
 6520000   0.99678403   -4.5228046      1728000    1187.7051        32600         1385 
 6530000   0.96716481   -4.4229977      1728000    1189.5471        32650         1385 
 6540000   0.97340271   -4.4715982      1728000     1191.382        32700         1386 
 6550000    1.0058256   -4.6028638      1728000    1193.2202        32750         1388 
 6560000    1.0409919   -4.6305538      1728000    1195.0601        32800         1389 
 6570000    1.0716442   -4.5383061      1728000    1196.8862        32850         1389 
 6580000   0.96300543   -4.6971943      1728000    1198.7243        32900         1389 
 6590000    1.0097411   -4.5044195      1728000    1200.5442        32950         1391 
 6600000   0.97195747   -4.4407397      1728000    1202.3622        33000         1394 
 6610000   0.99076312   -4.5500955      1728000    1204.1841        33050         1396 
 6620000   0.99700897   -4.5584501      1728000     1206.013        33100         1396 
 6630000    1.0347107   -4.5152332      1728000    1207.8782        33150         1399 
 6640000     1.008413   -4.5477273      1728000    1209.7016        33200         1399 
 6650000    1.0048906   -4.4340626      1728000    1211.5371        33250         1399 
 6660000   0.96361764   -4.5862869      1728000    1213.3597        33300         1401 
 6670000   0.97827925   -4.4388802      1728000    1215.1761        33350         1402 
 6680000    1.0657372   -4.5064243      1728000    1217.0171        33400         1403 
 6690000   0.95137777   -4.6612243      1728000    1218.8582        33450         1405 
 6700000     1.019695   -4.4856073      1728000    1220.6921        33500         1406 
 6710000   0.97253414     -4.56153      1728000    1222.5044        33550         1406 
 6720000    1.0436325   -4.5375596      1728000    1224.3783        33600         1406 
 6730000   0.96817431   -4.6201274      1728000    1226.2442        33650         1407 
 6740000    1.0568911   -4.6427834      1728000    1228.0912        33700         1407 
 6750000   0.96161688   -4.6084719      1728000    1229.9251        33750         1407 
 6760000   0.99455866   -4.4949417      1728000    1231.7592        33800         1407 
 6770000    1.0356064   -4.3839898      1728000    1233.6043        33850         1407 
 6780000   0.99374041   -4.4290385      1728000    1235.4343        33900         1408 
 6790000   0.98338173   -4.5217869      1728000    1237.2451        33950         1409 
 6800000   0.97926721    -4.527317      1728000    1239.0941        34000         1410 
 6810000    1.0132736   -4.4839815      1728000    1240.8983        34050         1410 
 6820000   0.98642646   -4.5167588      1728000    1242.7039        34100         1410 
 6830000    0.9427092   -4.6107285      1728000    1244.5412        34150         1410 
 6840000    0.9653574   -4.6510267      1728000    1246.3603        34200         1412 
 6850000   0.94042473   -4.5076964      1728000     1248.192        34250         1413 
 6860000   0.94006391    -4.520926      1728000    1250.0281        34300         1415 
 6870000    0.9333979   -4.5480206      1728000    1251.8741        34350         1416 
 6880000    1.0035019   -4.5880206      1728000    1253.6871        34400         1418 
 6890000    1.0053803    -4.507698      1728000    1255.5432        34450         1419 
 6900000   0.94978816   -4.6710273      1728000    1257.3801        34500         1419 
 6910000    1.0497868   -4.5154437      1728000    1259.2701        34550         1420 
 6920000    1.1214378   -4.5019089      1728000    1261.0969        34600         1420 
 6930000   0.99086637   -4.5115429      1728000     1262.944        34650         1422 
 6940000   0.95955886   -4.4939646      1728000    1264.8113        34700         1422 
 6950000   0.96221164   -4.5135098      1728000    1266.6381        34750         1422 
 6960000   0.99477857   -4.5044486      1728000     1268.466        34800         1424 
 6970000   0.96685678   -4.5162978      1728000     1270.309        34850         1426 
 6980000    1.0343641   -4.5318712      1728000    1272.1756        34900         1427 
 6990000   0.98037324   -4.5701952      1728000    1274.0372        34950         1427 
 7000000   0.96805344   -4.6088674      1728000    1275.9091        35000         1427 
 7010000   0.95788045   -4.5974424      1728000    1277.7118        35050         1427 
 7020000   0.98406705   -4.5062075      1728000    1279.5411        35100         1429 
 7030000    1.1099975   -4.5107387      1728000    1281.3581        35150         1430 
 7040000   0.98818853   -4.6351489      1728000     1283.209        35200         1430 
 7050000   0.97876557   -4.7289446      1728000    1285.3665        35250         1431 
 7060000    1.0427964   -4.5994558      1728000    1287.2069        35300         1431 
 7070000   0.97384407   -4.5191644      1728000    1289.0481        35350         1431 
 7080000    1.0010001   -4.6111459      1728000    1290.8982        35400         1432 
 7090000   0.97587755   -4.6469481      1728000    1292.7002        35450         1432 
 7100000     0.975262   -4.5760354      1728000    1294.5741        35500         1432 
 7110000    1.0274209   -4.5672012      1728000     1296.417        35550         1433 
 7120000   0.96643214   -4.5289015      1728000    1298.2294        35600         1434 
 7130000   0.94992114   -4.5464048      1728000    1300.0602        35650         1435 
 7140000    0.9529707    -4.406025      1728000     1301.896        35700         1435 
 7150000   0.99631594   -4.6097202      1728000    1303.7133        35750         1437 
 7160000   0.93037656   -4.6097971      1728000     1305.563        35800         1439 
 7170000   0.98934169   -4.5320766      1728000       1307.4        35850         1440 
 7180000     0.948027   -4.5620484      1728000     1309.243        35900         1441 
 7190000    1.0287349   -4.6016389      1728000     1311.069        35950         1445 
 7200000   0.99974661   -4.5945082      1728000     1312.897        36000         1446 
 7210000   0.98999524   -4.4475947      1728000    1314.7242        36050         1447 
 7220000   0.96782164   -4.5447894      1728000    1316.5402        36100         1448 
 7230000   0.98936874   -4.6363096      1728000    1318.3651        36150         1449 
 7240000    1.0172947   -4.6463359      1728000     1320.174        36200         1449 
 7250000   0.93628759   -4.4912537      1728000    1322.0248        36250         1449 
 7260000    1.0148775   -4.5868007      1728000    1323.8929        36300         1449 
 7270000   0.94784337   -4.4265845      1728000    1325.7081        36350         1452 
 7280000    0.9704661   -4.5126029      1728000    1327.5011        36400         1452 
 7290000   0.98565961   -4.5115731      1728000    1329.3568        36450         1455 
 7300000    1.0789964   -4.5725822      1728000     1331.245        36500         1455 
 7310000   0.97809131    -4.488995      1728000    1333.0781        36550         1455 
 7320000   0.96211007   -4.4993225      1728000    1334.9047        36600         1458 
 7330000   0.94890462   -4.5260097      1728000     1336.752        36650         1458 
 7340000     1.114885   -4.3922552      1728000    1338.5733        36700         1459 
 7350000     1.055322   -4.5408129      1728000    1340.4015        36750         1461 
 7360000    1.0625804   -4.5279314      1728000    1342.2191        36800         1462 
 7370000   0.97871303   -4.5327308      1728000    1344.0412        36850         1465 
 7380000    1.0383421   -4.5637315      1728000    1345.8771        36900         1467 
 7390000    1.0318263   -4.5295738      1728000    1347.7308        36950         1468 
 7400000    1.0165967   -4.5126517      1728000    1349.5699        37000         1468 
 7410000   0.96742347   -4.5446208      1728000    1351.4117        37050         1469 
 7420000    1.0409558    -4.553879      1728000    1353.2261        37100         1469 
 7430000    1.0520661   -4.5781239      1728000     1355.059        37150         1470 
 7440000    1.0306337   -4.4835365      1728000     1356.876        37200         1470 
 7450000    1.0400791   -4.5359056      1728000    1358.7371        37250         1470 
 7460000    1.0543341   -4.5886033      1728000    1360.5521        37300         1473 
 7470000    1.0495066   -4.4591857      1728000    1362.3935        37350         1474 
 7480000    1.0103359   -4.5727855      1728000    1364.2017        37400         1475 
 7490000    1.0069377   -4.5836629      1728000    1366.0299        37450         1476 
 7500000   0.98342371   -4.4582292      1728000    1367.8669        37500         1476 
 7510000   0.97809711   -4.6067061      1728000     1369.709        37550         1477 
 7520000     1.009553   -4.6552956      1728000    1371.5488        37600         1479 
 7530000    1.0075297   -4.4440729      1728000    1373.3782        37650         1479 
 7540000    1.0772123   -4.5540725      1728000    1375.2211        37700         1481 
 7550000    1.0128866   -4.5241732      1728000    1377.0541        37750         1482 
 7560000     1.015347   -4.5322434      1728000    1378.8789        37800         1482 
 7570000   0.96667397   -4.6202777      1728000    1380.7178        37850         1482 
 7580000    1.0240931   -4.6330108      1728000    1382.5469        37900         1482 
 7590000   0.97159174   -4.4237193      1728000     1384.358        37950         1482 
 7600000   0.94719689   -4.5272145      1728000    1386.2006        38000         1482 
 7610000    1.0080725   -4.5353647      1728000    1388.0801        38050         1482 
 7620000    0.9752285   -4.5289449      1728000    1390.2342        38100         1482 
 7630000     1.001272   -4.5390786      1728000    1392.0468        38150         1483 
 7640000   0.96242478   -4.5554676      1728000    1393.8727        38200         1483 
 7650000   0.99453209    -4.524093      1728000    1395.6945        38250         1485 
 7660000    1.0078037   -4.5149563      1728000    1397.5109        38300         1486 
 7670000    1.0819036   -4.6201213      1728000    1399.3428        38350         1487 
 7680000    1.0574908   -4.6317079      1728000    1401.2078        38400         1488 
 7690000   0.99582381   -4.5914745      1728000    1403.0548        38450         1489 
 7700000   0.96308157   -4.4931404      1728000    1404.8668        38500         1489 
 7710000    1.0032775   -4.5336122      1728000    1406.7157        38550         1490 
 7720000     1.030725   -4.5251476      1728000    1408.5208        38600         1490 
 7730000   0.99978635    -4.631285      1728000    1410.3717        38650         1491 
 7740000    1.0730474   -4.5168614      1728000    1412.1968        38700         1491 
 7750000   0.96624507   -4.5809971      1728000    1414.0728        38750         1492 
 7760000   0.99520244   -4.5839753      1728000    1415.9006        38800         1494 
 7770000    1.0184573   -4.5314567      1728000    1417.7329        38850         1495 
 7780000    1.0339879   -4.5355466      1728000    1419.5608        38900         1495 
 7790000    1.0230693   -4.6415764      1728000    1421.3788        38950         1497 
 7800000   0.97995965   -4.4921832      1728000    1423.2198        39000         1499 
 7810000    1.0052006   -4.4662256      1728000    1425.0629        39050         1500 
 7820000   0.99794226   -4.4606365      1728000    1426.9507        39100         1501 
 7830000    1.0291906   -4.5856138      1728000    1428.8166        39150         1503 
 7840000   0.97210791   -4.4584711      1728000    1430.6897        39200         1504 
 7850000   0.99732212   -4.6049833      1728000    1432.5838        39250         1504 
 7860000    1.0242806   -4.4578435      1728000    1434.4268        39300         1506 
 7870000   0.95682961   -4.6026119      1728000    1436.2538        39350         1509 
 7880000    0.9955212   -4.6596839      1728000    1438.0871        39400         1509 
 7890000     1.001921   -4.5232179      1728000    1439.9007        39450         1510 
 7900000    1.0094223   -4.5341397      1728000    1441.7303        39500         1512 
 7910000    1.0246264    -4.617984      1728000    1443.5377        39550         1514 
 7920000   0.96353082   -4.5879969      1728000    1445.3692        39600         1514 
 7930000   0.95194496   -4.4522996      1728000    1447.2076        39650         1515 
 7940000   0.97414025   -4.4789524      1728000    1449.0138        39700         1516 
 7950000    0.9576524   -4.3773618      1728000    1450.8385        39750         1517 
 7960000     1.062672    -4.611239      1728000    1452.6505        39800         1518 
 7970000   0.97005029   -4.5436417      1728000    1454.4707        39850         1518 
 7980000   0.99076287   -4.5188956      1728000    1456.2849        39900         1519 
 7990000    0.9755321   -4.4328098      1728000    1458.1168        39950         1520 
 8000000    1.0023766   -4.5126931      1728000    1459.9567        40000         1520 
 8010000    1.0296972   -4.5578341      1728000    1461.8037        40050         1520 
 8020000    1.0297567   -4.5329177      1728000    1463.6136        40100         1522 
 8030000    1.0139514   -4.4954095      1728000    1465.4358        40150         1523 
 8040000    1.0443426   -4.6283544      1728000    1467.2678        40200         1523 
 8050000   0.99043165   -4.4427432      1728000    1469.1311        40250         1524 
 8060000     1.036428    -4.520991      1728000    1470.9504        40300         1527 
 8070000   0.98012603   -4.4867133      1728000    1472.7847        40350         1528 
 8080000    1.0170153   -4.6892957      1728000    1474.6201        40400         1529 
 8090000   0.97922129   -4.5024038      1728000    1476.4419        40450         1529 
 8100000    1.0115765   -4.4937752      1728000    1478.2826        40500         1530 
 8110000   0.99441091   -4.6078046      1728000    1480.1488        40550         1531 
 8120000    1.0125733   -4.6060319      1728000    1482.0236        40600         1532 
 8130000    1.0228132   -4.5493237      1728000    1483.9185        40650         1535 
 8140000   0.96003856   -4.5232831      1728000    1485.7292        40700         1536 
 8150000   0.99999587   -4.5936291      1728000     1487.582        40750         1537 
 8160000   0.95204579   -4.5865649      1728000    1489.4473        40800         1538 
 8170000    1.0525223   -4.6782811      1728000    1491.2956        40850         1539 
 8180000    1.0052483   -4.5591616      1728000     1493.136        40900         1540 
 8190000    1.0552745   -4.6148409      1728000    1494.9707        40950         1540 
 8200000    1.0043735   -4.5457706      1728000    1497.1248        41000         1540 
 8210000   0.97599363   -4.6267689      1728000    1499.0192        41050         1541 
 8220000   0.99032987   -4.5732008      1728000    1500.8489        41100         1543 
 8230000   0.93492443   -4.4547571      1728000     1502.667        41150         1545 
 8240000   0.95806941   -4.6732029      1728000    1504.4995        41200         1546 
 8250000   0.99391479   -4.4914526      1728000    1506.3585        41250         1547 
 8260000    1.0336848   -4.5097591      1728000    1508.2098        41300         1550 
 8270000    1.0789562   -4.5096818      1728000     1510.046        41350         1550 
 8280000   0.98714956   -4.5001076      1728000    1511.8909        41400         1550 
 8290000    1.0180578   -4.4886305      1728000    1513.7468        41450         1553 
 8300000   0.97927716   -4.4992277      1728000    1515.5869        41500         1553 
 8310000   0.98233342   -4.5427012      1728000    1517.4477        41550         1554 
 8320000    1.0220133   -4.5571258      1728000    1519.2989        41600         1556 
 8330000    1.0479656   -4.4521638      1728000    1521.1348        41650         1557 
 8340000   0.98521579    -4.603267      1728000    1522.9628        41700         1557 
 8350000    0.9084385   -4.7292429      1728000    1524.7767        41750         1558 
 8360000   0.99615416   -4.6043697      1728000    1526.6196        41800         1558 
 8370000    1.0185807    -4.580162      1728000    1528.4535        41850         1558 
 8380000    1.0338048   -4.7549422      1728000    1530.2693        41900         1560 
 8390000    1.0086296   -4.5140303      1728000    1532.0857        41950         1560 
 8400000   0.94018214   -4.6207332      1728000    1533.9537        42000         1562 
 8410000   0.98465305   -4.5847336      1728000    1535.7786        42050         1564 
 8420000   0.97064439   -4.4495195      1728000    1537.6237        42100         1564 
 8430000    1.0205645   -4.6150448      1728000    1539.4705        42150         1564 
 8440000   0.99327036   -4.4373499      1728000    1541.2865        42200         1566 
 8450000    0.9967539   -4.5344836      1728000    1543.1106        42250         1568 
 8460000   0.99373083   -4.6487063      1728000    1544.9668        42300         1568 
 8470000      0.96102   -4.5244243      1728000    1546.7704        42350         1569 
 8480000    1.0022308   -4.4924506      1728000    1548.5865        42400         1570 
 8490000    1.0201563   -4.5854644      1728000    1550.3969        42450         1570 
 8500000   0.98219024   -4.4631217      1728000    1552.2591        42500         1570 
 8510000   0.95499513   -4.4451107      1728000    1554.0658        42550         1571 
 8520000    1.0158275   -4.5116133      1728000    1555.8853        42600         1571 
 8530000   0.94909023   -4.4854279      1728000     1557.697        42650         1571 
 8540000    1.0165678   -4.4759434      1728000    1559.5132        42700         1571 
 8550000    1.0185759   -4.5303637      1728000    1561.3367        42750         1572 
 8560000   0.93658418   -4.6080765      1728000    1563.1645        42800         1572 
 8570000   0.98710539   -4.5255561      1728000    1565.0033        42850         1574 
 8580000    0.9323382   -4.6898279      1728000    1566.8446        42900         1574 
 8590000    1.0346595   -4.5164936      1728000    1568.6631        42950         1574 
 8600000   0.98223326   -4.5702517      1728000    1570.4788        43000         1575 
 8610000    1.0297211   -4.4870789      1728000    1572.2956        43050         1575 
 8620000   0.99099724   -4.5062866      1728000    1574.1078        43100         1575 
 8630000    1.0393104   -4.6214963      1728000    1575.9379        43150         1575 
 8640000    1.0277661   -4.5777345      1728000    1577.7974        43200         1576 
 8650000    1.0097766     -4.55577      1728000    1579.6067        43250         1577 
 8660000    1.0032639   -4.4278089      1728000    1581.4237        43300         1578 
 8670000   0.98678874   -4.5393747      1728000    1583.2726        43350         1580 
 8680000    1.0354437    -4.520579      1728000    1585.0973        43400         1580 
 8690000   0.98205245   -4.5098812      1728000    1586.9445        43450         1581 
 8700000   0.97631104   -4.6379731      1728000    1588.7936        43500         1582 
 8710000    1.0461148   -4.6003794      1728000    1590.6477        43550         1582 
 8720000   0.99644402   -4.6770453      1728000    1592.4569        43600         1583 
 8730000    0.9949392   -4.6750074      1728000    1594.2878        43650         1584 
 8740000   0.97326102   -4.5379241      1728000    1596.1267        43700         1585 
 8750000   0.98505373   -4.5271472      1728000    1597.9619        43750         1585 
 8760000    1.0434559   -4.6136011      1728000    1599.7888        43800         1586 
 8770000    1.0360176   -4.5357161      1728000    1601.6013        43850         1587 
 8780000   0.98627327   -4.6352395      1728000    1603.4113        43900         1587 
 8790000    1.0433529   -4.7040577      1728000    1605.2335        43950         1587 
 8800000   0.94215303   -4.5149316      1728000    1607.0857        44000         1589 
 8810000   0.99653042   -4.6646507      1728000    1608.9308        44050         1591 
 8820000     0.965639   -4.6555172      1728000    1610.7452        44100         1591 
 8830000    1.0231046    -4.499452      1728000    1612.5639        44150         1591 
 8840000    1.0076185   -4.5555032      1728000    1614.4024        44200         1593 
 8850000    1.0303753   -4.5918603      1728000    1616.2345        44250         1594 
 8860000   0.97773593   -4.5702018      1728000    1618.0557        44300         1595 
 8870000    1.0524192   -4.4491282      1728000    1619.8727        44350         1595 
 8880000    0.9567041   -4.6273419      1728000       1621.7        44400         1596 
 8890000   0.99324028   -4.4394189      1728000    1623.5365        44450         1599 
 8900000    1.0342502   -4.5988881      1728000    1625.4254        44500         1599 
 8910000   0.99244604    -4.593937      1728000    1627.3094        44550         1600 
 8920000    1.0125688   -4.5770763      1728000    1629.1735        44600         1600 
 8930000   0.97607167   -4.5836526      1728000    1631.0055        44650         1600 
 8940000     1.028876   -4.6413736      1728000    1632.8487        44700         1600 
 8950000    1.0122662   -4.6405149      1728000    1634.7034        44750         1601 
 8960000    1.0322784   -4.5985948      1728000    1636.5766        44800         1602 
 8970000   0.96120911   -4.6279302      1728000    1638.4034        44850         1603 
 8980000   0.95333778    -4.585039      1728000    1640.2315        44900         1603 
 8990000    0.9821087   -4.5371246      1728000    1642.0686        44950         1603 
 9000000    1.0075031   -4.4550207      1728000    1643.9357        45000         1604 
 9010000    1.0422585   -4.4323514      1728000    1645.9922        45050         1605 
 9020000    1.0627874   -4.6399472      1728000    1647.8951        45100         1607 
 9030000     1.004475   -4.6040001      1728000    1649.7223        45150         1608 
 9040000   0.98815811   -4.6730804      1728000    1651.5515        45200         1608 
 9050000   0.99964156   -4.6619301      1728000    1653.4234        45250         1608 
 9060000   0.96485367   -4.5831038      1728000    1655.2756        45300         1610 
 9070000    1.0491713   -4.4934942      1728000     1657.137        45350         1612 
 9080000    1.0089652   -4.5988516      1728000    1658.9726        45400         1612 
 9090000   0.96089367   -4.6628247      1728000    1660.7932        45450         1612 
 9100000    1.0317953   -4.5162769      1728000    1662.6414        45500         1613 
 9110000   0.97840911   -4.5670414      1728000    1664.4654        45550         1613 
 9120000   0.98919125   -4.5526032      1728000    1666.3054        45600         1614 
 9130000   0.96082194     -4.53215      1728000    1668.1366        45650         1615 
 9140000    1.0064499     -4.48502      1728000    1669.9633        45700         1615 
 9150000     1.008272   -4.6170062      1728000    1671.7794        45750         1617 
 9160000    1.0210008   -4.5130261      1728000    1673.6035        45800         1619 
 9170000   0.99008409   -4.4871094      1728000     1675.432        45850         1622 
 9180000   0.99027514   -4.5735062      1728000    1677.2856        45900         1622 
 9190000   0.95249369   -4.7217792      1728000     1679.115        45950         1623 
 9200000   0.98086992   -4.6496279      1728000     1680.947        46000         1623 
 9210000   0.95493469    -4.666722      1728000    1682.7936        46050         1623 
 9220000   0.96644437   -4.4552078      1728000    1684.6464        46100         1623 
 9230000    1.0054446   -4.5496288      1728000    1686.4757        46150         1623 
 9240000    1.0561078   -4.6271282      1728000    1688.3573        46200         1624 
 9250000    1.0668952   -4.7461736      1728000     1690.185        46250         1625 
 9260000   0.99848755   -4.6602835      1728000    1692.0612        46300         1625 
 9270000    1.0179188   -4.6413557      1728000    1693.9015        46350         1626 
 9280000    1.0045996   -4.6278003      1728000    1695.7272        46400         1626 
 9290000   0.97221052   -4.4822195      1728000    1697.5498        46450         1626 
 9300000    1.0794921   -4.5403408      1728000    1699.3843        46500         1628 
 9310000   0.97773606   -4.4715185      1728000    1701.2113        46550         1628 
 9320000    1.0320318   -4.5596535      1728000     1703.039        46600         1629 
 9330000    1.0477912   -4.5463314      1728000    1704.9381        46650         1630 
 9340000    1.0778133    -4.641303      1728000    1706.7855        46700         1630 
 9350000    0.9413613    -4.477071      1728000    1708.6068        46750         1630 
 9360000   0.97999609   -4.6509886      1728000    1710.4776        46800         1630 
 9370000    1.0192917   -4.6394316      1728000    1712.3419        46850         1631 
 9380000    1.0175278   -4.6807324      1728000    1714.1945        46900         1631 
 9390000   0.99317693    -4.606687      1728000    1716.0218        46950         1631 
 9400000    1.0438002   -4.6432687      1728000    1717.8593        47000         1632 
 9410000   0.98192124   -4.6595088      1728000    1719.6889        47050         1632 
 9420000   0.98833007   -4.5352787      1728000    1721.5215        47100         1634 
 9430000    0.9939306   -4.5022767      1728000    1723.3555        47150         1634 
 9440000    1.0423297   -4.6982838      1728000    1725.1829        47200         1634 
 9450000    0.9618274    -4.647665      1728000    1727.0261        47250         1635 
 9460000   0.92394444   -4.6225948      1728000    1728.8697        47300         1635 
 9470000    1.0602988   -4.5824609      1728000    1730.6845        47350         1636 
 9480000   0.98556227    -4.571655      1728000    1732.5075        47400         1637 
 9490000    1.0129542   -4.7035217      1728000    1734.3502        47450         1638 
 9500000   0.92240118   -4.5230427      1728000    1736.1775        47500         1640 
 9510000   0.99090898   -4.5721876      1728000    1738.0117        47550         1641 
 9520000   0.99294725   -4.5618463      1728000    1739.8213        47600         1641 
 9530000   0.98572281   -4.5724799      1728000    1741.6418        47650         1641 
 9540000   0.97541358   -4.6462868      1728000     1743.474        47700         1643 
 9550000    1.0602665   -4.5534995      1728000    1745.3121        47750         1645 
 9560000   0.93325272   -4.6771931      1728000    1747.1475        47800         1645 
 9570000    1.0192668   -4.5935705      1728000    1748.9961        47850         1645 
 9580000   0.94115502   -4.6236342      1728000    1750.8383        47900         1647 
 9590000    1.0087324   -4.3718277      1728000    1752.6483        47950         1649 
 9600000    1.0379888   -4.3354896      1728000    1754.4845        48000         1650 
 9610000    1.0268003   -4.4905985      1728000    1756.3133        48050         1652 
 9620000   0.98561362   -4.5159527      1728000    1758.1705        48100         1653 
 9630000   0.98913836   -4.5272377      1728000    1759.9804        48150         1653 
 9640000   0.95340173   -4.4669318      1728000    1761.8054        48200         1653 
 9650000    1.0068043    -4.651738      1728000      1763.63        48250         1654 
 9660000    1.0091151   -4.5733714      1728000    1765.4549        48300         1656 
 9670000   0.99132304   -4.5188717      1728000    1767.2726        48350         1658 
 9680000    1.0004746   -4.5716373      1728000    1769.1288        48400         1658 
 9690000    1.0001629   -4.4811719      1728000    1770.9743        48450         1660 
 9700000    1.0475287   -4.4678329      1728000     1772.805        48500         1660 
 9710000   0.94997868   -4.5810799      1728000    1774.6386        48550         1661 
 9720000    0.9758069   -4.6013028      1728000    1776.4629        48600         1661 
 9730000    1.0530649   -4.5765487      1728000    1778.2822        48650         1661 
 9740000   0.96012244   -4.6000478      1728000    1780.1013        48700         1664 
 9750000   0.94894596   -4.5364699      1728000    1781.9175        48750         1666 
 9760000   0.96798375   -4.6686437      1728000    1783.7317        48800         1666 
 9770000    0.9967294   -4.5170059      1728000    1785.5568        48850         1666 
 9780000   0.96592993   -4.6074357      1728000    1787.4101        48900         1666 
 9790000    1.0491092   -4.6725244      1728000    1789.2258        48950         1666 
 9800000    0.9528019   -4.5144946      1728000    1791.0605        49000         1667 
 9810000    1.0685455   -4.6726442      1728000    1792.9126        49050         1668 
 9820000    1.0375961    -4.484778      1728000    1794.7553        49100         1668 
 9830000   0.99126926   -4.6454887      1728000    1796.6109        49150         1668 
 9840000   0.98122397   -4.5470506      1728000    1798.4434        49200         1668 
 9850000    1.0289623   -4.4829986      1728000    1800.2552        49250         1668 
 9860000    1.0421291   -4.5585874      1728000    1802.0715        49300         1670 
 9870000   0.93060792   -4.5911819      1728000    1803.9297        49350         1670 
 9880000   0.98567198   -4.6559149      1728000    1805.7728        49400         1672 
 9890000   0.98133365   -4.5864889      1728000    1807.6085        49450         1672 
 9900000   0.93917697   -4.6225056      1728000    1809.4636        49500         1673 
 9910000   0.93777569    -4.659286      1728000    1811.3165        49550         1673 
 9920000    1.0180855   -4.6728362      1728000    1813.1504        49600         1673 
 9930000    1.0700607   -4.5060845      1728000    1814.9955        49650         1674 
 9940000   0.97795752   -4.6181126      1728000    1816.8096        49700         1678 
 9950000    1.0280917   -4.5421475      1728000    1818.6472        49750         1679 
 9960000   0.98935722   -4.5769951      1728000    1820.4766        49800         1679 
 9970000   0.98734754   -4.5900503      1728000    1822.3179        49850         1680 
 9980000    1.0207937   -4.6096128      1728000    1824.1312        49900         1682 
 9990000   0.99177802   -4.4675478      1728000    1825.9895        49950         1682 
10000000    0.9821144   -4.6971129      1728000    1827.8647        50000         1683 
10010000     1.019222   -4.5615624      1728000    1829.7069        50050         1683 
10020000   0.99478469   -4.5316121      1728000      1831.53        50100         1683 
10030000    1.0285903   -4.6791789      1728000    1833.3761        50150         1683 
10040000    1.0079788   -4.6045408      1728000    1835.2707        50200         1683 
10050000    1.0178769   -4.6306943      1728000    1837.1304        50250         1683 
10060000     1.010399   -4.6180329      1728000    1838.9716        50300         1683 
10070000   0.99620786   -4.6639109      1728000    1840.8161        50350         1684 
10080000     1.011078   -4.5498609      1728000    1842.6422        50400         1684 
10090000    1.0219818   -4.5718102      1728000    1844.7916        50450         1684 
10100000   0.99307044   -4.6574128      1728000    1846.6426        50500         1685 
10110000   0.99341788   -4.5794069      1728000    1848.4764        50550         1685 
10120000   0.97350863   -4.5570936      1728000    1850.3073        50600         1686 
10130000    0.9760022    -4.457077      1728000    1852.1308        50650         1686 
10140000   0.99801386   -4.5500505      1728000    1853.9781        50700         1686 
10150000   0.99801773   -4.6464134      1728000    1855.8198        50750         1686 
10160000     1.055852   -4.6190275      1728000    1857.6473        50800         1688 
10170000    0.9940104    -4.610038      1728000    1859.4729        50850         1688 
10180000   0.96475798   -4.5387748      1728000     1861.315        50900         1690 
10190000   0.96320283   -4.6489328      1728000    1863.1781        50950         1691 
10200000    1.0099472   -4.6809327      1728000    1865.0023        51000         1692 
10210000   0.99386502   -4.4848094      1728000    1866.8294        51050         1694 
10220000    1.0406079   -4.5065825      1728000    1868.6645        51100         1694 
10230000   0.95129924   -4.4635795      1728000     1870.517        51150         1694 
10240000    1.0043332   -4.6526974      1728000    1872.4606        51200         1696 
10250000    1.0297976   -4.6069276      1728000     1874.322        51250         1696 
10260000   0.98319317   -4.5806159      1728000    1876.1965        51300         1696 
10270000     1.035861   -4.5866707      1728000    1878.0301        51350         1696 
10280000    0.9782867   -4.4473472      1728000    1879.8333        51400         1696 
10290000    1.0166972   -4.6213784      1728000    1881.6491        51450         1696 
10300000    1.0120091   -4.5320052      1728000    1883.4925        51500         1696 
10310000   0.95953575   -4.5215487      1728000    1885.3164        51550         1696 
10320000    1.0396489   -4.6781087      1728000    1887.1775        51600         1696 
10330000    0.9868665   -4.5977157      1728000     1889.007        51650         1696 
10340000    1.0481764   -4.5024949      1728000    1890.8421        51700         1696 
10350000    1.0618885   -4.6206353      1728000     1892.642        51750         1696 
10360000     1.004555   -4.6224855      1728000    1894.4792        51800         1696 
10370000   0.90712777   -4.7661008      1728000    1896.3061        51850         1696 
10380000   0.92356419   -4.6321937      1728000     1898.118        51900         1696 
10390000    1.0059863   -4.5007426      1728000    1899.9633        51950         1696 
10400000    1.0453011   -4.6400557      1728000    1901.7956        52000         1696 
10410000     1.004681   -4.5667148      1728000     1903.624        52050         1697 
10420000   0.98566944   -4.5985175      1728000    1905.4309        52100         1698 
10430000   0.98367327   -4.5689855      1728000     1907.286        52150         1698 
10440000    0.9923858   -4.5632496      1728000    1909.1263        52200         1699 
10450000    1.0265782   -4.6225748      1728000    1910.9261        52250         1700 
10460000    1.0133398   -4.5657542      1728000    1912.7499        52300         1700 
10470000   0.96595928   -4.7181134      1728000    1914.5714        52350         1701 
10480000    1.0210032   -4.6456532      1728000    1916.3952        52400         1701 
10490000    0.9429454   -4.5829655      1728000    1918.2359        52450         1701 
10500000     1.022857   -4.4801337      1728000    1920.0936        52500         1703 
10510000   0.98152881   -4.7771855      1728000    1921.9223        52550         1704 
10520000   0.96417295   -4.6708655      1728000    1923.7569        52600         1704 
10530000    1.0150412   -4.7027224      1728000    1925.6272        52650         1704 
10540000   0.97258875   -4.6456586      1728000    1927.4665        52700         1704 
10550000   0.98614989   -4.5993785      1728000    1929.3158        52750         1705 
10560000    1.0286385   -4.5827096      1728000    1931.1602        52800         1705 
10570000   0.95081383   -4.7076416      1728000    1932.9879        52850         1705 
10580000     1.016943     -4.66884      1728000    1934.8239        52900         1707 
10590000   0.99986441   -4.6483221      1728000     1936.654        52950         1707 
10600000   0.98624302   -4.6146136      1728000    1938.5105        53000         1708 
10610000    1.0620556   -4.5846292      1728000    1940.3249        53050         1708 
10620000    1.0251394   -4.5422212      1728000    1942.1605        53100         1708 
10630000    1.0546211   -4.7696166      1728000    1943.9924        53150         1708 
10640000   0.99127426    -4.472438      1728000    1945.8185        53200         1708 
10650000   0.99415422   -4.4624931      1728000     1947.645        53250         1709 
10660000    1.0120091   -4.5690469      1728000    1949.4654        53300         1709 
10670000   0.97613696   -4.4888446      1728000    1951.2988        53350         1711 
10680000     1.020657   -4.5543927      1728000    1953.1399        53400         1712 
10690000   0.99543471   -4.6535016      1728000    1954.9783        53450         1712 
10700000   0.96346531   -4.5396189      1728000    1956.8057        53500         1713 
10710000   0.98381348   -4.5782549      1728000    1958.6238        53550         1713 
10720000    1.0126825   -4.5646575      1728000    1960.4605        53600         1714 
10730000   0.98320692    -4.493587      1728000    1962.2662        53650         1714 
10740000   0.95714413   -4.5473135      1728000    1964.3828        53700         1714 
10750000     1.056395   -4.5061696      1728000    1966.1968        53750         1716 
10760000    1.0851679   -4.5531276      1728000    1968.0107        53800         1717 
10770000    1.0384156   -4.5842709      1728000    1969.8252        53850         1717 
10780000    1.0040738   -4.5898815      1728000      1971.65        53900         1717 
10790000    1.0298629   -4.4714814      1728000     1973.479        53950         1719 
10800000    1.0633851   -4.5019779      1728000    1975.2992        54000         1720 
10810000     1.023506   -4.6537374      1728000    1977.1447        54050         1721 
10820000   0.98476893   -4.4680791      1728000    1978.9683        54100         1723 
10830000   0.99655572   -4.5206517      1728000    1980.7749        54150         1723 
10840000   0.99745189   -4.5043302      1728000     1982.584        54200         1724 
10850000    1.0180472   -4.5801635      1728000    1984.3998        54250         1725 
10860000   0.99973323   -4.7027928      1728000    1986.1962        54300         1726 
10870000    1.0329191   -4.5172187      1728000    1988.0361        54350         1727 
10880000    1.0311357   -4.5110534      1728000    1989.8513        54400         1727 
10890000    1.0342359   -4.6720932      1728000    1991.6566        54450         1727 
10900000    1.0278507    -4.388079      1728000    1993.5041        54500         1728 
10910000   0.97221239   -4.5577884      1728000    1995.3146        54550         1728 
10920000    1.0038434    -4.552593      1728000    1997.1237        54600         1728 
10930000    1.0578113   -4.6065346      1728000     1998.936        54650         1730 
10940000    1.0172188   -4.5116785      1728000    2000.7278        54700         1733 
10950000   0.97079455   -4.6297047      1728000    2002.5761        54750         1735 
10960000   0.99201967   -4.5688954      1728000    2004.3809        54800         1735 
10970000   0.94599059   -4.6359085      1728000    2006.1868        54850         1736 
10980000    1.0573742   -4.5540211      1728000    2008.0005        54900         1737 
10990000   0.99820675   -4.6102014      1728000    2009.8543        54950         1740 
11000000    1.0608847   -4.6180415      1728000    2011.6928        55000         1742 
11010000    1.0522972   -4.5696974      1728000    2013.5013        55050         1743 
11020000    1.0110144   -4.5691182      1728000     2015.335        55100         1744 
11030000    1.0150814   -4.5183574      1728000    2017.1592        55150         1745 
11040000   0.97657225   -4.6182381      1728000    2018.9742        55200         1745 
11050000    1.0288785   -4.7391042      1728000    2020.7837        55250         1746 
11060000    1.0347451   -4.6530276      1728000    2022.6111        55300         1746 
11070000    1.0001854   -4.5564455      1728000    2024.4513        55350         1746 
11080000    1.0391076    -4.655315      1728000    2026.3047        55400         1746 
11090000    1.0145139   -4.6411607      1728000      2028.14        55450         1746 
11100000    1.0422073   -4.5949798      1728000     2029.978        55500         1747 
11110000    1.0256214   -4.6522339      1728000    2031.8013        55550         1747 
11120000    1.0015986   -4.6583281      1728000    2033.6337        55600         1747 
11130000     1.034909   -4.6113392      1728000    2035.4498        55650         1749 
11140000    1.0005419   -4.6677324      1728000    2037.2872        55700         1751 
11150000   0.95667338    -4.729646      1728000    2039.1111        55750         1752 
11160000   0.96148483   -4.6710996      1728000    2040.9212        55800         1752 
11170000    1.0116934   -4.4855098      1728000    2042.7659        55850         1752 
11180000   0.99010798   -4.7470491      1728000    2044.6399        55900         1752 
11190000     1.029994   -4.6170056      1728000    2046.5969        55950         1752 
11200000    1.0417064   -4.6061255      1728000    2048.4684        56000         1752 
11210000    1.0788466   -4.7019321      1728000    2050.3986        56050         1752 
11220000   0.99770546   -4.5636187      1728000    2052.2083        56100         1752 
11230000   0.98012604   -4.6290447      1728000    2054.0142        56150         1752 
11240000   0.95305536   -4.4664134      1728000    2055.8465        56200         1754 
11250000   0.98928423   -4.7322041      1728000    2057.6777        56250         1754 
11260000    0.9332946   -4.5339541      1728000    2059.5095        56300         1754 
11270000    1.0327394   -4.5676996      1728000     2061.346        56350         1754 
11280000    1.0173668   -4.5105063      1728000    2063.1716        56400         1755 
11290000   0.96688165   -4.6029698      1728000    2064.9928        56450         1756 
11300000      1.01033   -4.6442828      1728000    2066.8213        56500         1756 
11310000    1.0253309   -4.6483672      1728000     2068.643        56550         1756 
11320000    1.0281099   -4.5183789      1728000    2070.4886        56600         1756 
11330000   0.96847947   -4.6515239      1728000    2072.3637        56650         1756 
11340000   0.98704002   -4.7068018      1728000    2074.2006        56700         1756 
11350000   0.99796074   -4.6971966      1728000    2076.0218        56750         1756 
11360000   0.97635415   -4.5826745      1728000    2077.8417        56800         1756 
11370000   0.97646228   -4.5492768      1728000    2079.6719        56850         1757 
11380000   0.99831124   -4.7003196      1728000    2081.5191        56900         1757 
11390000     1.016327   -4.6343477      1728000    2083.3796        56950         1757 
11400000   0.99856947    -4.628324      1728000    2085.2159        57000         1757 
11410000   0.95610629   -4.5340965      1728000     2087.023        57050         1758 
11420000   0.96980339   -4.5849286      1728000    2088.8532        57100         1758 
11430000    1.0291679   -4.5262924      1728000    2090.6613        57150         1758 
11440000   0.99010401   -4.7077266      1728000    2092.4922        57200         1760 
11450000    1.0158855   -4.6424222      1728000    2094.3444        57250         1761 
11460000    1.0488931   -4.6025321      1728000    2096.1568        57300         1762 
11470000    1.0377084   -4.5066155      1728000    2097.9726        57350         1762 
11480000    1.0097494   -4.5451391      1728000    2099.7678        57400         1765 
11490000    1.0318864   -4.4652293      1728000     2101.576        57450         1767 
11500000    1.0145662   -4.5869087      1728000    2103.4137        57500         1767 
11510000    1.0634352   -4.5648096      1728000    2105.2368        57550         1768 
11520000    0.9911976   -4.5036499      1728000    2107.0757        57600         1769 
11530000    1.0537647   -4.5706817      1728000    2108.8998        57650         1774 
11540000    1.0169935   -4.5549348      1728000    2110.7309        57700         1774 
11550000    1.0559059   -4.6278922      1728000    2112.5548        57750         1775 
11560000    1.0479744   -4.5928313      1728000    2114.4697        57800         1776 
11570000    1.0435621   -4.4801353      1728000    2116.3001        57850         1776 
11580000   0.96633836   -4.5860978      1728000    2118.1235        57900         1778 
11590000   0.96403631   -4.5102316      1728000    2119.9351        57950         1780 
11600000    1.0260387     -4.52007      1728000    2121.7862        58000         1781 
11610000    1.0234111   -4.6149664      1728000    2123.6249        58050         1782 
11620000    1.0220107   -4.5601338      1728000    2125.4483        58100         1783 
11630000    1.0143471   -4.5911819      1728000    2127.2798        58150         1785 
11640000    1.0686918    -4.515297      1728000     2129.117        58200         1786 
11650000   0.96327355   -4.6154017      1728000    2130.9735        58250         1786 
11660000    1.0093697     -4.59247      1728000     2132.801        58300         1790 
11670000   0.96022899    -4.617486      1728000    2134.6352        58350         1790 
11680000    1.0280317   -4.6828856      1728000    2136.4687        58400         1790 
11690000   0.97643069    -4.700999      1728000    2138.3077        58450         1790 
11700000    1.0018704   -4.4633106      1728000     2140.139        58500         1790 
11710000    1.0155533   -4.6131015      1728000    2141.9688        58550         1792 
11720000   0.93459365   -4.5470688      1728000    2143.8036        58600         1792 
11730000   0.97159661   -4.6092487      1728000    2145.6372        58650         1792 
11740000   0.94790539   -4.6646964      1728000    2147.5039        58700         1793 
11750000    0.9943774   -4.5749038      1728000    2149.7067        58750         1794 
11760000    1.0238737   -4.5012976      1728000    2151.6046        58800         1794 
11770000    1.0350788   -4.7258912      1728000    2153.5307        58850         1794 
11780000   0.96814405   -4.5850023      1728000    2155.3639        58900         1794 
11790000   0.99675584   -4.6856229      1728000    2157.2088        58950         1794 
11800000   0.98908378   -4.6583386      1728000    2159.0932        59000         1796 
11810000   0.93683147   -4.7115074      1728000    2160.9418        59050         1797 
11820000   0.93955067   -4.8138595      1728000    2162.7856        59100         1797 
11830000   0.99115439   -4.7548864      1728000    2164.6101        59150         1797 
11840000   0.97169753   -4.6967933      1728000    2166.4449        59200         1798 
11850000   0.95807384    -4.644706      1728000    2168.2595        59250         1798 
11860000    1.0145166   -4.6141164      1728000    2170.0818        59300         1798 
11870000    1.0415332   -4.9068133      1728000    2171.9179        59350         1799 
11880000    1.0071335   -4.5993857      1728000    2173.7686        59400         1800 
11890000    0.9243388    -4.663413      1728000    2175.6095        59450         1800 
11900000    1.0604807   -4.7629462      1728000    2177.4687        59500         1800 
11910000    0.9964026   -4.6529068      1728000    2179.3338        59550         1804 
11920000   0.98505944   -4.7179952      1728000    2181.1487        59600         1805 
11930000    1.0209406    -4.690268      1728000    2183.0018        59650         1805 
11940000   0.94263549    -4.649467      1728000    2184.8552        59700         1805 
11950000    1.0341212   -4.5919555      1728000    2186.6862        59750         1806 
11960000     1.016296   -4.5548419      1728000    2188.5218        59800         1808 
11970000   0.99600463    -4.659219      1728000     2190.358        59850         1808 
11980000     1.053678   -4.6081114      1728000    2192.1764        59900         1810 
11990000    1.0092204   -4.6719509      1728000     2194.008        59950         1811 
12000000   0.96729318   -4.5723688      1728000    2195.8623        60000         1811 
12010000    1.0737745   -4.6216311      1728000    2197.6964        60050         1813 
12020000    1.0225457   -4.7023128      1728000    2199.5465        60100         1813 
12030000   0.95716252   -4.6540048      1728000    2201.3522        60150         1813 
12040000    1.0353433   -4.6319703      1728000    2203.1686        60200         1813 
12050000    0.9605838   -4.7379645      1728000    2204.9938        60250         1815 
12060000    1.0331739   -4.6573598      1728000    2206.8309        60300         1816 
12070000   0.98528044   -4.5140428      1728000    2208.6664        60350         1816 
12080000    1.0314214   -4.4319078      1728000    2210.4845        60400         1817 
12090000    1.0317441   -4.5130898      1728000    2212.3186        60450         1817 
12100000    1.0943152   -4.7360958      1728000    2214.1768        60500         1818 
12110000    1.0454104   -4.5053079      1728000    2216.0315        60550         1819 
12120000   0.96985967   -4.6067011      1728000    2217.9031        60600         1819 
12130000    1.0983135   -4.6266558      1728000    2219.7367        60650         1821 
12140000    1.0046757   -4.5834748      1728000    2221.5988        60700         1821 
12150000   0.99668274   -4.6009683      1728000    2223.4604        60750         1821 
12160000    1.0271085   -4.5565222      1728000    2225.2766        60800         1822 
12170000    0.9978751   -4.6378295      1728000    2227.0889        60850         1822 
12180000   0.99681373     -4.75856      1728000    2228.9775        60900         1822 
12190000   0.99622534   -4.5516926      1728000    2230.8058        60950         1822 
12200000    1.0234266   -4.6428209      1728000    2232.6447        61000         1824 
12210000    1.0018233   -4.6772107      1728000    2234.4637        61050         1824 
12220000    1.0219501   -4.7368942      1728000    2236.2746        61100         1824 
12230000   0.96616513   -4.6090027      1728000    2238.1257        61150         1825 
12240000     1.010122   -4.6666638      1728000    2239.9973        61200         1825 
12250000   0.99287365   -4.5931586      1728000    2241.8471        61250         1826 
12260000    1.0656473    -4.767451      1728000     2243.702        61300         1826 
12270000     1.008431   -4.6746921      1728000     2245.512        61350         1826 
12280000     0.993899   -4.6277639      1728000    2247.3464        61400         1827 
12290000    0.9812262    -4.671726      1728000    2249.1694        61450         1828 
12300000   0.96539748   -4.6119183      1728000    2251.0595        61500         1828 
12310000   0.99909056   -4.5846793      1728000    2252.9097        61550         1828 
12320000   0.94151083   -4.6132502      1728000    2254.7545        61600         1828 
12330000    1.0310542   -4.6896066      1728000    2256.6023        61650         1829 
12340000   0.98267769   -4.5970357      1728000    2258.4414        61700         1829 
12350000   0.96357458   -4.7566826      1728000    2260.2745        61750         1829 
12360000   0.98463781   -4.7757001      1728000    2262.1076        61800         1829 
12370000   0.99674693   -4.7049726      1728000    2263.9397        61850         1829 
12380000    1.0217609      -4.6015      1728000    2265.7775        61900         1829 
12390000    1.0089699   -4.6807068      1728000    2267.6287        61950         1829 
12400000   0.98130932   -4.5656886      1728000    2269.4625        62000         1830 
12410000   0.99171442   -4.4589312      1728000    2271.2752        62050         1832 
12420000   0.97418955   -4.6021681      1728000     2273.083        62100         1835 
12430000    1.0507968   -4.6230952      1728000    2274.8934        62150         1836 
12440000    1.0173363   -4.6131144      1728000    2276.7506        62200         1836 
12450000    1.0393519   -4.6564099      1728000    2278.5663        62250         1836 
12460000    1.0099622   -4.6534921      1728000    2280.3784        62300         1836 
12470000   0.95706042   -4.5794312      1728000    2282.2157        62350         1837 
12480000     0.971904   -4.7302347      1728000    2284.0583        62400         1838 
12490000   0.97224289   -4.6440213      1728000    2285.8974        62450         1838 
12500000   0.98537481   -4.6307272      1728000    2287.7667        62500         1839 
12510000    1.0313615   -4.4572031      1728000    2289.5873        62550         1839 
12520000    1.0756043   -4.5690143      1728000    2291.4365        62600         1839 
12530000    1.0804534   -4.6912756      1728000     2293.282        62650         1841 
12540000   0.99420871   -4.6294168      1728000     2295.102        62700         1842 
12550000    1.0109208   -4.4929495      1728000    2296.9464        62750         1845 
12560000   0.98695847   -4.6682652      1728000    2298.7822        62800         1846 
12570000   0.98954728   -4.7199263      1728000    2300.5844        62850         1847 
12580000    1.0031197   -4.7626619      1728000    2302.4274        62900         1848 
12590000   0.99009812   -4.5789991      1728000    2304.2481        62950         1849 
12600000    1.0543068   -4.4951734      1728000    2306.0705        63000         1850 
12610000    1.0102151   -4.6547142      1728000    2307.8786        63050         1850 
12620000    1.0251971   -4.5523897      1728000    2309.7073        63100         1851 
12630000    1.0093168   -4.7655041      1728000    2311.5356        63150         1851 
12640000    1.0108344   -4.5853532      1728000    2313.3644        63200         1851 
12650000   0.99454999   -4.5614912      1728000    2315.1917        63250         1851 
12660000    1.0482889   -4.5126963      1728000    2317.0058        63300         1852 
12670000   0.99667985   -4.7605589      1728000    2318.8169        63350         1855 
12680000   0.97305394   -4.7078439      1728000    2320.6446        63400         1856 
12690000     1.030478   -4.6015519      1728000    2322.7595        63450         1856 
12700000    1.0443499   -4.5920945      1728000    2324.6094        63500         1857 
12710000   0.94267481   -4.5751304      1728000    2326.4436        63550         1858 
12720000    1.0310096   -4.6318632      1728000    2328.2745        63600         1858 
12730000   0.99610912    -4.535521      1728000    2330.1084        63650         1859 
12740000    0.9664459    -4.634342      1728000    2331.9535        63700         1860 
12750000     1.028574   -4.7365214      1728000    2333.8164        63750         1862 
12760000   0.99694108   -4.6037983      1728000    2335.6714        63800         1864 
12770000   0.99350196   -4.5324469      1728000    2337.4994        63850         1865 
12780000    0.9851679   -4.6096092      1728000    2339.3106        63900         1865 
12790000    1.0146296   -4.7474314      1728000    2341.1205        63950         1866 
12800000    0.9799809   -4.6540155      1728000    2342.9738        64000         1866 
12810000    1.0110479   -4.6489155      1728000    2344.8148        64050         1866 
12820000   0.97516042   -4.6062882      1728000    2346.6759        64100         1866 
12830000   0.99096072   -4.6974731      1728000    2348.5303        64150         1866 
12840000    1.0324049   -4.5148836      1728000    2350.3567        64200         1868 
12850000   0.98615106   -4.6415357      1728000    2352.1943        64250         1868 
12860000    1.0175274   -4.6402896      1728000    2354.0163        64300         1868 
12870000    1.0330327   -4.7168737      1728000    2355.8624        64350         1868 
12880000   0.99001156   -4.6720238      1728000    2357.6995        64400         1868 
12890000    1.0285263   -4.7014729      1728000    2359.5186        64450         1870 
12900000    1.0377956   -4.6728179      1728000    2361.3921        64500         1870 
12910000   0.95119088    -4.715178      1728000    2363.2093        64550         1870 
12920000    1.0650301   -4.7005948      1728000    2365.0293        64600         1871 
12930000    1.0285325   -4.6572899      1728000     2366.879        64650         1872 
12940000   0.99909463   -4.7576075      1728000    2368.7138        64700         1872 
12950000    1.0409715   -4.7211717      1728000    2370.5491        64750         1873 
12960000   0.96028895   -4.5734762      1728000    2372.3823        64800         1874 
12970000   0.94366199   -4.5815331      1728000    2374.1992        64850         1875 
12980000    1.0266063   -4.6631964      1728000    2376.0399        64900         1875 
12990000   0.98753047   -4.6796013      1728000    2377.8805        64950         1875 
13000000   0.96849069   -4.5892081      1728000    2379.7267        65000         1875 
13010000   0.95374946    -4.692281      1728000    2381.5636        65050         1875 
13020000    1.0319639   -4.6303736      1728000    2383.4175        65100         1875 
13030000    0.9690496   -4.7598391      1728000    2385.2475        65150         1875 
13040000   0.98910789   -4.6476468      1728000    2387.0939        65200         1875 
13050000    1.0036769    -4.557052      1728000    2388.9883        65250         1875 
13060000    1.0405565    -4.586091      1728000    2390.8045        65300         1878 
13070000   0.99643489   -4.6465875      1728000    2392.6515        65350         1880 
13080000    1.0166176   -4.7254617      1728000    2394.4775        65400         1880 
13090000   0.99546383   -4.7900339      1728000     2396.325        65450         1880 
13100000    1.0122392   -4.6934966      1728000    2398.2062        65500         1880 
13110000   0.96021332   -4.5822169      1728000    2400.0348        65550         1882 
13120000    1.0135688   -4.6643986      1728000    2401.8905        65600         1882 
13130000    1.0463663   -4.6021353      1728000    2403.7265        65650         1883 
13140000   0.87439365   -4.5829041      1728000    2405.5594        65700         1883 
13150000    1.0395868   -4.7355232      1728000    2407.4113        65750         1883 
13160000   0.97197181   -4.6347366      1728000    2409.2665        65800         1885 
13170000   0.97753526   -4.4964043      1728000    2411.1075        65850         1886 
13180000   0.96338412   -4.5829924      1728000    2412.9839        65900         1887 
13190000    1.0042957   -4.5788567      1728000    2414.8372        65950         1889 
13200000   0.97550867   -4.6131568      1728000    2416.6714        66000         1891 
13210000   0.99040755   -4.6836399      1728000    2418.4935        66050         1893 
13220000    1.0129755   -4.7397722      1728000    2420.3023        66100         1893 
13230000    1.0168985   -4.7389636      1728000    2422.1246        66150         1893 
13240000    1.0097529   -4.7623758      1728000    2423.9683        66200         1893 
13250000     1.000935   -4.7313927      1728000    2425.8269        66250         1893 
13260000    1.0329668   -4.6281229      1728000    2427.7321        66300         1895 
13270000    1.0173528   -4.6438535      1728000    2429.5954        66350         1896 
13280000    1.0464529   -4.7724824      1728000    2431.4252        66400         1896 
13290000     1.104206    -4.624823      1728000    2433.2657        66450         1897 
13300000    1.0628775   -4.4976821      1728000    2435.1237        66500         1897 
13310000   0.95688239   -4.6820095      1728000    2436.9674        66550         1898 
13320000    1.0310371   -4.6880924      1728000    2438.8345        66600         1899 
13330000   0.96715133   -4.6816088      1728000     2440.652        66650         1899 
13340000    1.0128793   -4.5982535      1728000    2442.4611        66700         1900 
13350000   0.97613853   -4.7107807      1728000    2444.2774        66750         1901 
13360000   0.96639706   -4.7695274      1728000    2446.1194        66800         1901 
13370000    1.0118299   -4.5796219      1728000    2447.9783        66850         1901 
13380000    1.0758712   -4.7318973      1728000    2449.8334        66900         1901 
13390000    1.0124862   -4.7363681      1728000    2451.6513        66950         1903 
13400000   0.95867615   -4.6191616      1728000    2453.4974        67000         1903 
13410000       1.0544   -4.6389988      1728000    2455.3594        67050         1903 
13420000    1.0387455   -4.4714153      1728000    2457.1794        67100         1903 
13430000   0.97571056   -4.6590299      1728000    2459.0441        67150         1903 
13440000    1.0026798   -4.7301004      1728000    2460.8815        67200         1903 
13450000   0.98227708   -4.6046195      1728000    2462.7165        67250         1903 
13460000    1.0057965   -4.6216031      1728000    2464.5605        67300         1903 
13470000    1.0151736   -4.5495598      1728000    2466.3826        67350         1903 
13480000   0.95952361   -4.7182518      1728000    2468.1964        67400         1904 
13490000    1.0044919   -4.6142558      1728000    2470.0617        67450         1906 
13500000     1.022017   -4.7093061      1728000     2471.949        67500         1906 
13510000   0.96820767    -4.795294      1728000    2473.8156        67550         1906 
13520000    1.0508744   -4.7436548      1728000    2475.6519        67600         1906 
13530000    1.0623739   -4.6183226      1728000    2477.4915        67650         1907 
13540000   0.99248537   -4.6616471      1728000    2479.3301        67700         1907 
13550000   0.93754763   -4.6979313      1728000    2481.1565        67750         1907 
13560000     1.037053   -4.7204744      1728000    2483.0043        67800         1908 
13570000    1.0059166   -4.6169297      1728000    2484.8737        67850         1908 
13580000    1.0209402   -4.6539767      1728000    2486.7124        67900         1909 
13590000   0.94648908   -4.7784746      1728000    2488.5415        67950         1909 
13600000    1.0407954   -4.6926577      1728000    2490.4098        68000         1909 
13610000    1.0590128   -4.6809814      1728000    2492.2395        68050         1909 
13620000   0.98830408   -4.7944131      1728000    2494.0608        68100         1909 
13630000    1.0190906   -4.5947507      1728000    2495.8972        68150         1909 
13640000   0.96299449   -4.5338339      1728000    2497.7223        68200         1909 
13650000    1.0906867   -4.5709718      1728000    2499.5754        68250         1909 
13660000    1.0251367   -4.6977452      1728000    2501.3894        68300         1909 
13670000    0.9918197   -4.6506618      1728000    2503.2292        68350         1909 
13680000   0.91237136   -4.7504888      1728000    2505.0793        68400         1909 
13690000    1.0401182   -4.6401145      1728000    2506.9409        68450         1909 
13700000   0.94765174   -4.5557693      1728000    2508.9791        68500         1909 
13710000    1.0284796   -4.5587693      1728000    2510.8119        68550         1909 
13720000    1.0030142   -4.6661944      1728000    2512.6402        68600         1909 
13730000    1.0016322   -4.5819132      1728000    2514.4614        68650         1910 
13740000   0.98894918   -4.6861579      1728000    2516.3082        68700         1910 
13750000     1.033547   -4.5796953      1728000    2518.1514        68750         1911 
13760000    0.9593984   -4.6809277      1728000    2520.0353        68800         1912 
13770000   0.97784421   -4.5929545      1728000    2521.8723        68850         1912 
13780000   0.91855179   -4.4795608      1728000     2523.696        68900         1914 
13790000    1.0153534   -4.6291395      1728000    2525.5052        68950         1915 
13800000   0.98290908   -4.6558803      1728000    2527.3609        69000         1916 
13810000    1.0564285   -4.5741476      1728000    2529.2415        69050         1916 
13820000    1.0466161   -4.6825882      1728000     2531.086        69100         1916 
13830000   0.99326563   -4.6266015      1728000    2532.9381        69150         1917 
13840000    1.0301044   -4.6580943      1728000    2534.7463        69200         1918 
13850000    1.0267575   -4.5418805      1728000    2536.5563        69250         1919 
13860000    1.1141535   -4.5835956      1728000    2538.3843        69300         1919 
13870000    1.0358733    -4.739358      1728000    2540.2449        69350         1919 
13880000    1.0149536   -4.6454658      1728000    2542.0873        69400         1919 
13890000    1.0038388   -4.6430342      1728000    2543.9161        69450         1919 
13900000   0.94776343   -4.6923104      1728000    2545.7806        69500         1919 
13910000    0.9691939   -4.7504433      1728000    2547.6422        69550         1919 
13920000    1.0083253   -4.5878708      1728000    2549.4862        69600         1919 
13930000   0.94601228   -4.6364857      1728000    2551.3483        69650         1919 
13940000   0.95792003   -4.4793179      1728000    2553.1813        69700         1919 
13950000   0.97349456   -4.7652329      1728000    2555.0692        69750         1920 
13960000   0.99760466   -4.6610574      1728000    2557.1366        69800         1920 
13970000    1.0268528    -4.513211      1728000     2559.058        69850         1923 
13980000    1.0270675   -4.6809217      1728000    2560.8767        69900         1923 
13990000    1.0081338   -4.5792923      1728000     2562.719        69950         1926 
14000000   0.98756596   -4.6867799      1728000    2564.6111        70000         1926 
14010000    1.0005045   -4.6752567      1728000    2566.4992        70050         1927 
14020000   0.99865579   -4.6765443      1728000    2568.4193        70100         1930 
14030000    1.0464075   -4.6290507      1728000    2570.3044        70150         1930 
14040000   0.95525993   -4.5836504      1728000    2572.1855        70200         1930 
14050000   0.97373828   -4.5633383      1728000     2574.124        70250         1930 
14060000   0.98516193   -4.6014143      1728000     2576.034        70300         1931 
14070000    1.0000066   -4.6349535      1728000    2577.9341        70350         1931 
14080000   0.99062033   -4.7638615      1728000    2579.8401        70400         1931 
14090000    0.9338709   -4.5207097      1728000    2581.7462        70450         1931 
14100000   0.99384616    -4.714649      1728000    2583.6243        70500         1931 
14110000    1.0256251   -4.5605053      1728000    2585.5273        70550         1933 
14120000   0.96523016   -4.6318167      1728000    2587.4663        70600         1933 
14130000   0.98830547   -4.5407243      1728000    2589.3684        70650         1933 
14140000   0.98866562    -4.611558      1728000    2591.2245        70700         1933 
14150000    1.0229181   -4.5561297      1728000     2593.056        70750         1934 
14160000    1.0179526   -4.5521849      1728000    2594.8992        70800         1934 
14170000    1.0609039   -4.6658743      1728000    2596.7985        70850         1934 
14180000    0.9466835   -4.5180749      1728000    2598.6486        70900         1934 
14190000   0.99505903   -4.7755345      1728000    2600.5198        70950         1934 
14200000    1.0148402   -4.6817726      1728000    2602.4049        71000         1935 
14210000    0.9275054   -4.6775771      1728000     2604.235        71050         1936 
14220000   0.99373043   -4.5381627      1728000    2606.0753        71100         1938 
14230000    1.0212589   -4.6499565      1728000    2607.9134        71150         1941 
14240000    1.0139171   -4.5871023      1728000    2609.7936        71200         1941 
14250000   0.96102967   -4.5422682      1728000    2611.6407        71250         1942 
14260000   0.97268538   -4.6713371      1728000    2613.5042        71300         1943 
14270000   0.97469089   -4.7596884      1728000    2615.3958        71350         1943 
14280000   0.99565312   -4.4999103      1728000    2617.3588        71400         1945 
14290000    1.0036598   -4.6917689      1728000     2619.305        71450         1945 
14300000     0.985723   -4.6208211      1728000    2621.2271        71500         1946 
14310000    1.0066046   -4.5282928      1728000    2623.0745        71550         1948 
14320000    1.0140002   -4.7142719      1728000    2624.9121        71600         1948 
14330000   0.95969367    -4.677786      1728000    2626.8012        71650         1949 
14340000    1.0378492   -4.6012675      1728000    2628.8101        71700         1949 
14350000    1.0019239   -4.8126654      1728000    2630.7027        71750         1949 
14360000   0.99654263   -4.6498001      1728000    2632.5478        71800         1949 
14370000   0.98651909   -4.6482606      1728000    2634.3712        71850         1949 
14380000    1.0104971   -4.6647147      1728000    2636.2151        71900         1950 
14390000   0.98818926    -4.628132      1728000    2638.0385        71950         1951 
14400000   0.91586281   -4.6144562      1728000    2639.8901        72000         1951 
14410000    1.0495348   -4.6094701      1728000    2641.7471        72050         1951 
14420000    1.0813617   -4.5730151      1728000    2643.5901        72100         1952 
14430000   0.97063598   -4.5771638      1728000    2645.4369        72150         1952 
14440000    1.0092533   -4.6130083      1728000    2647.2758        72200         1953 
14450000   0.97289113   -4.7284369      1728000    2649.1268        72250         1956 
14460000    1.0197539   -4.6399918      1728000    2650.9867        72300         1956 
14470000   0.96925782   -4.7758573      1728000    2652.9015        72350         1956 
14480000    0.9661322   -4.6853028      1728000    2654.7422        72400         1956 
14490000    1.0935497   -4.6945604      1728000    2656.5851        72450         1958 
14500000   0.97992423   -4.5975125      1728000    2658.4532        72500         1958 
14510000     1.041865   -4.6758611      1728000    2660.3599        72550         1959 
14520000    1.0235722   -4.7021681      1728000     2662.238        72600         1959 
14530000    1.0092587   -4.6471986      1728000    2664.1587        72650         1961 
14540000   0.99669339   -4.6875533      1728000    2665.9908        72700         1962 
14550000    1.0125979   -4.7518597      1728000    2667.8408        72750         1965 
14560000    1.0336288   -4.5874774      1728000    2669.6823        72800         1966 
14570000    1.0709899   -4.6050647      1728000     2671.516        72850         1966 
14580000    1.0106001   -4.7246696      1728000    2673.3512        72900         1966 
14590000   0.95902146   -4.7729955      1728000    2675.1861        72950         1966 
14600000      1.01827   -4.8677337      1728000    2677.0413        73000         1967 
14610000    1.0172432   -4.6481968      1728000    2678.8829        73050         1969 
14620000    1.0285735   -4.5263397      1728000     2680.749        73100         1969 
14630000     1.025736   -4.6207252      1728000    2682.6153        73150         1970 
14640000    1.0074563   -4.5223289      1728000    2684.4357        73200         1970 
14650000    1.0253516   -4.6264692      1728000    2686.2599        73250         1973 
14660000   0.99682592   -4.5767499      1728000    2688.0839        73300         1974 
14670000   0.98749107   -4.5275874      1728000    2689.9545        73350         1975 
14680000    1.0088211   -4.6896148      1728000     2691.805        73400         1976 
14690000    1.0443451   -4.6787724      1728000    2693.6602        73450         1977 
14700000   0.99890404   -4.5680159      1728000    2695.5093        73500         1977 
14710000    1.0010569   -4.5938139      1728000    2697.3299        73550         1978 
14720000    1.0023803   -4.5387846      1728000    2699.1869        73600         1980 
14730000   0.98766423   -4.6152373      1728000    2701.0169        73650         1980 
14740000   0.99923949   -4.6046296      1728000    2702.8671        73700         1980 
14750000    1.0374158   -4.5725541      1728000    2704.7011        73750         1980 
14760000   0.96422519   -4.7168239      1728000    2706.5758        73800         1981 
14770000     1.002765   -4.6784465      1728000     2708.412        73850         1982 
14780000    1.0142464   -4.5229645      1728000    2710.2267        73900         1984 
14790000   0.99174416   -4.5995102      1728000    2712.4068        73950         1986 
14800000    1.1457691   -4.5471341      1728000    2714.2479        74000         1986 
14810000   0.98432017   -4.5501564      1728000    2716.1135        74050         1986 
14820000    1.0192103   -4.5656597      1728000    2717.9428        74100         1986 
14830000   0.98655553   -4.6434979      1728000    2719.7481        74150         1986 
14840000   0.91588789   -4.5989968      1728000    2721.6151        74200         1987 
14850000    1.0390006    -4.572124      1728000    2723.4346        74250         1987 
14860000    1.0199586   -4.5399382      1728000     2725.275        74300         1987 
14870000   0.94704406   -4.6246695      1728000    2727.1258        74350         1987 
14880000   0.99475717   -4.4926825      1728000    2728.9409        74400         1989 
14890000   0.99881828   -4.6594989      1728000     2730.766        74450         1989 
14900000   0.99095553   -4.5168337      1728000    2732.6339        74500         1989 
14910000   0.99878644   -4.6584985      1728000    2734.4749        74550         1990 
14920000   0.99736821   -4.4970109      1728000    2736.3299        74600         1991 
14930000    1.0598067   -4.6160343      1728000    2738.1562        74650         1994 
14940000     1.010079   -4.5735418      1728000    2740.0056        74700         1996 
14950000   0.98459932   -4.6311423      1728000    2741.8209        74750         1996 
14960000   0.97885554   -4.7166148      1728000    2743.6371        74800         1999 
14970000   0.96822175   -4.6260316      1728000    2745.5032        74850         1999 
14980000    1.0251321   -4.5233919      1728000    2747.3361        74900         1999 
14990000   0.99538027   -4.5397033      1728000    2749.1539        74950         2000 
15000000   0.98948705   -4.6322131      1728000     2750.991        75000         2000 
15010000    0.9442378    -4.515062      1728000    2752.8078        75050         2000 
15020000    1.0054717   -4.6016183      1728000    2754.6518        75100         2001 
15030000    1.0154185   -4.5362915      1728000    2756.4769        75150         2002 
15040000   0.99622308   -4.5283426      1728000     2758.311        75200         2003 
15050000    1.0068897   -4.4558744      1728000    2760.1517        75250         2003 
15060000   0.94864062    -4.545817      1728000    2761.9592        75300         2004 
15070000    1.0294281   -4.6709103      1728000    2763.8189        75350         2005 
15080000    0.9692385   -4.7564216      1728000    2765.6297        75400         2007 
15090000    1.0392813   -4.4599791      1728000    2767.4856        75450         2007 
15100000   0.97885137   -4.7577683      1728000    2769.3669        75500         2008 
15110000   0.97847822   -4.5375412      1728000    2771.2626        75550         2010 
15120000   0.95551501   -4.5683063      1728000    2773.1449        75600         2011 
15130000    1.0150417   -4.5194516      1728000    2774.9571        75650         2011 
15140000    1.0438565   -4.5761164      1728000    2776.7761        75700         2012 
15150000    1.0468746   -4.6815873      1728000    2778.6593        75750         2014 
15160000    1.0265745   -4.5970996      1728000    2780.5212        75800         2014 
15170000    0.9950184   -4.6669418      1728000     2782.358        75850         2014 
15180000   0.99008633   -4.4780293      1728000     2784.195        75900         2014 
15190000   0.98509503   -4.4897958      1728000    2786.0178        75950         2014 
15200000    1.0358222   -4.6889247      1728000    2787.8699        76000         2016 
15210000    1.0543768   -4.7029719      1728000    2789.7247        76050         2017 
15220000   0.99526424   -4.7121549      1728000    2791.5779        76100         2017 
15230000   0.96169597   -4.7786626      1728000    2793.4516        76150         2017 
15240000    1.0442509   -4.5999868      1728000    2795.3229        76200         2017 
15250000    1.0182422   -4.7497212      1728000    2797.1747        76250         2019 
15260000    1.0014966   -4.7643049      1728000    2799.0209        76300         2020 
15270000    1.0511515   -4.7841915      1728000    2800.8539        76350         2021 
15280000    1.0094532   -4.6318331      1728000    2802.7219        76400         2021 
15290000   0.95010887   -4.6039924      1728000    2804.6208        76450         2022 
15300000    1.0027786    -4.650338      1728000    2806.4779        76500         2023 
15310000   0.99450562   -4.7109977      1728000    2808.3628        76550         2023 
15320000   0.96621828    -4.657564      1728000    2810.1946        76600         2023 
15330000   0.91875391   -4.7006696      1728000    2812.0646        76650         2023 
15340000   0.99954649   -4.7310123      1728000    2813.9567        76700         2024 
15350000    1.0127928   -4.6420611      1728000    2815.8019        76750         2024 
15360000    1.0056019   -4.6540289      1728000    2817.6419        76800         2024 
15370000   0.98911371   -4.6986827      1728000    2819.4942        76850         2025 
15380000    1.0514252    -4.684191      1728000    2821.3555        76900         2025 
15390000    1.0516557   -4.7133823      1728000    2823.2186        76950         2028 
15400000   0.93067788   -4.6068941      1728000    2825.0557        77000         2028 
15410000   0.96482053   -4.6323604      1728000    2826.9295        77050         2028 
15420000    0.9415408   -4.6733597      1728000    2828.8106        77100         2029 
15430000    1.0490341   -4.6255915      1728000    2830.6616        77150         2030 
15440000    1.0300185   -4.5516062      1728000    2832.4814        77200         2030 
15450000   0.95633159   -4.7596097      1728000    2834.3057        77250         2033 
15460000   0.99013545   -4.6290538      1728000    2836.1538        77300         2034 
15470000   0.87666687   -4.7141793      1728000    2838.0063        77350         2034 
15480000    1.0200443   -4.8418687      1728000    2839.8867        77400         2034 
15490000   0.96495827   -4.6280764      1728000    2841.7474        77450         2034 
15500000   0.99092943   -4.5712889      1728000    2843.6167        77500         2034 
15510000   0.99848943    -4.610552      1728000    2845.4508        77550         2034 
15520000    1.0797161   -4.7273809      1728000    2847.3077        77600         2034 
15530000     1.001185   -4.6327412      1728000    2849.1567        77650         2034 
15540000    1.0169116   -4.6417355      1728000    2851.0158        77700         2034 
15550000   0.97745865   -4.6321048      1728000    2852.8705        77750         2035 
15560000    0.9927323   -4.5682039      1728000     2855.032        77800         2035 
15570000    1.0126112   -4.5125238      1728000    2856.8459        77850         2036 
15580000    1.0466377   -4.6362401      1728000    2858.6816        77900         2036 
15590000    1.0260699   -4.5430085      1728000    2860.5257        77950         2036 
15600000    1.0251733   -4.6146399      1728000    2862.4056        78000         2036 
15610000    1.0032866   -4.7998826      1728000    2864.2509        78050         2038 
15620000   0.97158693   -4.6136837      1728000    2866.1137        78100         2038 
15630000    1.0157744   -4.6169848      1728000    2867.9838        78150         2038 
15640000    1.0047265   -4.5617538      1728000     2869.832        78200         2038 
15650000    1.0360369   -4.5072328      1728000    2871.6797        78250         2038 
15660000   0.99893211   -4.6369447      1728000    2873.5227        78300         2041 
15670000    1.0226903   -4.6603174      1728000    2875.4004        78350         2042 
15680000    1.0552442    -4.561197      1728000    2877.2376        78400         2042 
15690000   0.99231996   -4.5365436      1728000    2879.0968        78450         2044 
15700000    1.0741136   -4.6534797      1728000    2880.9848        78500         2044 
15710000   0.95397279   -4.6377398      1728000    2882.8659        78550         2047 
15720000   0.99122022   -4.7149455      1728000     2884.773        78600         2047 
15730000   0.99899639   -4.7072269      1728000     2886.659        78650         2047 
15740000   0.99669755   -4.6009942      1728000    2888.5281        78700         2049 
15750000   0.98203258   -4.5326542      1728000    2890.3455        78750         2051 
15760000    1.0100701   -4.5844025      1728000    2892.2108        78800         2051 
15770000   0.97226843   -4.5387154      1728000    2894.0375        78850         2055 
15780000    1.0966448   -4.6144495      1728000    2895.8668        78900         2057 
15790000    1.0441156   -4.5877574      1728000    2897.6944        78950         2057 
15800000    0.9671348   -4.6517526      1728000    2899.5505        79000         2057 
15810000    1.0129382   -4.6772402      1728000      2901.39        79050         2058 
15820000    1.0718912   -4.5638537      1728000    2903.2207        79100         2058 
15830000    1.0067562    -4.689516      1728000    2905.0814        79150         2059 
15840000   0.93785175   -4.7280148      1728000    2906.9343        79200         2060 
15850000    1.0432982   -4.6935797      1728000    2908.7807        79250         2060 
15860000    1.0483246   -4.6965124      1728000    2910.6458        79300         2060 
15870000     1.008696   -4.6536351      1728000    2912.4795        79350         2061 
15880000   0.98946259   -4.6159678      1728000    2914.3133        79400         2063 
15890000    1.0015255   -4.6821987      1728000    2916.1684        79450         2065 
15900000   0.99777992   -4.6680323      1728000    2918.0414        79500         2066 
15910000    1.0073894     -4.54928      1728000    2919.8817        79550         2066 
15920000    1.0536812   -4.6329186      1728000    2921.7639        79600         2067 
15930000   0.98614501   -4.4316487      1728000    2923.6266        79650         2069 
15940000   0.99823976   -4.5210869      1728000    2925.4765        79700         2070 
15950000   0.98499219   -4.4624144      1728000    2927.3545        79750         2072 
15960000   0.98004547   -4.6156077      1728000    2929.1925        79800         2073 
15970000    1.0159533   -4.6552256      1728000    2931.0825        79850         2074 
15980000    1.0779542   -4.6487344      1728000    2932.9635        79900         2076 
15990000    1.0036366   -4.6592928      1728000    2934.7957        79950         2076 
16000000    1.0197926   -4.6040212      1728000    2936.6404        80000         2076 
16010000    1.0521527   -4.5616989      1728000    2938.4715        80050         2077 
16020000   0.98976293    -4.720045      1728000    2940.3224        80100         2079 
16030000   0.99547327   -4.6513594      1728000    2942.1941        80150         2080 
16040000    1.0327203   -4.7155805      1728000    2944.0518        80200         2080 
16050000    1.0399754   -4.6398987      1728000    2945.8897        80250         2080 
16060000    1.0372355    -4.674267      1728000    2947.7226        80300         2080 
16070000    0.9427793   -4.6514259      1728000    2949.5655        80350         2080 
16080000   0.93166124   -4.6119539      1728000    2951.4496        80400         2083 
16090000    1.0349661    -4.697368      1728000    2953.3136        80450         2083 
16100000    1.0317574   -4.5659621      1728000    2955.1689        80500         2085 
16110000    0.9927418   -4.6981531      1728000    2957.0315        80550         2086 
16120000    1.0287035   -4.5963135      1728000    2958.8918        80600         2087 
16130000    1.0198943   -4.6691476      1728000    2960.7445        80650         2090 
16140000   0.97927367   -4.6217938      1728000    2962.6157        80700         2092 
16150000   0.94992982   -4.8042958      1728000    2964.4739        80750         2093 
16160000   0.98629144   -4.7338109      1728000    2966.3258        80800         2094 
16170000   0.98775101   -4.6368703      1728000    2968.1833        80850         2094 
16180000    0.9797989   -4.7566833      1728000    2970.0544        80900         2095 
16190000    1.0766685   -4.7273171      1728000    2971.9284        80950         2095 
16200000   0.97908879   -4.7109544      1728000    2973.8036        81000         2096 
16210000   0.97826089    -4.688946      1728000    2975.6987        81050         2098 
16220000   0.97747732   -4.6054464      1728000    2977.5343        81100         2098 
16230000     1.006267   -4.8169483      1728000    2979.3906        81150         2099 
16240000   0.96013909   -4.6782702      1728000    2981.2568        81200         2100 
16250000    1.0378563   -4.7959921      1728000     2983.109        81250         2101 
16260000   0.97025146   -4.5945837      1728000    2984.9704        81300         2102 
16270000     1.071215   -4.6677643      1728000    2986.8456        81350         2103 
16280000    1.0039307   -4.7258436      1728000    2988.7058        81400         2104 
16290000   0.99376458   -4.7135786      1728000    2990.5874        81450         2105 
16300000    0.9850116   -4.7510718      1728000    2992.4586        81500         2106 
16310000    1.0357264   -4.6574784      1728000    2994.3223        81550         2107 
16320000    1.0109172   -4.8562874      1728000    2996.1804        81600         2107 
16330000   0.97734196   -4.6526417      1728000    2998.0535        81650         2107 
16340000    1.0460457    -4.746531      1728000    2999.8955        81700         2108 
16350000    0.9929169   -4.6020487      1728000    3001.7707        81750         2108 
16360000    1.0503538   -4.6212747      1728000    3003.6536        81800         2108 
16370000    1.0022483    -4.698681      1728000    3005.4804        81850         2109 
16380000   0.97243315   -4.6667923      1728000    3007.3794        81900         2109 
16390000    1.0288471   -4.7473584      1728000    3009.2285        81950         2110 
16400000   0.99956209   -4.5424231      1728000    3011.0974        82000         2111 
16410000    1.0148595   -4.6030832      1728000    3012.9554        82050         2111 
16420000    1.0521398   -4.6828057      1728000    3014.8276        82100         2112 
16430000   0.99372371   -4.5584674      1728000    3016.6868        82150         2113 
16440000   0.95239888   -4.5647851      1728000    3018.5923        82200         2113 
16450000     1.001575     -4.67293      1728000    3020.4706        82250         2114 
16460000   0.93556077   -4.6993642      1728000    3022.3393        82300         2114 
16470000    1.0194011   -4.5891372      1728000     3024.207        82350         2114 
16480000    1.0620679   -4.6697745      1728000    3026.0675        82400         2116 
16490000   0.99580903   -4.7057007      1728000    3027.9276        82450         2117 
16500000   0.93029683   -4.6550028      1728000    3029.8173        82500         2117 
16510000   0.95160233   -4.6792756      1728000    3031.7016        82550         2118 
16520000    1.0166753   -4.5441627      1728000    3033.5393        82600         2118 
16530000    1.0057461   -4.6511657      1728000    3035.4364        82650         2118 
16540000     1.003944   -4.6739777      1728000    3037.2945        82700         2118 
16550000   0.99477642   -4.6362146      1728000    3039.1595        82750         2119 
16560000   0.98161732   -4.7575312      1728000    3041.0155        82800         2121 
16570000    1.0340848   -4.6359722      1728000    3042.9171        82850         2122 
16580000    1.0056585   -4.6548822      1728000     3044.788        82900         2122 
16590000    1.0764807   -4.7598798      1728000    3046.6345        82950         2123 
16600000    1.0108795   -4.5747923      1728000    3048.9064        83000         2124 
16610000   0.94274842   -4.6814907      1728000    3050.7653        83050         2124 
16620000   0.98241594   -4.7716014      1728000    3052.6355        83100         2124 
16630000   0.98125261   -4.6309254      1728000    3054.4975        83150         2124 
16640000   0.94323141   -4.6667372      1728000    3056.3572        83200         2124 
16650000    1.0031398    -4.753023      1728000    3058.2045        83250         2124 
16660000   0.99156818   -4.6328098      1728000    3060.0514        83300         2124 
16670000    0.9746419   -4.7630034      1728000    3061.9255        83350         2125 
16680000    1.0013725   -4.7801313      1728000    3063.7915        83400         2125 
16690000   0.91311882   -4.6287389      1728000    3065.6524        83450         2125 
16700000    1.0089376   -4.7092839      1728000    3067.5137        83500         2125 
16710000   0.98512928   -4.6785364      1728000    3069.4499        83550         2126 
16720000   0.96267854   -4.7380742      1728000    3071.4519        83600         2127 
16730000    1.0465357   -4.6824209      1728000    3073.4069        83650         2127 
16740000    1.0217252   -4.6581606      1728000    3075.3449        83700         2129 
16750000    0.9501164   -4.8189097      1728000    3077.3588        83750         2129 
16760000    1.0286803   -4.7116021      1728000    3079.3997        83800         2129 
16770000   0.99221085   -4.6942044      1728000    3081.2818        83850         2129 
16780000   0.95973659   -4.8469565      1728000    3083.3817        83900         2129 
16790000    1.0086895   -4.7704239      1728000    3085.3456        83950         2129 
16800000   0.98838272   -4.7364169      1728000    3087.2657        84000         2129 
16810000   0.95413044   -4.7217083      1728000    3089.1917        84050         2129 
16820000    1.0852464   -4.5732005      1728000    3091.1095        84100         2129 
16830000    1.0418465   -4.6674282      1728000    3093.0356        84150         2131 
16840000   0.91730062   -4.7549134      1728000    3094.9356        84200         2131 
16850000    1.0241415    -4.733051      1728000    3096.8311        84250         2131 
16860000    1.0234655   -4.8647868      1728000    3098.7172        84300         2131 
16870000   0.95831183   -4.6573179      1728000    3100.6912        84350         2134 
16880000    1.0046402   -4.7120834      1728000    3102.6433        84400         2134 
16890000    1.0552149   -4.6122271      1728000    3104.5547        84450         2135 
16900000   0.94683051   -4.6821681      1728000    3106.4551        84500         2136 
16910000    0.9589719    -4.796402      1728000    3108.3782        84550         2138 
16920000   0.94808507   -4.6641976      1728000    3110.2854        84600         2138 
16930000    1.0428729   -4.7338785      1728000    3112.1854        84650         2139 
16940000    1.0072516   -4.6816307      1728000    3114.0738        84700         2139 
16950000   0.99179391   -4.6303925      1728000    3115.9641        84750         2140 
16960000    1.0020525   -4.7969234      1728000    3117.9102        84800         2141 
16970000    1.0485292   -4.6603404      1728000    3119.8244        84850         2141 
16980000   0.99301739   -4.6807859      1728000    3121.7304        84900         2141 
16990000    1.0149753   -4.6503389      1728000    3123.6505        84950         2142 
17000000      1.01653   -4.6763161      1728000    3125.5855        85000         2142 
17010000   0.99857998   -4.6168573      1728000    3127.5036        85050         2142 
17020000   0.98773375   -4.5653944      1728000    3129.3887        85100         2142 
17030000     1.020423   -4.7313245      1728000    3131.2867        85150         2142 
17040000    0.9863367   -4.6336208      1728000    3133.1768        85200         2142 
17050000   0.93913977   -4.5619131      1728000     3135.068        85250         2142 
17060000    1.0214953   -4.6231588      1728000    3137.0193        85300         2143 
17070000   0.97260821   -4.7824087      1728000    3138.9215        85350         2143 
17080000    1.0680029   -4.6428371      1728000    3140.8167        85400         2144 
17090000    1.0521883   -4.6699968      1728000    3142.7119        85450         2145 
17100000    1.0653366   -4.5968354      1728000     3144.598        85500         2145 
17110000      1.02006   -4.5926555      1728000    3146.5139        85550         2145 
17120000    1.0085095   -4.5573718      1728000     3148.378        85600         2145 
17130000     1.031313   -4.6573659      1728000     3150.305        85650         2145 
17140000    1.0098954   -4.7167327      1728000    3152.1934        85700         2145 
17150000     1.008383   -4.7649354      1728000    3154.0735        85750         2145 
17160000    1.0375469   -4.8127668      1728000    3155.9474        85800         2146 
17170000    1.0173862   -4.6714912      1728000    3157.8582        85850         2147 
17180000   0.96489991   -4.6830899      1728000    3159.7524        85900         2147 
17190000   0.97664882   -4.7364975      1728000    3161.6503        85950         2148 
17200000   0.98472782   -4.7587585      1728000    3163.5353        86000         2149 
17210000    1.0078986   -4.6698532      1728000    3165.4204        86050         2150 
17220000    1.0170356   -4.7279595      1728000    3167.3892        86100         2150 
17230000   0.98737599   -4.6603947      1728000    3169.2842        86150         2150 
17240000    1.0079424   -4.6935256      1728000    3171.1673        86200         2150 
17250000    1.0389765   -4.7267867      1728000    3173.0483        86250         2150 
17260000    1.0225495    -4.606202      1728000    3174.9233        86300         2151 
17270000    1.0779607   -4.7800113      1728000    3176.8124        86350         2152 
17280000    1.0834363   -4.7328564      1728000    3178.6981        86400         2152 
17290000    1.0189247   -4.5214735      1728000    3180.6231        86450         2154 
17300000    1.0393924   -4.6715484      1728000     3182.522        86500         2154 
17310000   0.97204431   -4.7588378      1728000    3184.4064        86550         2154 
17320000    1.0257831   -4.5870353      1728000    3186.3244        86600         2156 
17330000   0.98241776   -4.6295365      1728000    3188.1935        86650         2156 
17340000   0.98904408   -4.5561284      1728000    3190.0946        86700         2156 
17350000   0.97460013    -4.759811      1728000    3191.9673        86750         2156 
17360000    1.0476194   -4.7312642      1728000    3193.8878        86800         2156 
17370000   0.99919634   -4.7897124      1728000    3195.7899        86850         2156 
17380000   0.97925852   -4.6784743      1728000    3197.8358        86900         2156 
17390000    1.0487349   -4.7314553      1728000    3199.9727        86950         2157 
17400000   0.99063817   -4.7240612      1728000    3201.8513        87000         2157 
17410000   0.99556591   -4.7498205      1728000    3203.7354        87050         2157 
17420000   0.98009382   -4.7506034      1728000    3205.6135        87100         2159 
17430000    1.0738278   -4.6595464      1728000    3207.6583        87150         2160 
17440000    1.0097497   -4.6869287      1728000    3209.7212        87200         2160 
17450000    1.0602894   -4.6121072      1728000    3211.5863        87250         2161 
17460000   0.99638735   -4.7452237      1728000    3213.4623        87300         2162 
17470000   0.98410001    -4.722108      1728000    3215.4055        87350         2163 
17480000    1.0106639   -4.6542596      1728000    3217.3075        87400         2165 
17490000     1.060763   -4.5217734      1728000    3219.1916        87450         2165 
17500000   0.98021766   -4.8664802      1728000    3221.1377        87500         2165 
17510000     1.027103   -4.6144548      1728000    3223.0387        87550         2166 
17520000    1.0145313   -4.7086002      1728000    3224.9288        87600         2167 
17530000    1.0113045   -4.6757488      1728000    3226.8199        87650         2167 
17540000   0.98538118    -4.648287      1728000     3228.694        87700         2168 
17550000    1.0385174   -4.7052558      1728000     3230.587        87750         2170 
17560000   0.99025125   -4.5551496      1728000    3232.4601        87800         2171 
17570000    1.0837007   -4.7645798      1728000    3234.3402        87850         2173 
17580000   0.96469975   -4.6723943      1728000    3236.2475        87900         2173 
17590000    1.0375424   -4.5634451      1728000    3238.1315        87950         2173 
17600000    1.0184517   -4.7220501      1728000    3240.0856        88000         2174 
17610000    1.0125215   -4.5741769      1728000    3241.9746        88050         2175 
17620000   0.97099149   -4.6381715      1728000    3243.8517        88100         2176 
17630000   0.97080623   -4.6256863      1728000    3245.7299        88150         2176 
17640000    1.0000899   -4.6761474      1728000    3247.6052        88200         2176 
17650000   0.99686197   -4.7733284      1728000    3249.4916        88250         2177 
17660000    1.0249057   -4.7250197      1728000    3251.3906        88300         2178 
17670000    1.0602437   -4.6525038      1728000    3253.2789        88350         2178 
17680000   0.94511407   -4.6345296      1728000     3255.157        88400         2178 
17690000    1.0077777   -4.7263001      1728000    3257.0591        88450         2179 
17700000    1.0393117   -4.4923373      1728000    3258.9513        88500         2179 
17710000    1.0307372   -4.6998103      1728000    3260.8355        88550         2179 
17720000   0.98403745   -4.7166018      1728000    3262.7685        88600         2179 
17730000    1.0210197   -4.7126407      1728000    3264.6426        88650         2179 
17740000    1.0063023   -4.7730003      1728000    3266.5438        88700         2180 
17750000      1.03762   -4.5882272      1728000    3268.4468        88750         2180 
17760000   0.99257157   -4.7364469      1728000    3270.3619        88800         2180 
17770000    1.1091799   -4.7416088      1728000    3272.2592        88850         2181 
17780000   0.98670195   -4.6708668      1728000    3274.1613        88900         2183 
17790000   0.99486541   -4.5535508      1728000     3276.078        88950         2183 
17800000    0.9731781   -4.7639089      1728000    3278.0031        89000         2183 
17810000    1.0537164   -4.7005215      1728000    3279.8993        89050         2183 
17820000   0.97559943   -4.8278739      1728000    3281.7983        89100         2183 
17830000   0.95618575   -4.7847954      1728000    3283.6894        89150         2183 
17840000    1.0601287   -4.6496443      1728000    3285.5855        89200         2183 
17850000   0.96206899   -4.6885021      1728000    3287.4685        89250         2183 
17860000    1.0428681   -4.6338356      1728000     3289.365        89300         2183 
17870000    1.0598726   -4.7634352      1728000    3291.2391        89350         2183 
17880000    1.0746861   -4.7051204      1728000    3293.1122        89400         2183 
17890000    1.0217647   -4.7480583      1728000    3295.0133        89450         2184 
17900000   0.95561988   -4.5752118      1728000    3296.9683        89500         2185 
17910000    1.0044578   -4.6392565      1728000    3298.8723        89550         2185 
17920000    1.0194625    -4.785144      1728000    3300.7844        89600         2185 
17930000   0.98216755    -4.818906      1728000    3302.6665        89650         2185 
17940000   0.99755754   -4.6954777      1728000    3304.5787        89700         2187 
17950000    1.0034821   -4.7394733      1728000    3306.4724        89750         2187 
17960000   0.96771619   -4.6039315      1728000    3308.3645        89800         2187 
17970000    1.0021906   -4.6602197      1728000    3310.2366        89850         2189 
17980000   0.96719683   -4.5584303      1728000    3312.1426        89900         2189 
17990000   0.98161719   -4.7436113      1728000    3314.0372        89950         2189 
18000000    1.0100015   -4.6695871      1728000    3316.0506        90000         2191 
18010000    1.0265752   -4.7517119      1728000    3318.0625        90050         2192 
18020000    1.0129476   -4.5950582      1728000    3320.0605        90100         2192 
18030000   0.94671474   -4.7309951      1728000    3322.0297        90150         2192 
18040000     1.018093    -4.704957      1728000    3323.9661        90200         2192 
18050000    1.0236626   -4.7134129      1728000    3325.9013        90250         2193 
18060000   0.98225941   -4.7148134      1728000    3327.8663        90300         2194 
18070000   0.92530311   -4.7817849      1728000    3329.7556        90350         2194 
18080000    1.0006514   -4.8023951      1728000    3331.6491        90400         2196 
18090000    1.0348301    -4.630627      1728000    3333.5482        90450         2197 
18100000     1.025028   -4.6682029      1728000    3335.4542        90500         2199 
18110000   0.97964908    -4.729465      1728000    3337.3593        90550         2199 
18120000   0.97680152   -4.6061992      1728000    3339.2613        90600         2200 
18130000    1.0053711   -4.6609571      1728000    3341.1594        90650         2200 
18140000   0.95914676    -4.548402      1728000    3343.0444        90700         2201 
18150000    1.0104948   -4.6921934      1728000    3344.9182        90750         2202 
18160000   0.98526687   -4.6590096      1728000    3346.7963        90800         2202 
18170000   0.99528583   -4.7672092      1728000    3348.7194        90850         2205 
18180000    1.0054056   -4.6625226      1728000    3350.6204        90900         2207 
18190000     1.001942   -4.6837621      1728000    3352.5045        90950         2207 
18200000   0.98360703   -4.5697439      1728000    3354.3946        91000         2210 
18210000   0.98574856   -4.5942094      1728000    3356.2986        91050         2210 
18220000   0.94978768    -4.673507      1728000    3358.1847        91100         2211 
18230000    1.0466697   -4.7164336      1728000    3360.0757        91150         2211 
18240000   0.96674722   -4.7227406      1728000    3362.0302        91200         2213 
18250000    1.0559399   -4.6613893      1728000    3363.9174        91250         2216 
18260000    1.0092394   -4.6143652      1728000    3365.8138        91300         2217 
18270000    1.1008628   -4.6215492      1728000    3367.6979        91350         2217 
18280000    1.0058478   -4.6509682      1728000    3369.6309        91400         2217 
18290000   0.95708749   -4.5812872      1728000    3371.5091        91450         2218 
18300000    1.0020085   -4.7248901      1728000    3373.4127        91500         2220 
18310000   0.99943102   -4.7255231      1728000    3375.3028        91550         2222 
18320000    1.0269535   -4.6964653      1728000    3377.1981        91600         2223 
18330000    1.0003944    -4.569413      1728000    3379.1041        91650         2226 
18340000   0.93956457   -4.7972937      1728000    3381.0137        91700         2226 
18350000    1.0041643   -4.7483857      1728000      3382.95        91750         2228 
18360000    1.0081246   -4.6216177      1728000     3384.834        91800         2228 
18370000   0.98007878   -4.6247538      1728000    3386.7109        91850         2228 
18380000    1.0463188   -4.7113459      1728000    3388.5928        91900         2228 
18390000     1.065461   -4.6701376      1728000    3390.4941        91950         2230 
18400000   0.91848155   -4.6481927      1728000    3392.4231        92000         2231 
18410000   0.96398136   -4.5366738      1728000    3394.3242        92050         2231 
18420000   0.98706344   -4.7230222      1728000    3396.2382        92100         2232 
18430000    1.0254167   -4.7392635      1728000    3398.1323        92150         2233 
18440000    1.0603338   -4.6544319      1728000    3400.0763        92200         2233 
18450000   0.98296648   -4.8072755      1728000    3401.9835        92250         2233 
18460000    1.0445084   -4.6729164      1728000    3403.8746        92300         2234 
18470000     1.000702   -4.8039494      1728000    3405.7827        92350         2235 
18480000    0.9878363   -4.7919209      1728000    3407.6678        92400         2235 
18490000    1.0732619   -4.7753621      1728000    3409.5755        92450         2237 
18500000    1.0166499   -4.7770882      1728000    3411.4821        92500         2240 
18510000   0.99447102   -4.7026822      1728000    3413.3797        92550         2241 
18520000    1.0168237   -4.6299903      1728000      3415.36        92600         2242 
18530000    1.0375628   -4.7452224      1728000    3417.2662        92650         2243 
18540000    1.0004544   -4.7981076      1728000    3419.1565        92700         2245 
18550000   0.90527447   -4.6754187      1728000    3421.0606        92750         2245 
18560000   0.95070198   -4.7780718      1728000    3422.9527        92800         2246 
18570000    0.9801752   -4.7904549      1728000    3424.8837        92850         2247 
18580000   0.98800484   -4.6589291      1728000    3426.7907        92900         2248 
18590000   0.95934587   -4.7332459      1728000    3428.7008        92950         2248 
18600000    1.0424997    -4.869395      1728000     3430.631        93000         2248 
18610000    1.0299897   -4.7342656      1728000    3432.5227        93050         2250 
18620000   0.97268199   -4.7234086      1728000     3434.417        93100         2251 
18630000   0.96123947    -4.740381      1728000    3436.3327        93150         2251 
18640000   0.96381746   -4.7369646      1728000    3438.2398        93200         2253 
18650000   0.99326239   -4.7356442      1728000    3440.1729        93250         2253 
18660000    1.0294447   -4.7413683      1728000    3442.0698        93300         2253 
18670000   0.97057593   -4.6380315      1728000     3443.961        93350         2253 
18680000   0.99930843   -4.5931613      1728000    3445.8458        93400         2253 
18690000    1.0121012   -4.7848559      1728000     3447.774        93450         2254 
18700000    1.0444934    -4.674777      1728000    3449.7019        93500         2255 
18710000   0.98525815    -4.619587      1728000    3451.6289        93550         2255 
18720000    1.0395127   -4.7038191      1728000    3453.5339        93600         2255 
18730000   0.94966137   -4.7322091      1728000    3455.4448        93650         2255 
18740000    1.0437158   -4.7914596      1728000     3457.355        93700         2257 
18750000   0.98350854   -4.7165618      1728000    3459.2526        93750         2258 
18760000   0.99771286   -4.8010961      1728000    3461.1297        93800         2258 
18770000   0.95375158   -4.7117138      1728000    3463.0148        93850         2258 
18780000    1.0149076   -4.8709614      1728000    3464.9079        93900         2259 
18790000    1.0269038   -4.6450183      1728000    3466.8619        93950         2259 
18800000    1.0146336   -4.6251182      1728000    3468.7561        94000         2259 
18810000   0.98625756   -4.7721532      1728000    3470.7001        94050         2260 
18820000   0.98222687   -4.5937272      1728000    3472.6073        94100         2260 
18830000    1.0580115   -4.8184869      1728000     3474.502        94150         2260 
18840000   0.99235904   -4.7343375      1728000    3476.4209        94200         2260 
18850000    1.0483552   -4.7604376      1728000    3478.3259        94250         2261 
18860000   0.93864286   -4.7660418      1728000    3480.2321        94300         2261 
18870000     1.003514   -4.6119447      1728000    3482.1443        94350         2261 
18880000    1.0584008   -4.6516012      1728000    3484.0403        94400         2261 
18890000    1.0330609   -4.7071509      1728000    3485.9685        94450         2261 
18900000    1.0558442   -4.7321652      1728000    3487.8956        94500         2262 
18910000    1.0138129   -4.7678233      1728000    3489.8021        94550         2262 
18920000    1.0223495     -4.66359      1728000    3491.7321        94600         2262 
18930000   0.97506719    -4.590001      1728000    3493.6472        94650         2262 
18940000    1.0077037   -4.7085414      1728000    3495.5426        94700         2263 
18950000    1.0210623   -4.7154341      1728000    3497.4386        94750         2263 
18960000   0.99237224    -4.803341      1728000    3499.3469        94800         2263 
18970000   0.97225971   -4.8249888      1728000    3501.2501        94850         2264 
18980000    1.0260256       -4.644      1728000     3503.155        94900         2264 
18990000   0.99937009    -4.747539      1728000     3505.053        94950         2264 
19000000   0.96461016   -4.6793551      1728000    3506.9723        95000         2265 
19010000    1.0706228   -4.8346745      1728000    3508.8524        95050         2266 
19020000     1.006635   -4.7927731      1728000    3510.7805        95100         2266 
19030000    1.0420857   -4.7611795      1728000    3512.7455        95150         2266 
19040000   0.94374359   -4.6072445      1728000    3514.6393        95200         2266 
19050000   0.95649114   -4.6769977      1728000    3516.5267        95250         2266 
19060000    0.9512429   -4.6607055      1728000     3518.429        95300         2267 
19070000    1.0273324   -4.7829595      1728000    3520.3391        95350         2267 
19080000   0.93074428   -4.7551484      1728000    3522.2381        95400         2267 
19090000    1.0364656   -4.6270363      1728000    3524.1382        95450         2267 
19100000    1.0337793   -4.7771859      1728000    3526.0542        95500         2268 
19110000    1.0140257   -4.8043539      1728000    3527.9728        95550         2268 
19120000   0.96534949   -4.6409927      1728000    3529.9108        95600         2268 
19130000   0.99007456   -4.7792775      1728000    3531.8748        95650         2269 
19140000    1.0049384   -4.6973529      1728000    3533.8069        95700         2270 
19150000    1.0250984    -4.711987      1728000    3535.7209        95750         2270 
19160000   0.96928942   -4.7517632      1728000    3537.6342        95800         2271 
19170000   0.97391051    -4.669043      1728000    3539.5483        95850         2272 
19180000    1.0170387   -4.7226819      1728000    3541.4927        95900         2272 
19190000    1.0300688    -4.686463      1728000    3543.4027        95950         2272 
19200000   0.99305116   -4.6334099      1728000    3545.3617        96000         2272 
19210000   0.95208165   -4.7669411      1728000    3547.2757        96050         2273 
19220000   0.98439206   -4.7220398      1728000    3549.2457        96100         2273 
19230000   0.90918578   -4.7382943      1728000    3551.1248        96150         2275 
19240000    1.0306613   -4.6553106      1728000    3553.0039        96200         2275 
19250000   0.98303024   -4.7165439      1728000    3554.8854        96250         2275 
19260000   0.97016549   -4.7216384      1728000      3556.78        96300         2276 
19270000   0.89779996   -4.6553172      1728000    3558.6861        96350         2276 
19280000   0.96833227   -4.7114608      1728000    3560.5901        96400         2276 
19290000   0.96288329   -4.6935499      1728000    3562.5124        96450         2278 
19300000   0.97193942   -4.7800631      1728000    3564.4375        96500         2279 
19310000   0.96063752   -4.7377675      1728000    3566.4005        96550         2279 
19320000    1.0500394   -4.6158807      1728000    3568.3275        96600         2279 
19330000    1.0218128   -4.7498424      1728000    3570.2176        96650         2280 
19340000    1.0309245   -4.8553705      1728000    3572.1376        96700         2280 
19350000    1.0149486   -4.7631139      1728000    3574.0235        96750         2282 
19360000   0.98918994    -4.657847      1728000    3575.9166        96800         2284 
19370000    1.0222823   -4.6300887      1728000    3577.8466        96850         2285 
19380000    1.0194067    -4.826739      1728000    3579.8046        96900         2285 
19390000    1.0346634   -4.6637684      1728000    3581.7486        96950         2286 
19400000    1.0018158   -4.7997928      1728000    3583.6517        97000         2288 
19410000    1.0268627   -4.7423486      1728000    3585.6007        97050         2288 
19420000    1.0432835   -4.7908569      1728000    3587.5035        97100         2288 
19430000   0.94008195   -4.6565866      1728000    3589.4146        97150         2288 
19440000   0.98841069   -4.8129765      1728000    3591.3616        97200         2288 
19450000    1.0052134   -4.6299483      1728000    3593.2284        97250         2288 
19460000    1.0244055   -4.7631345      1728000    3595.1424        97300         2289 
19470000    1.0010294   -4.7014911      1728000    3597.0435        97350         2289 
19480000   0.93373078     -4.65716      1728000    3598.9424        97400         2289 
19490000   0.95943833   -4.7694347      1728000    3600.8415        97450         2289 
19500000   0.94885121   -4.7120537      1728000    3602.7675        97500         2290 
19510000   0.94807069   -4.8171886      1728000    3604.7085        97550         2290 
19520000   0.97404752   -4.7244516      1728000    3606.6185        97600         2290 
19530000    1.0208472   -4.7715374      1728000    3608.5326        97650         2292 
19540000    1.0231952   -4.8177496      1728000    3610.4676        97700         2292 
19550000    1.0170382   -4.7796861      1728000    3612.3512        97750         2292 
19560000     1.009628   -4.6680281      1728000    3614.2422        97800         2292 
19570000    1.0082228   -4.6663932      1728000    3616.1382        97850         2293 
19580000    1.0335753    -4.687018      1728000    3618.0174        97900         2295 
19590000   0.97639404   -4.7703952      1728000    3619.9166        97950         2298 
19600000   0.96876933   -4.7181741      1728000    3621.8287        98000         2299 
19610000   0.98373212   -4.7070735      1728000    3623.7327        98050         2299 
19620000    1.0403189   -4.7134431      1728000    3625.6528        98100         2300 
19630000    1.0057019   -4.6976021      1728000    3627.5707        98150         2301 
19640000    1.0509446   -4.8288662      1728000    3629.4914        98200         2302 
19650000    1.0107457   -4.7029266      1728000    3631.4578        98250         2304 
19660000   0.99069043   -4.7453745      1728000    3633.3843        98300         2308 
19670000    1.0083319   -4.8428715      1728000    3635.3574        98350         2311 
19680000   0.99219196   -4.7480992      1728000    3637.2606        98400         2312 
19690000   0.93495231   -4.7783246      1728000    3639.1539        98450         2312 
19700000    1.0112249   -4.7935209      1728000    3641.0872        98500         2312 
19710000   0.98953591    -4.704955      1728000    3643.0038        98550         2313 
19720000    1.0015353   -4.5919744      1728000    3644.9228        98600         2315 
19730000   0.97962026   -4.6714999      1728000    3646.8037        98650         2316 
19740000    1.0195177   -4.6448053      1728000    3648.7047        98700         2319 
19750000   0.98162531   -4.7161259      1728000    3650.6138        98750         2321 
19760000    1.0025909   -4.6359841      1728000    3652.5314        98800         2322 
19770000    1.0107879   -4.9446414      1728000      3654.46        98850         2324 
19780000    1.0062685   -4.6914667      1728000    3656.4081        98900         2324 
19790000    1.0128552   -4.6887027      1728000    3658.3234        98950         2324 
19800000      1.01319     -4.71384      1728000    3660.3117        99000         2324 
19810000   0.98105073   -4.7742681      1728000    3662.2148        99050         2324 
19820000   0.99417329   -4.8178941      1728000    3664.1409        99100         2325 
19830000    1.0040354   -4.7760945      1728000    3666.0559        99150         2325 
19840000    1.0489754   -4.7654216      1728000    3667.9548        99200         2328 
19850000    1.0087302   -4.7926468      1728000    3669.9085        99250         2328 
19860000   0.97940978   -4.8254168      1728000    3671.9514        99300         2328 
19870000    1.0257342   -4.7226007      1728000    3673.9234        99350         2329 
19880000    0.9817748   -4.6687129      1728000    3675.8579        99400         2329 
19890000    1.0287174   -4.7233082      1728000     3677.769        99450         2330 
19900000    1.0738427   -4.6869401      1728000    3679.7011        99500         2330 
19910000    1.0146573   -4.7998032      1728000    3681.6441        99550         2331 
19920000    1.0797268   -4.7416881      1728000    3683.5613        99600         2333 
19930000    0.9192752   -4.7095898      1728000    3685.5083        99650         2333 
19940000   0.98741479   -4.6965774      1728000    3687.4294        99700         2333 
19950000    1.0770167   -4.6731301      1728000    3689.3466        99750         2334 
19960000    1.0260833   -4.7255869      1728000    3691.2804        99800         2334 
19970000   0.93628927   -4.6908781      1728000    3693.1947        99850         2336 
19980000    1.0061197   -4.7685583      1728000    3695.1257        99900         2337 
19990000   0.98998314   -4.7656507      1728000    3697.0547        99950         2337 
20000000   0.99948889   -4.7779299      1728000    3698.9837       100000         2339 
20010000   0.98348647   -4.7521094      1728000    3700.9209       100050         2340 
20020000    1.0507759   -4.8420076      1728000    3702.8519       100100         2340 
20030000    1.0216453   -4.7725993      1728000    3704.7569       100150         2340 
20040000    1.0152654    -4.757615      1728000    3706.6701       100200         2342 
20050000    1.0086313   -4.7230932      1728000    3708.5786       100250         2342 
20060000     1.010259    -4.753923      1728000    3710.4827       100300         2343 
20070000     1.032054   -4.8460602      1728000    3712.3987       100350         2345 
20080000    1.0469051   -4.8097674      1728000    3714.3088       100400         2345 
20090000     1.046422   -4.6810426      1728000    3716.2928       100450         2345 
20100000     1.039324   -4.8925728      1728000    3718.2224       100500         2345 
20110000   0.99623683    -4.660581      1728000    3720.1384       100550         2347 
20120000     1.064728   -4.6928335      1728000    3722.0522       100600         2347 
20130000   0.94976174   -4.8507802      1728000    3723.9811       100650         2348 
20140000   0.97672945   -4.7775939      1728000    3725.8882       100700         2349 
20150000    1.0367026   -4.7500912      1728000    3727.7835       100750         2349 
20160000   0.96095173    -4.693381      1728000    3729.7175       100800         2351 
20170000    1.0148009   -4.8416939      1728000    3731.6866       100850         2351 
20180000   0.98686827   -4.7481332      1728000    3733.6346       100900         2352 
20190000   0.98243703    -4.801108      1728000    3735.5082       100950         2352 
20200000   0.98655415   -4.7748369      1728000    3737.3839       101000         2352 
20210000    1.0135493   -4.6961289      1728000    3739.2493       101050         2352 
20220000   0.99826443   -4.8336629      1728000    3741.1115       101100         2353 
20230000   0.97392918   -4.7930483      1728000    3742.9865       101150         2353 
20240000   0.97687982   -4.8274832      1728000    3744.8582       101200         2353 
20250000    1.0163073   -4.6737151      1728000    3746.7235       101250         2354 
20260000    1.0323341   -4.8509071      1728000     3748.585       101300         2355 
20270000   0.96006637   -4.7951528      1728000    3750.4603       101350         2356 
20280000    1.0404026   -4.7993007      1728000    3752.3043       101400         2357 
20290000    1.0678638    -4.672095      1728000    3754.1693       101450         2357 
20300000   0.97347221   -4.8388761      1728000    3756.0364       101500         2358 
20310000    1.0355679    -4.794291      1728000    3757.8832       101550         2358 
20320000    1.0413835   -4.7859621      1728000    3759.7364       101600         2358 
20330000     1.091451   -4.8234713      1728000    3761.5964       101650         2358 
20340000   0.98578618   -4.8273217      1728000     3763.432       101700         2358 
20350000   0.97502706   -4.7837311      1728000    3765.3055       101750         2359 
20360000   0.94308339   -4.8178354      1728000    3767.1514       101800         2360 
20370000    1.0362155   -4.7499186      1728000    3769.0131       101850         2360 
20380000   0.97055522   -4.7706564      1728000    3770.8675       101900         2360 
20390000     1.049588   -4.8279338      1728000    3772.7302       101950         2362 
20400000   0.90469539   -4.8651296      1728000     3774.598       102000         2364 
20410000    1.0473868   -4.8617759      1728000    3776.4615       102050         2365 
20420000   0.93572754   -4.7733278      1728000    3778.3134       102100         2366 
20430000   0.92116862   -4.6792682      1728000    3780.1863       102150         2366 
20440000   0.98344891   -4.8580379      1728000    3782.0454       102200         2366 
20450000    1.0281007   -4.8171832      1728000    3783.8991       102250         2366 
20460000     1.051795   -4.7402468      1728000    3785.7615       102300         2366 
20470000    1.0309587   -4.7933565      1728000    3787.6244       102350         2366 
20480000    1.0045851   -4.8321916      1728000    3789.5305       102400         2368 
20490000    1.0350821   -4.7935691      1728000    3791.4053       102450         2368 
20500000    0.9949209   -4.7207805      1728000    3793.2643       102500         2368 
20510000   0.98868755   -4.8607328      1728000    3795.1192       102550         2368 
20520000    1.0304127   -4.9070628      1728000    3796.9914       102600         2369 
20530000    1.0412581   -4.8637447      1728000    3798.8593       102650         2369 
20540000    1.0310965   -4.7768511      1728000    3800.7472       102700         2369 
20550000    1.0315043   -4.8967422      1728000    3802.6092       102750         2371 
20560000   0.99759679   -4.8621922      1728000    3804.4753       102800         2371 
20570000    1.0269614   -4.8743713      1728000    3806.3329       102850         2371 
20580000    1.0082102   -4.8878311      1728000    3808.1991       102900         2371 
20590000    1.0529684   -4.8803992      1728000    3810.0764       102950         2371 
20600000     1.031329   -4.7637755      1728000    3811.9754       103000         2372 
20610000    1.0049938    -4.819708      1728000    3813.9775       103050         2372 
20620000     1.005698   -4.9259698      1728000    3815.9327       103100         2372 
20630000    1.0230936    -4.850475      1728000    3817.8787       103150         2373 
20640000   0.93124212   -4.8557352      1728000      3819.81       103200         2374 
20650000     1.076761   -4.7973181      1728000    3821.7392       103250         2374 
20660000   0.99372407    -4.940371      1728000    3823.7023       103300         2374 
20670000   0.99315827   -4.8989255      1728000    3825.6557       103350         2374 
20680000    1.0288046   -4.9331859      1728000    3827.6287       103400         2374 
20690000    1.0347378   -4.8539766      1728000    3829.5848       103450         2374 
20700000    1.0164713   -4.9614175      1728000    3831.5261       103500         2375 
20710000    1.0076225   -4.9120868      1728000    3833.4711       103550         2376 
20720000    1.0738034   -4.9933247      1728000    3835.4131       103600         2376 
20730000   0.99915206    -4.800465      1728000    3837.3362       103650         2376 
20740000   0.99784968   -4.8494896      1728000    3839.2632       103700         2376 
20750000    0.9681404   -4.8255857      1728000    3841.2593       103750         2377 
20760000    1.0245662   -4.8110218      1728000    3843.1793       103800         2378 
20770000    1.0084937   -4.9390345      1728000    3845.0974       103850         2378 
20780000    1.0287065   -4.8202676      1728000    3847.0304       103900         2379 
20790000   0.94940811   -4.7371067      1728000    3848.9694       103950         2379 
20800000   0.97954537   -4.9736681      1728000    3850.8875       104000         2380 
20810000   0.97251045   -4.8813763      1728000      3852.84       104050         2380 
20820000    1.0060463   -4.9145375      1728000    3854.7303       104100         2380 
20830000   0.91843767   -4.8115707      1728000    3856.6583       104150         2380 
20840000   0.97933298   -4.8012474      1728000    3858.5723       104200         2381 
20850000   0.91305908   -4.7183655      1728000    3860.4402       104250         2381 
20860000    1.0379805   -4.8319048      1728000    3862.3742       104300         2381 
20870000    1.0039236   -4.9131891      1728000     3864.272       104350         2381 
20880000   0.93959808   -4.6778717      1728000    3866.1703       104400         2382 
20890000   0.97943958   -4.9414523      1728000    3868.0701       104450         2382 
20900000    1.0262194   -4.8562903      1728000    3869.9935       104500         2385 
20910000   0.98181231   -4.7213007      1728000    3871.9565       104550         2386 
20920000   0.98064443   -4.9279011      1728000    3873.9161       104600         2386 
20930000   0.97121108    -4.863181      1728000    3875.8117       104650         2386 
20940000   0.93151406   -4.8924344      1728000    3877.7061       104700         2386 
20950000    1.0155078   -4.9605434      1728000    3879.5838       104750         2386 
20960000   0.97080208   -4.6912601      1728000    3881.4781       104800         2386 
20970000   0.99470625   -4.8275611      1728000    3883.3532       104850         2386 
20980000    1.0305878   -4.9220972      1728000    3885.2221       104900         2386 
20990000   0.99892691   -4.8713744      1728000    3887.1112       104950         2386 
21000000    1.0180239   -4.8427141      1728000    3889.0043       105000         2386 
21010000     1.036246   -4.8918764      1728000    3890.9492       105050         2386 
21020000    1.0353741    -4.861762      1728000    3892.8482       105100         2386 
21030000    1.0271298   -4.9065737      1728000    3894.7281       105150         2387 
21040000   0.97051013   -4.7550198      1728000    3896.6193       105200         2387 
21050000   0.99726696   -4.9078818      1728000     3898.493       105250         2387 
21060000   0.98628738   -4.9204903      1728000    3900.3722       105300         2387 
21070000   0.98203776   -4.7870164      1728000    3902.2522       105350         2388 
21080000    1.0118277   -4.8046921      1728000     3904.125       105400         2388 
21090000   0.98350687   -4.8504129      1728000    3906.0042       105450         2388 
21100000    0.9791449   -4.8756368      1728000    3907.8823       105500         2389 
21110000    1.0198195   -4.9532687      1728000     3909.765       105550         2390 
21120000     1.014786   -4.8750643      1728000    3911.6542       105600         2390 
21130000   0.98565986   -4.9005934      1728000    3913.5322       105650         2390 
21140000    1.0246833   -4.9928891      1728000    3915.4223       105700         2390 
21150000   0.96148617    -4.858367      1728000    3917.3088       105750         2390 
21160000    0.9751648   -4.9592379      1728000    3919.2042       105800         2390 
21170000   0.97905101   -4.9085183      1728000    3921.0946       105850         2390 
21180000    0.9926398    -5.054987      1728000    3922.9893       105900         2390 
21190000    1.0015836   -4.8811909      1728000    3924.8613       105950         2390 
21200000     1.025288   -4.9900577      1728000    3926.8062       106000         2390 
21210000   0.97872034   -4.9536915      1728000    3928.7002       106050         2391 
21220000    1.0428063    -4.876364      1728000     3930.586       106100         2392 
21230000   0.98827852   -4.9489144      1728000    3932.4881       106150         2392 
21240000   0.98412982   -4.8498052      1728000     3934.392       106200         2392 
21250000    1.0143674   -4.9356284      1728000    3936.2841       106250         2392 
21260000   0.99938116    -4.828881      1728000    3938.2362       106300         2392 
21270000   0.99574753   -4.8781423      1728000    3940.1277       106350         2392 
21280000    1.0090644    -4.981508      1728000    3942.0523       106400         2394 
21290000    0.9710075   -4.9113642      1728000    3943.9609       106450         2394 
21300000   0.90361573   -4.7347374      1728000    3945.8919       106500         2394 
21310000    1.0443201   -4.8088911      1728000    3947.8187       106550         2394 
21320000   0.98711729   -4.8423206      1728000    3949.7864       106600         2394 
21330000   0.99262237   -4.9131704      1728000      3951.71       106650         2394 
21340000    1.0131925   -4.9194187      1728000    3953.5979       106700         2394 
21350000    1.0039704   -4.7529907      1728000    3955.5162       106750         2395 
21360000    1.0354797   -4.9260985      1728000     3957.434       106800         2395 
21370000   0.99623589   -4.7734608      1728000    3959.3969       106850         2395 
21380000    1.0867777   -4.7526715      1728000    3961.3286       106900         2395 
21390000    1.0056778   -4.8666672      1728000    3963.2815       106950         2396 
21400000    1.0054037   -4.8740304      1728000    3965.2554       107000         2397 
21410000    1.0788188   -4.8114478      1728000    3967.1855       107050         2397 
21420000    1.0069902     -4.77193      1728000    3969.2708       107100         2397 
21430000   0.99873138   -4.8938625      1728000    3971.2273       107150         2397 
21440000    0.9431193   -4.8483212      1728000    3973.2407       107200         2398 
21450000   0.99792297   -4.7663779      1728000    3975.3216       107250         2399 
21460000    1.0138952   -4.7603971      1728000     3977.334       107300         2399 
21470000   0.96491032   -5.0067702      1728000     3979.659       107350         2400 
21480000   0.95249465   -4.9206141      1728000     3982.089       107400         2400 
21490000   0.98769584   -4.8970731      1728000    3984.4156       107450         2400 
21500000    1.0489566   -4.8701026      1728000       3986.6       107500         2400 
21510000    1.0376208   -4.8268157      1728000    3988.6751       107550         2400 
21520000    1.0614074   -4.8539995      1728000      3991.13       107600         2400 
21530000   0.98501802   -4.8064493      1728000    3993.5184       107650         2400 
21540000    0.9687642   -4.8872274      1728000    3995.9997       107700         2400 
21550000    1.0581281   -4.9425861      1728000    3998.4459       107750         2400 
21560000    1.0103824   -4.8791933      1728000    4000.6838       107800         2400 
21570000   0.97324301   -4.8288971      1728000     4002.677       107850         2400 
21580000   0.97114615   -4.8618815      1728000    4004.6936       107900         2400 
21590000    1.0951634   -4.9188307      1728000     4006.722       107950         2400 
21600000   0.97284951   -4.9103977      1728000    4008.7277       108000         2401 
21610000   0.93600157   -4.8579114      1728000    4010.7252       108050         2401 
21620000   0.90409965   -4.8833284      1728000    4012.7137       108100         2401 
21630000    1.0472385   -4.8348089      1728000    4014.7125       108150         2401 
21640000   0.93844054   -4.9226701      1728000    4016.6677       108200         2401 
21650000    1.0881976   -4.9439907      1728000    4018.5922       108250         2401 
21660000   0.97861328   -4.9487078      1728000    4020.5418       108300         2401 
21670000   0.95961081      -4.8806      1728000    4022.5579       108350         2401 
21680000    1.0263001   -4.8914866      1728000    4024.5983       108400         2401 
21690000     1.019329    -4.923844      1728000    4026.5848       108450         2401 
21700000    1.0662628   -4.8426634      1728000    4028.5277       108500         2401 
21710000   0.97629686    -4.854001      1728000    4030.4719       108550         2401 
21720000    1.0161364   -4.8787936      1728000    4032.3801       108600         2401 
21730000   0.99991907   -4.7853401      1728000    4034.3427       108650         2402 
21740000    1.0291516   -4.6801402      1728000    4036.2426       108700         2402 
21750000   0.99072212   -4.8046584      1728000    4038.1747       108750         2403 
21760000   0.97229752    -4.811052      1728000    4040.2738       108800         2403 
21770000    1.0189312   -4.8293477      1728000     4042.182       108850         2404 
21780000    1.0047399   -4.7426083      1728000    4044.3649       108900         2404 
21790000    1.0544763   -4.8574652      1728000    4046.5322       108950         2405 
21800000   0.97859404   -4.8257213      1728000     4048.534       109000         2406 
21810000   0.97080406   -4.9352138      1728000    4050.5286       109050         2406 
21820000    1.0182137   -4.8895391      1728000    4052.5007       109100         2406 
21830000   0.93817917   -4.8824108      1728000     4054.475       109150         2407 
21840000   0.94589192   -4.8689515      1728000    4056.4426       109200         2407 
21850000   0.96261223   -4.8013701      1728000    4058.4084       109250         2407 
21860000    1.0555099   -4.8361796      1728000     4060.384       109300         2407 
21870000    1.0743316    -4.879383      1728000    4062.3605       109350         2408 
21880000    1.0069943   -4.8815664      1728000    4064.3373       109400         2408 
21890000    1.0128756   -4.8496534      1728000    4066.3145       109450         2408 
21900000   0.99765054   -4.9346016      1728000     4068.311       109500         2409 
21910000   0.95544025   -4.7774885      1728000    4070.4347       109550         2409 
21920000   0.97331856   -4.8781475      1728000    4072.5171       109600         2409 
21930000   0.98592533   -4.9307706      1728000    4074.4898       109650         2409 
21940000    1.0228614    -4.859978      1728000    4076.4707       109700         2410 
21950000   0.88109969   -4.7446014      1728000    4078.4452       109750         2410 
21960000   0.98342421   -4.8771505      1728000    4080.4158       109800         2410 
21970000    1.0382183   -4.8064646      1728000    4082.3738       109850         2410 
21980000    0.9757097   -4.7043068      1728000    4084.3384       109900         2410 
21990000    1.0409931   -4.8654492      1728000    4086.2739       109950         2412 
22000000   0.99382298   -4.7826639      1728000    4088.2532       110000         2413 
22010000   0.96277906   -4.7891566      1728000    4090.2593       110050         2413 
22020000    1.0019661   -4.7751367      1728000    4092.3571       110100         2413 
22030000   0.96259321   -4.8298017      1728000    4094.3518       110150         2413 
22040000    1.0001188   -4.8228598      1728000    4096.4936       110200         2413 
22050000   0.99619803   -4.8078947      1728000    4098.4609       110250         2413 
22060000   0.99639588   -4.9636226      1728000    4100.4305       110300         2414 
22070000   0.96234418   -4.8082397      1728000    4102.3889       110350         2414 
22080000   0.93192591   -4.8400068      1728000    4104.3431       110400         2415 
22090000    1.0082963   -4.8322113      1728000    4106.2978       110450         2415 
22100000    1.0163264   -4.7071134      1728000    4108.2776       110500         2415 
22110000    1.0036434   -4.9100533      1728000    4110.2705       110550         2415 
22120000    1.0134692    -4.750875      1728000    4112.2619       110600         2416 
22130000    1.0148431   -4.9140353      1728000    4114.2288       110650         2416 
22140000    1.0517683   -4.8457068      1728000    4116.2186       110700         2416 
22150000    1.0253778   -4.8789009      1728000     4118.269       110750         2416 
22160000   0.99999023   -4.8373292      1728000    4120.3648       110800         2416 
22170000   0.99733337   -4.8014065      1728000    4122.4963       110850         2416 
22180000    1.0287713   -4.9592363      1728000    4124.6135       110900         2416 
22190000    1.0125053   -4.7303801      1728000    4126.6676       110950         2416 
22200000   0.98742792   -4.9217332      1728000    4128.6876       111000         2416 
22210000   0.97713633   -4.8600784      1728000    4130.6877       111050         2416 
22220000   0.95435446   -4.7838727      1728000    4132.6919       111100         2416 
22230000   0.97882424     -4.88218      1728000     4134.712       111150         2416 
22240000   0.97984571   -4.9383759      1728000    4136.8659       111200         2417 
22250000   0.99862653   -4.6148219      1728000    4138.9806       111250         2418 
22260000    1.0107676   -4.8645419      1728000     4141.094       111300         2418 
22270000   0.97992596   -4.9157504      1728000    4143.1848       111350         2418 
22280000    1.0068226   -4.8212521      1728000    4145.3026       111400         2418 
22290000    1.0347493   -4.9755074      1728000    4147.4757       111450         2418 
22300000    1.0333484    -4.833862      1728000    4149.5171       111500         2419 
22310000    1.0487526    -4.925125      1728000    4151.5692       111550         2419 
22320000   0.96519877    -4.825646      1728000    4153.6382       111600         2420 
22330000    1.0030364   -4.9683237      1728000    4155.7415       111650         2421 
22340000    1.0225691   -4.8674344      1728000    4157.8415       111700         2421 
22350000    1.0312781   -4.9294938      1728000    4159.9653       111750         2421 
22360000    1.0072673   -4.9117679      1728000    4162.2277       111800         2421 
22370000   0.99819445   -4.9090116      1728000    4164.3466       111850         2421 
22380000    1.0624415   -5.0047753      1728000    4166.4717       111900         2421 
22390000   0.98613154   -4.9858127      1728000    4168.5345       111950         2422 
22400000   0.95673195   -4.9275903      1728000    4170.6804       112000         2422 
22410000   0.98017991   -4.8170999      1728000    4172.7816       112050         2422 
22420000    1.0236148   -4.8657747      1728000    4174.9111       112100         2423 
22430000   0.99113903   -4.8888328      1728000    4176.9925       112150         2423 
22440000   0.94644497   -4.9254608      1728000    4179.0666       112200         2424 
22450000   0.94718583   -4.8097312      1728000    4181.1737       112250         2425 
22460000    1.0518722   -4.8502677      1728000    4183.2668       112300         2425 
22470000    1.0322798   -4.9293832      1728000    4185.4051       112350         2425 
22480000    1.0745142   -4.8832766      1728000     4187.454       112400         2425 
22490000   0.92472918   -4.8275961      1728000    4189.5617       112450         2425 
22500000    1.0313029   -4.8132024      1728000    4191.6487       112500         2425 
22510000    0.9591012      -4.9775      1728000     4193.756       112550         2425 
22520000   0.96534329   -4.8439379      1728000    4195.8786       112600         2425 
22530000    1.0023884   -4.7801293      1728000    4197.8907       112650         2425 
22540000   0.97176205   -4.8898936      1728000    4199.9034       112700         2425 
22550000     1.007208   -4.8871746      1728000    4201.9594       112750         2426 
22560000    1.0110692   -4.9205613      1728000    4204.1387       112800         2426 
22570000   0.94927307   -4.8649784      1728000    4206.2611       112850         2426 
22580000   0.99301244   -4.8819747      1728000    4208.3705       112900         2426 
22590000    1.0617201     -4.85053      1728000    4210.4981       112950         2426 
22600000   0.97450768   -4.8840053      1728000    4212.6356       113000         2426 
22610000    1.0265412   -4.8646471      1728000    4214.7036       113050         2426 
22620000    1.0444285   -4.9468272      1728000    4216.7262       113100         2426 
22630000   0.94499471   -4.7956148      1728000    4218.8816       113150         2426 
22640000    1.0097733   -5.0135004      1728000    4220.9703       113200         2426 
22650000    1.0245142   -4.8419763      1728000    4223.0979       113250         2426 
22660000   0.98024802   -4.8667927      1728000    4225.2033       113300         2426 
22670000    1.0001925   -4.9165493      1728000    4227.3504       113350         2426 
22680000    1.0016985   -4.8957875      1728000    4229.4493       113400         2426 
22690000   0.93017763   -4.9630567      1728000    4231.5646       113450         2427 
22700000    1.0087968   -4.8190748      1728000    4233.7177       113500         2427 
22710000   0.96376994    -4.823311      1728000    4235.8797       113550         2428 
22720000    1.0067079   -4.9614505      1728000    4238.0648       113600         2428 
22730000    1.0044267   -4.7389637      1728000    4240.2024       113650         2428 
22740000   0.97390452   -4.8781886      1728000    4242.3226       113700         2428 
22750000   0.96435241   -4.9340508      1728000    4244.4565       113750         2428 
22760000     1.029216   -4.9343949      1728000    4246.5641       113800         2428 
22770000     1.038823   -4.9844989      1728000    4248.5145       113850         2428 
22780000   0.98759716   -4.8791114      1728000    4250.5831       113900         2428 
22790000   0.97634299   -4.9461818      1728000    4252.6974       113950         2428 
22800000   0.98685338    -4.797202      1728000     4254.811       114000         2428 
22810000    1.0064805   -4.8961845      1728000    4256.9336       114050         2428 
22820000    1.0379763   -4.9330158      1728000    4259.0334       114100         2428 
22830000    0.9957409   -4.8314159      1728000    4261.1831       114150         2428 
22840000   0.95045463    -4.892295      1728000    4263.2849       114200         2428 
22850000    1.0269635   -4.8728841      1728000    4265.3744       114250         2429 
22860000   0.99010879    -4.876733      1728000     4267.481       114300         2429 
22870000   0.98838318   -4.9226871      1728000    4269.5543       114350         2429 
22880000   0.96769122   -4.7740447      1728000    4271.6953       114400         2429 
22890000    1.0584454   -4.9649459      1728000    4273.8457       114450         2429 
22900000   0.99151398   -5.0093607      1728000    4275.9674       114500         2429 
22910000    1.0269117   -4.8718991      1728000    4278.0379       114550         2429 
22920000    1.0092031   -4.8603704      1728000    4280.1293       114600         2429 
22930000   0.92191109   -4.9704934      1728000    4282.2137       114650         2429 
22940000    1.0325248    -4.958934      1728000    4284.6933       114700         2429 
22950000   0.99408446   -4.7644294      1728000    4286.8329       114750         2429 
22960000    1.0033913   -4.8670288      1728000    4288.9245       114800         2429 
22970000    1.0131615   -4.8536729      1728000    4291.0309       114850         2429 
22980000   0.94817979   -4.9093531      1728000    4293.0668       114900         2429 
22990000   0.97718227   -4.7905638      1728000    4295.1785       114950         2429 
23000000   0.95841157    -4.844327      1728000    4297.2893       115000         2429 
23010000    1.0547849   -4.9617659      1728000    4299.3862       115050         2429 
23020000    0.9270063   -4.9500324      1728000    4301.4928       115100         2429 
23030000   0.94718526    -4.902974      1728000    4303.5912       115150         2429 
23040000    1.0518725   -4.8295068      1728000    4305.6483       115200         2429 
23050000   0.95692498   -4.9966674      1728000    4307.6903       115250         2429 
23060000   0.99921916   -4.9441001      1728000    4309.8041       115300         2429 
23070000   0.98096594   -4.8565583      1728000    4311.9279       115350         2432 
23080000    1.0486767   -4.9088583      1728000    4314.0468       115400         2432 
23090000    0.9743653   -4.9537636      1728000    4316.1729       115450         2432 
23100000   0.97934617   -4.8300692      1728000    4318.2712       115500         2432 
23110000    1.0092297   -4.9183789      1728000    4320.3585       115550         2432 
23120000    1.0220774   -4.9658824      1728000    4322.4463       115600         2432 
23130000    1.0216324   -4.8117686      1728000    4324.5828       115650         2432 
23140000    1.0579074    -4.786396      1728000    4326.6674       115700         2432 
23150000    1.0535927   -4.9025397      1728000    4328.7718       115750         2433 
23160000   0.99109113   -4.8491938      1728000    4330.8807       115800         2433 
23170000   0.95640832   -4.9432077      1728000    4332.9753       115850         2434 
23180000   0.94431616   -4.8458132      1728000    4335.0808       115900         2434 
23190000   0.96839012   -4.8819268      1728000    4337.1831       115950         2434 
23200000     1.038878   -4.6870464      1728000    4339.2538       116000         2434 
23210000   0.96570583   -4.9167453      1728000    4341.3253       116050         2434 
23220000    1.0226668     -4.75306      1728000    4343.4211       116100         2434 
23230000   0.99950863   -4.8413036      1728000    4345.5331       116150         2434 
23240000    1.0286187   -4.8815434      1728000    4347.6022       116200         2434 
23250000     1.005611   -4.8512082      1728000    4349.6635       116250         2434 
23260000    1.0547594   -4.8177641      1728000    4351.7331       116300         2434 
23270000    1.0039075   -4.8276583      1728000    4353.8192       116350         2434 
23280000    1.0629371   -4.8397774      1728000    4355.9001       116400         2435 
23290000   0.97844832   -4.7739533      1728000    4357.9594       116450         2436 
23300000    1.0143488   -4.7606346      1728000    4360.0493       116500         2436 
23310000    1.0104073   -4.9826255      1728000    4362.1675       116550         2436 
23320000   0.96499736   -4.9364407      1728000     4364.252       116600         2437 
23330000    1.0517255   -4.7145249      1728000    4366.4023       116650         2437 
23340000   0.98555811   -4.7882632      1728000    4368.4556       116700         2437 
23350000   0.99024506   -4.7909533      1728000    4370.5557       116750         2437 
23360000   0.94495432    -4.792882      1728000    4372.6563       116800         2438 
23370000   0.97552545    -4.697682      1728000    4374.7832       116850         2440 
23380000    1.0002036   -4.8867895      1728000    4376.8403       116900         2440 
23390000    1.0097894   -4.7930237      1728000    4378.9391       116950         2440 
23400000    1.0481941   -4.8509294      1728000    4381.0301       117000         2441 
23410000   0.93362328   -4.7759873      1728000    4383.0889       117050         2441 
23420000   0.99064362   -4.9151393      1728000    4385.1885       117100         2441 
23430000   0.98067971   -4.8549859      1728000    4387.2743       117150         2441 
23440000   0.98483149   -4.8982161      1728000    4389.3642       117200         2441 
23450000    1.0178364   -4.7844196      1728000    4391.4777       117250         2441 
23460000    1.0162685   -4.8790084      1728000    4393.5242       117300         2441 
23470000   0.94371062   -4.8010302      1728000    4395.6341       117350         2441 
23480000   0.98353514   -5.0234264      1728000    4397.7232       117400         2441 
23490000    1.0419461   -4.8718473      1728000    4399.8073       117450         2441 
23500000   0.98915883   -4.8374698      1728000    4401.9186       117500         2441 
23510000   0.95054753   -4.9042392      1728000    4403.9581       117550         2441 
23520000    1.0883651    -4.950675      1728000    4406.0326       117600         2441 
23530000   0.97405616   -4.8987633      1728000    4408.1081       117650         2441 
23540000   0.97328662   -4.9323683      1728000    4410.1811       117700         2441 
23550000   0.98093857    -5.002384      1728000    4412.2608       117750         2441 
23560000   0.97561372   -4.9234024      1728000    4414.3182       117800         2441 
23570000    1.0028809    -4.848589      1728000    4416.3623       117850         2441 
23580000    0.9931299   -5.0026903      1728000    4418.4202       117900         2441 
23590000    1.0186537   -4.9189652      1728000    4420.5414       117950         2441 
23600000   0.98559494   -5.0425502      1728000    4422.6612       118000         2441 
23610000    1.0397961   -5.0166419      1728000    4424.7481       118050         2441 
23620000    1.0031965   -5.0147032      1728000    4426.8424       118100         2441 
23630000   0.98928024   -4.8848565      1728000    4428.9579       118150         2441 
23640000   0.96058634   -4.9290505      1728000    4431.1064       118200         2441 
23650000   0.96940096   -4.8256417      1728000    4433.1573       118250         2441 
23660000    1.0201629   -5.0221871      1728000    4435.2351       118300         2441 
23670000   0.99793267   -4.8914391      1728000    4437.2772       118350         2441 
23680000    1.0018954   -4.9250862      1728000    4439.3263       118400         2441 
23690000    1.0019755   -4.8137867      1728000    4441.4241       118450         2441 
23700000   0.97593252   -4.9044848      1728000     4443.524       118500         2441 
23710000    1.0014241   -4.8039084      1728000    4445.6245       118550         2441 
23720000   0.94661004   -4.8426314      1728000    4447.6778       118600         2441 
23730000   0.99796913   -4.8810626      1728000     4449.731       118650         2441 
23740000   0.98294515   -4.9619427      1728000    4451.8201       118700         2441 
23750000   0.99452358   -4.9100803      1728000    4453.8974       118750         2441 
23760000    1.0519217   -4.8964371      1728000     4455.985       118800         2442 
23770000     1.007249   -4.9667505      1728000    4458.0561       118850         2442 
23780000   0.98539759   -4.8928134      1728000    4460.1231       118900         2442 
23790000    1.0066395   -4.8475924      1728000    4462.1842       118950         2442 
23800000   0.95265306    -4.905909      1728000     4464.279       119000         2442 
23810000    1.0113111   -4.7646456      1728000     4466.347       119050         2443 
23820000    1.0784013   -4.8207952      1728000     4468.442       119100         2443 
23830000   0.96000709   -4.9207434      1728000    4470.5011       119150         2443 
23840000    1.0440066   -4.9045189      1728000    4472.5828       119200         2444 
23850000   0.98478377   -4.9292575      1728000    4474.6752       119250         2444 
23860000   0.99128788   -4.7331269      1728000     4476.765       119300         2445 
23870000   0.98316497   -4.9757877      1728000    4478.8182       119350         2445 
23880000   0.98751432   -4.7626753      1728000    4480.8791       119400         2445 
23890000   0.96968482   -4.8348474      1728000     4482.925       119450         2445 
23900000     1.028314   -4.8918573      1728000    4484.9895       119500         2445 
23910000    1.0207325   -4.7629404      1728000    4487.0663       119550         2445 
23920000   0.93797071   -4.9251182      1728000    4489.0904       119600         2445 
23930000   0.96552852   -4.9258643      1728000    4491.4243       119650         2445 
23940000    1.0374191   -4.9301579      1728000    4493.4896       119700         2445 
23950000    1.0251872   -4.7736064      1728000     4495.581       119750         2445 
23960000   0.99049065   -4.8647861      1728000    4497.6702       119800         2446 
23970000   0.99417474   -4.9191346      1728000    4499.7808       119850         2446 
23980000   0.99805884   -4.9087423      1728000     4501.883       119900         2446 
23990000    1.0375808   -4.9052295      1728000     4503.926       119950         2446 
24000000     1.006034   -5.0152571      1728000    4506.0097       120000         2446 
24010000   0.99673479   -4.9163471      1728000    4508.1589       120050         2446 
24020000   0.97353603   -4.8776186      1728000    4510.2972       120100         2446 
24030000   0.96505838   -4.8019002      1728000    4512.4883       120150         2446 
24040000   0.96577106    -4.772127      1728000    4514.6101       120200         2447 
24050000    1.0246264   -4.8315039      1728000    4516.7452       120250         2447 
24060000    1.0594962   -4.9062974      1728000    4518.8123       120300         2448 
24070000    1.0266216   -4.8421692      1728000    4520.9081       120350         2448 
24080000    1.0584512   -4.9295934      1728000    4523.0139       120400         2449 
24090000    1.0003147   -4.7090585      1728000     4525.069       120450         2449 
24100000   0.97166413   -4.9361817      1728000    4527.1783       120500         2449 
24110000    1.0215286    -4.878576      1728000    4529.3249       120550         2449 
24120000    1.0186046   -4.9577195      1728000     4531.406       120600         2450 
24130000   0.91299887   -4.7489355      1728000    4533.4533       120650         2450 
24140000   0.96692173   -4.8869536      1728000     4535.508       120700         2450 
24150000    1.0572671   -4.8967885      1728000    4537.5308       120750         2450 
24160000    1.0024896   -4.8420744      1728000    4539.5762       120800         2450 
24170000   0.96621047   -4.7663331      1728000    4541.6108       120850         2450 
24180000    1.0002519   -4.8378569      1728000    4543.6572       120900         2450 
24190000    1.0593465   -4.9150657      1728000    4545.7557       120950         2451 
24200000    1.0153495   -4.8950464      1728000     4547.851       121000         2451 
24210000   0.96487653   -4.7897221      1728000     4549.955       121050         2451 
24220000    1.0136174   -4.8005687      1728000    4552.0267       121100         2452 
24230000    1.0041359   -4.8484303      1728000    4554.0989       121150         2452 
24240000    1.1001208   -4.7739777      1728000    4556.2038       121200         2452 
24250000    1.0274296   -4.8580222      1728000    4558.2459       121250         2452 
24260000     1.040949   -4.9173046      1728000    4560.2905       121300         2453 
24270000   0.97590759   -4.8561247      1728000    4562.3259       121350         2453 
24280000    1.0297688   -4.8306976      1728000    4564.3299       121400         2454 
24290000   0.99909462   -4.8581612      1728000    4566.4059       121450         2454 
24300000    0.9944505   -4.9106067      1728000    4568.3769       121500         2454 
24310000    1.0175431   -4.8994367      1728000    4570.4603       121550         2454 
24320000     1.014427    -4.853872      1728000    4572.5771       121600         2454 
24330000   0.96542275   -4.8539885      1728000    4574.7304       121650         2454 
24340000    1.0054051   -4.8633468      1728000    4576.7588       121700         2454 
24350000     1.046139   -4.8420376      1728000     4578.739       121750         2454 
24360000   0.94933501   -4.8130775      1728000    4580.7927       121800         2456 
24370000    1.0379029   -4.8189308      1728000     4582.882       121850         2456 
24380000   0.99470724   -4.9059302      1728000    4584.9924       121900         2456 
24390000    0.9383206   -4.9909326      1728000     4587.088       121950         2456 
24400000   0.93375924   -4.7904934      1728000    4589.2062       122000         2457 
24410000    1.0126408   -4.7470614      1728000    4591.4339       122050         2457 
24420000   0.95623092   -4.8974654      1728000    4593.6984       122100         2457 
24430000    1.0014297   -4.9195946      1728000    4595.8448       122150         2457 
24440000    1.0309478   -4.8715365      1728000    4597.9649       122200         2457 
24450000    1.0654005   -4.8697161      1728000    4600.0633       122250         2457 
24460000   0.97944718   -4.9064107      1728000    4602.1815       122300         2457 
24470000   0.98860882   -4.9085535      1728000    4604.3117       122350         2457 
24480000    1.0418762   -4.8228554      1728000    4606.6918       122400         2457 
24490000    1.0871383   -4.8671028      1728000    4608.8317       122450         2458 
24500000     0.994913   -4.7440967      1728000     4610.974       122500         2459 
24510000    1.0025372   -4.9234309      1728000    4613.0944       122550         2459 
24520000   0.95969011   -4.7738562      1728000    4615.2177       122600         2459 
24530000    1.0512476   -4.9316317      1728000    4617.3998       122650         2461 
24540000    1.0672823   -4.8578334      1728000    4619.4449       122700         2462 
24550000   0.98065601    -4.888146      1728000    4621.5728       122750         2462 
24560000    1.0382965   -4.8409252      1728000    4623.8698       122800         2462 
24570000   0.99023131   -4.6506478      1728000    4626.0092       122850         2462 
24580000    1.0064017   -4.8801349      1728000    4628.2441       122900         2462 
24590000    1.0000137   -4.9174074      1728000    4630.3318       122950         2463 
24600000    1.0331229   -4.8819169      1728000    4632.3893       123000         2463 
24610000   0.99227961   -4.8627435      1728000    4634.4972       123050         2463 
24620000   0.99537955   -4.9097339      1728000    4636.5909       123100         2463 
24630000   0.97961165   -4.9307981      1728000    4638.6602       123150         2463 
24640000    1.0275389   -4.9268186      1728000    4640.7538       123200         2463 
24650000    1.0678804   -4.8700175      1728000     4642.786       123250         2463 
24660000    1.0247514   -4.9027481      1728000    4644.8537       123300         2464 
24670000   0.99445783   -4.8033875      1728000    4646.9375       123350         2464 
24680000   0.92320868   -4.8599744      1728000    4649.0061       123400         2464 
24690000    1.0544725   -4.8031111      1728000    4651.0709       123450         2464 
24700000    1.0223327   -4.7975083      1728000    4653.1473       123500         2464 
24710000     1.026668   -4.9137702      1728000    4655.2144       123550         2465 
24720000   0.95494013   -4.8944838      1728000    4657.3288       123600         2465 
24730000    1.0165196   -4.8192339      1728000    4659.4419       123650         2466 
24740000   0.97734724   -4.8582068      1728000    4661.4568       123700         2466 
24750000   0.98837607   -4.8851658      1728000    4663.5127       123750         2466 
24760000     1.039514    -4.835547      1728000    4665.5427       123800         2466 
24770000   0.98003509   -4.7628841      1728000    4667.5749       123850         2466 
24780000    1.0175416   -5.0160918      1728000    4669.6019       123900         2466 
24790000    1.0179388   -4.9184109      1728000    4671.6619       123950         2466 
24800000    1.0059097   -4.8450722      1728000    4673.7057       124000         2466 
24810000    1.0326048   -4.9123217      1728000    4675.7971       124050         2466 
24820000    1.0035205   -4.9029682      1728000    4677.8037       124100         2466 
24830000    1.0407521   -4.8753377      1728000    4679.8508       124150         2466 
24840000   0.99905826   -4.9111977      1728000    4681.9039       124200         2467 
24850000   0.99598761   -4.8867339      1728000    4683.9801       124250         2467 
24860000    1.0242178    -4.951554      1728000    4686.0835       124300         2467 
24870000    1.0448226   -4.9206276      1728000    4688.1327       124350         2467 
24880000   0.95105197   -4.9103427      1728000    4690.2234       124400         2467 
24890000   0.92781559    -4.889546      1728000    4692.2938       124450         2467 
24900000    1.0258422   -4.7564549      1728000    4694.3239       124500         2467 
24910000    1.0134719   -4.9151433      1728000    4696.3976       124550         2467 
24920000   0.96143575   -4.8972746      1728000    4698.4303       124600         2467 
24930000    0.9708255   -5.0112669      1728000    4700.4576       124650         2467 
24940000    1.0039607   -4.8802785      1728000    4702.5156       124700         2467 
24950000   0.97730608   -4.9656221      1728000    4704.5988       124750         2467 
24960000   0.99786238   -4.8480467      1728000    4706.6439       124800         2467 
24970000    1.0196806   -4.9242368      1728000    4708.7065       124850         2467 
24980000   0.95303083   -4.8706979      1728000    4710.7478       124900         2467 
24990000   0.94628111   -4.9374241      1728000    4712.7863       124950         2467 
25000000    1.0295081   -4.9395972      1728000    4714.8597       125000         2467 
25010000   0.99888181   -4.9305337      1728000    4716.8989       125050         2467 
25020000    1.0368684   -4.9565929      1728000    4718.9328       125100         2467 
25030000    1.0542821   -4.8048251      1728000    4720.9967       125150         2467 
25040000   0.97690042   -4.7533613      1728000    4723.0038       125200         2468 
25050000   0.95691746   -4.9577157      1728000    4725.0517       125250         2468 
25060000   0.96652883   -5.0140451      1728000    4727.1086       125300         2468 
25070000   0.97963205   -4.9157765      1728000    4729.1508       125350         2468 
25080000    1.0133838   -4.7667689      1728000    4731.2274       125400         2470 
25090000    1.0764197   -4.8920995      1728000    4733.3207       125450         2470 
25100000   0.98672469    -4.900725      1728000    4735.3695       125500         2470 
25110000   0.94084937   -4.8879729      1728000    4737.4087       125550         2470 
25120000    1.0452211   -4.7839652      1728000    4739.4409       125600         2470 
25130000    1.0917025   -4.9038284      1728000    4741.4612       125650         2470 
25140000    1.0252552   -4.9383662      1728000    4743.5016       125700         2470 
25150000    1.0084702   -4.8497483      1728000    4745.5395       125750         2470 
25160000   0.99353109   -4.9435606      1728000    4747.6367       125800         2470 
25170000    1.0776822   -4.8744958      1728000    4749.7257       125850         2470 
25180000   0.97579995   -4.8127159      1728000    4751.7854       125900         2470 
25190000    1.0004307   -4.8059565      1728000    4753.8428       125950         2470 
25200000    1.0436244   -4.8818019      1728000    4755.9274       126000         2470 
25210000   0.97350381   -4.8632584      1728000    4757.9561       126050         2470 
25220000   0.94888997   -4.8109679      1728000    4760.0406       126100         2470 
25230000   0.96363622    -4.797821      1728000    4762.0976       126150         2470 
25240000   0.99277198   -4.9985753      1728000    4764.1306       126200         2470 
25250000    0.9975017   -4.8777827      1728000    4766.1886       126250         2470 
25260000    1.0136843   -5.0398254      1728000    4768.1937       126300         2470 
25270000    1.0030293   -4.8930136      1728000    4770.2483       126350         2470 
25280000    1.0025691   -4.8676235      1728000     4772.332       126400         2470 
25290000   0.99946052   -4.9888436      1728000    4774.4306       126450         2470 
25300000   0.98336087   -4.7980926      1728000    4776.5167       126500         2470 
25310000   0.97511767   -4.9639015      1728000    4778.6234       126550         2470 
25320000     1.050481   -4.9731255      1728000    4780.7265       126600         2470 
25330000    1.0447059   -4.8741064      1728000    4782.8303       126650         2471 
25340000   0.96774849   -4.7998344      1728000    4784.9848       126700         2471 
25350000    1.0327066   -4.9454423      1728000     4787.078       126750         2471 
25360000   0.95910805   -4.8571355      1728000    4789.1593       126800         2471 
25370000   0.93696545   -4.9386715      1728000    4791.2565       126850         2471 
25380000   0.98091581   -4.9819352      1728000    4793.3846       126900         2471 
25390000    1.0129451   -4.9354891      1728000    4795.5389       126950         2471 
25400000    1.0337444   -4.9433123      1728000    4797.6915       127000         2471 
25410000   0.99206078   -4.8892434      1728000    4799.7915       127050         2471 
25420000   0.99497579   -4.8669392      1728000    4801.8958       127100         2472 
25430000   0.96327181   -4.8722231      1728000    4803.9707       127150         2472 
25440000     1.102524   -4.8249189      1728000    4806.0796       127200         2472 
25450000    1.0077537   -4.8792772      1728000    4808.1848       127250         2472 
25460000   0.99466635   -4.9825962      1728000    4810.2565       127300         2474 
25470000   0.96610136   -4.9071255      1728000    4812.3457       127350         2474 
25480000    1.0180439   -4.9554434      1728000    4814.4036       127400         2474 
25490000    1.0076983   -4.7955911      1728000     4816.986       127450         2474 
25500000   0.98745693   -4.8926979      1728000     4818.999       127500         2474 
25510000   0.98823264   -4.8970214      1728000    4821.0935       127550         2475 
25520000   0.97278498   -4.8634237      1728000    4823.1908       127600         2475 
25530000    1.0618429   -4.9037413      1728000    4825.2986       127650         2475 
25540000   0.98886032   -4.9617481      1728000    4827.5289       127700         2475 
25550000     1.023803   -4.8336507      1728000    4829.7455       127750         2475 
25560000   0.98398599   -4.9204701      1728000    4831.8925       127800         2475 
25570000    1.0567063   -4.8022798      1728000    4833.8782       127850         2475 
25580000    1.0654307   -4.8357273      1728000    4835.8195       127900         2475 
25590000    1.0041363   -4.8175693      1728000    4837.8757       127950         2475 
25600000   0.96787624   -4.8300718      1728000    4839.9961       128000         2475 
25610000   0.97727742   -4.7413158      1728000    4842.1018       128050         2475 
25620000    1.0032849   -4.7256134      1728000    4844.2248       128100         2475 
25630000   0.94535221   -4.7668836      1728000    4846.3334       128150         2475 
25640000    1.0102566   -4.8356104      1728000    4848.3982       128200         2475 
25650000    1.0102825   -4.9453059      1728000     4850.489       128250         2475 
25660000    1.0126702   -4.9430697      1728000    4852.5933       128300         2475 
25670000    1.0514935   -5.0471888      1728000    4854.6926       128350         2475 
25680000    1.0497549   -4.8476849      1728000    4856.8135       128400         2475 
25690000    1.0879863   -4.8818017      1728000    4858.8785       128450         2475 
25700000    1.0216458   -5.0289967      1728000    4861.0391       128500         2475 
25710000   0.95116712    -4.850734      1728000    4863.1334       128550         2475 
25720000    1.0434412   -4.8205258      1728000    4865.2515       128600         2475 
25730000    1.0358565   -4.9608713      1728000    4867.3372       128650         2475 
25740000    1.0405473   -4.8494893      1728000    4869.4299       128700         2475 
25750000     1.005822   -4.7861363      1728000    4871.6755       128750         2476 
25760000   0.99920977     -4.93679      1728000    4873.8835       128800         2476 
25770000   0.98565009   -4.8505663      1728000    4875.9875       128850         2477 
25780000     1.039127   -4.8285778      1728000    4878.0315       128900         2477 
25790000   0.97504773   -4.8679655      1728000    4880.1277       128950         2477 
25800000      1.03638   -4.8963882      1728000    4882.2384       129000         2477 
25810000    1.0108135   -4.8666166      1728000    4884.3443       129050         2477 
25820000    1.0110726   -4.7783387      1728000     4886.462       129100         2477 
25830000   0.98198375   -4.9016484      1728000    4888.5603       129150         2477 
25840000   0.98546291   -4.9175254      1728000    4890.6325       129200         2477 
25850000   0.97636928   -4.9720877      1728000    4892.7306       129250         2478 
25860000   0.98119646   -4.7672243      1728000    4894.8696       129300         2478 
25870000    1.0771795   -4.8359379      1728000    4896.9424       129350         2478 
25880000    1.0522426    -4.820411      1728000    4899.0447       129400         2478 
25890000   0.96691094   -4.8326833      1728000    4901.1259       129450         2478 
25900000   0.97444352   -4.8944334      1728000    4903.2043       129500         2478 
25910000   0.92579088    -4.936738      1728000    4905.3174       129550         2478 
25920000    1.0969601   -4.9181685      1728000    4907.3824       129600         2479 
25930000    1.0022147   -4.9348834      1728000    4909.4625       129650         2479 
25940000   0.96172254   -4.9094813      1728000    4911.5241       129700         2479 
25950000   0.98001569   -4.8308518      1728000    4913.5362       129750         2479 
25960000     1.051056   -4.9391135      1728000    4915.6014       129800         2479 
25970000    1.1221577   -4.8033765      1728000    4917.6773       129850         2479 
25980000    1.0140712     -4.95453      1728000    4919.7855       129900         2479 
25990000   0.96874879   -4.8618545      1728000    4921.8717       129950         2479 
26000000    1.0076259   -4.8036127      1728000    4923.9674       130000         2479 
26010000   0.98659707   -4.9194977      1728000    4926.0636       130050         2481 
26020000   0.99235249   -4.8046629      1728000    4928.1557       130100         2483 
26030000   0.98527371    -4.766217      1728000    4930.2465       130150         2483 
26040000    1.0281912   -4.7491698      1728000    4932.3063       130200         2484 
26050000      1.12626   -4.9460756      1728000    4934.9165       130250         2485 
26060000    1.0140543   -4.8901484      1728000    4937.0481       130300         2485 
26070000    1.0552881   -4.8458293      1728000    4939.1497       130350         2485 
26080000   0.95923562   -4.7678198      1728000    4941.2324       130400         2486 
26090000   0.99843078   -4.9158704      1728000    4943.2893       130450         2486 
26100000    1.0023834   -4.8551695      1728000    4945.3183       130500         2486 
26110000   0.97367154   -4.9353593      1728000    4947.3471       130550         2486 
26120000    1.0350029   -4.8780601      1728000    4949.4279       130600         2487 
26130000   0.97882162   -4.9146921      1728000    4951.5354       130650         2487 
26140000    1.0466674   -4.8001786      1728000    4953.6415       130700         2488 
26150000   0.96899678    -4.936906      1728000    4955.7684       130750         2488 
26160000   0.97001888   -4.8399718      1728000    4957.8603       130800         2488 
26170000    1.0640685   -4.8817371      1728000    4959.9251       130850         2488 
26180000   0.99482736   -4.8077274      1728000    4961.9845       130900         2488 
26190000   0.95432881   -4.8612527      1728000    4964.0563       130950         2489 
26200000   0.96027355   -4.8554048      1728000    4966.1549       131000         2489 
26210000   0.96478246   -4.8885482      1728000    4968.2393       131050         2489 
26220000   0.97167579   -4.9283333      1728000    4970.3376       131100         2489 
26230000     1.003558   -4.7798276      1728000    4972.4294       131150         2489 
26240000   0.93450298   -4.8475439      1728000    4974.4644       131200         2489 
26250000    1.0307406   -4.7891376      1728000    4976.5365       131250         2490 
26260000    1.0365496   -4.7714899      1728000       4978.6       131300         2490 
26270000    1.0550308   -4.8723625      1728000    4980.6672       131350         2491 
26280000     0.997619   -4.8920757      1728000    4982.7851       131400         2491 
26290000    0.9724212   -5.0209438      1728000    4984.8495       131450         2491 
26300000    1.0493194   -4.8892382      1728000    4986.9526       131500         2491 
26310000   0.96656335   -4.9331054      1728000    4989.0473       131550         2492 
26320000   0.99842439   -4.8982159      1728000    4991.0644       131600         2493 
26330000    1.0373255   -4.7909298      1728000    4993.1752       131650         2494 
26340000    1.0337451   -4.7420369      1728000    4995.2757       131700         2494 
26350000   0.99613484   -4.7871278      1728000    4997.3493       131750         2494 
26360000   0.92074427   -4.8847091      1728000    4999.2991       131800         2494 
26370000   0.96784854   -4.7951521      1728000    5001.3073       131850         2494 
26380000   0.98464645   -4.9403799      1728000    5003.4012       131900         2494 
26390000    1.0310693   -4.7268086      1728000    5005.4491       131950         2494 
26400000    1.0923046    -4.906499      1728000    5007.5016       132000         2494 
26410000    0.9822737   -4.8953418      1728000    5009.5553       132050         2496 
26420000    1.0624535   -4.8360338      1728000    5011.6751       132100         2496 
26430000    1.0276793   -4.8621954      1728000    5013.7793       132150         2498 
26440000    1.0124173   -4.9955048      1728000    5015.8093       132200         2499 
26450000    1.0317954   -4.8214338      1728000    5017.8736       132250         2499 
26460000   0.97951787   -4.9514548      1728000    5019.9897       132300         2499 
26470000   0.99160414   -4.8865853      1728000    5022.0783       132350         2499 
26480000   0.93665652   -4.8237365      1728000    5024.1835       132400         2499 
26490000   0.95215515   -4.8246152      1728000    5026.2439       132450         2499 
26500000    1.0297781   -4.8879808      1728000    5028.3262       132500         2499 
26510000    1.0289935   -4.7744732      1728000    5030.4155       132550         2499 
26520000   0.97425984   -4.7151154      1728000    5032.5088       132600         2499 
26530000    1.0254328   -4.8234681      1728000    5034.6652       132650         2500 
26540000   0.98072941   -4.8201389      1728000    5036.7433       132700         2500 
26550000    1.0062467   -4.9142141      1728000    5038.8441       132750         2500 
26560000   0.97661159   -4.8800203      1728000    5040.9423       132800         2502 
26570000    1.0190259   -4.9063961      1728000    5043.0296       132850         2503 
26580000    1.0213662   -4.8515511      1728000    5045.1017       132900         2504 
26590000   0.96034883   -4.8147468      1728000    5047.2061       132950         2505 
26600000   0.95547209   -4.7387169      1728000    5049.3374       133000         2505 
26610000    1.0636538   -4.9045237      1728000    5051.3984       133050         2506 
26620000    1.0161985   -4.8756614      1728000    5053.4813       133100         2507 
26630000   0.96785595   -4.9411139      1728000    5055.6328       133150         2508 
26640000    1.0054849   -4.9114177      1728000    5057.7553       133200         2508 
26650000   0.94193229   -4.9632667      1728000    5059.8383       133250         2508 
26660000     1.012706   -4.8068463      1728000     5061.958       133300         2510 
26670000     1.064584   -4.9214289      1728000    5064.0828       133350         2511 
26680000    0.9935168   -4.8078625      1728000    5066.2091       133400         2512 
26690000    1.0019413   -4.8948557      1728000    5068.3249       133450         2512 
26700000    0.9628656   -4.8026265      1728000    5070.4513       133500         2512 
26710000    1.0213043   -4.9187944      1728000    5072.5778       133550         2512 
26720000    1.0234191    -4.811093      1728000    5074.6819       133600         2512 
26730000   0.98315811   -4.9685254      1728000    5076.8404       133650         2512 
26740000     0.997072   -4.8949945      1728000    5078.9321       133700         2512 
26750000   0.97298665   -4.7969574      1728000    5080.9858       133750         2512 
26760000    1.0311939   -4.8649284      1728000    5083.0765       133800         2512 
26770000    1.0367647   -4.7805647      1728000    5085.1659       133850         2512 
26780000   0.98282422   -4.9250879      1728000    5087.2695       133900         2512 
26790000   0.98890428   -4.8183982      1728000    5089.3793       133950         2512 
26800000   0.95080685    -4.873035      1728000    5091.4873       134000         2512 
26810000    1.0075032   -4.9182741      1728000    5093.5701       134050         2512 
26820000   0.99700929   -4.8295508      1728000    5095.6341       134100         2512 
26830000    1.0133293   -4.8985666      1728000    5097.6919       134150         2512 
26840000   0.99630654   -4.9005617      1728000    5099.7362       134200         2512 
26850000   0.98934354   -4.8415049      1728000    5101.7712       134250         2513 
26860000   0.93849396   -4.9193962      1728000     5103.831       134300         2513 
26870000    1.0202451   -4.8120242      1728000    5105.9271       134350         2514 
26880000     1.036101   -4.8844009      1728000    5107.9998       134400         2514 
26890000   0.96499253   -4.8193638      1728000    5110.0946       134450         2515 
26900000   0.97594272   -4.8821489      1728000    5112.1871       134500         2515 
26910000   0.95017616   -4.8676892      1728000    5114.2889       134550         2515 
26920000   0.99071124   -4.9268308      1728000    5116.3452       134600         2515 
26930000    1.0066598   -4.9980461      1728000     5118.442       134650         2515 
26940000    1.0075192   -5.0370486      1728000    5120.5702       134700         2515 
26950000    1.0846884   -4.6971285      1728000    5122.6953       134750         2515 
26960000   0.99297845   -4.9052729      1728000    5124.8031       134800         2515 
26970000   0.95586898   -4.9700123      1728000     5126.891       134850         2515 
26980000    1.0312647   -4.8815796      1728000    5128.9623       134900         2515 
26990000   0.98007885   -4.9076063      1728000    5131.0391       134950         2515 
27000000   0.91728311   -4.8012543      1728000    5133.1673       135000         2515 
27010000   0.95226551   -4.8605186      1728000    5135.2331       135050         2515 
27020000    1.0781056   -5.0014127      1728000     5137.281       135100         2516 
27030000    1.0573816    -4.887864      1728000    5139.3267       135150         2516 
27040000    1.0559502   -4.9102951      1728000    5141.3519       135200         2516 
27050000   0.96678116   -4.8144291      1728000     5143.407       135250         2516 
27060000    1.0527447   -4.7702297      1728000    5145.4427       135300         2516 
27070000    1.0386893   -4.8438851      1728000    5147.4953       135350         2516 
27080000    1.0312672   -4.7610788      1728000    5149.5822       135400         2516 
27090000    0.9634229   -4.9952676      1728000     5151.635       135450         2516 
27100000   0.98498287    -4.927577      1728000    5153.7211       135500         2516 
27110000   0.97635889   -5.0376275      1728000    5155.8384       135550         2516 
27120000   0.98059917   -4.9254107      1728000    5157.9438       135600         2516 
27130000    1.0608117   -4.9406485      1728000    5160.1154       135650         2517 
27140000    1.0265188   -4.8131372      1728000     5162.625       135700         2517 
27150000   0.93043292   -4.9571496      1728000    5164.7328       135750         2517 
27160000   0.96269222   -4.7825876      1728000    5166.8661       135800         2517 
27170000   0.96781592   -4.9758866      1728000    5168.9253       135850         2517 
27180000   0.98252439   -4.8182345      1728000     5170.984       135900         2517 
27190000   0.99567983   -4.9669891      1728000    5173.0312       135950         2517 
27200000   0.97166115   -4.8579661      1728000     5175.107       136000         2517 
27210000    1.0105216   -4.9858558      1728000    5177.1921       136050         2517 
27220000   0.96760119   -4.9140412      1728000    5179.2507       136100         2517 
27230000   0.97533088   -4.8786523      1728000    5181.3339       136150         2517 
27240000    1.0401817     -4.67631      1728000     5183.417       136200         2517 
27250000    1.0062098   -4.8577653      1728000    5185.4298       136250         2518 
27260000   0.94260589   -4.9300355      1728000    5187.4749       136300         2518 
27270000   0.99554165   -4.8349207      1728000    5189.5791       136350         2519 
27280000   0.99320094   -4.8894777      1728000    5191.6895       136400         2519 
27290000    1.0280253   -4.8790582      1728000    5193.7439       136450         2519 
27300000    1.0053409   -4.9597443      1728000    5195.7927       136500         2519 
27310000   0.99982155   -4.8769849      1728000    5197.8209       136550         2519 
27320000   0.98106365   -4.8185134      1728000    5199.9154       136600         2519 
27330000   0.98065777    -4.871637      1728000    5201.9609       136650         2519 
27340000    1.0565669   -4.9057696      1728000    5204.0332       136700         2519 
27350000   0.92082778    -4.910241      1728000    5206.1294       136750         2519 
27360000    1.0074211   -4.9382367      1728000     5208.185       136800         2519 
27370000    1.0455727   -4.8757593      1728000    5210.2672       136850         2519 
27380000    1.0101081   -4.9231923      1728000    5212.3636       136900         2519 
27390000   0.95229264   -4.7662494      1728000    5214.4873       136950         2519 
27400000    1.0614253   -4.8608414      1728000    5216.5661       137000         2521 
27410000    0.9776458   -4.8900631      1728000    5218.6789       137050         2521 
27420000   0.98596737   -4.9596734      1728000    5220.7869       137100         2522 
27430000    1.0344426   -4.8419009      1728000    5222.8815       137150         2522 
27440000    1.0668675   -4.9795566      1728000    5224.9899       137200         2522 
27450000   0.98148348   -4.9794899      1728000     5227.057       137250         2522 
27460000    1.0748157   -4.8544565      1728000     5229.171       137300         2523 
27470000   0.94951483    -4.901885      1728000    5231.2351       137350         2524 
27480000    1.0549331   -4.8103324      1728000    5233.2899       137400         2524 
27490000   0.96998316     -4.76003      1728000    5235.3253       137450         2524 
27500000    1.0176825   -4.8645761      1728000    5237.3662       137500         2524 
27510000   0.99147307   -4.8818963      1728000    5239.4107       137550         2524 
27520000     1.000169   -4.8217992      1728000    5241.4781       137600         2525 
27530000     1.018682   -4.9199115      1728000    5243.5533       137650         2525 
27540000    1.0219745   -4.9452916      1728000    5245.6231       137700         2525 
27550000     1.086454   -4.8555094      1728000    5247.6579       137750         2525 
27560000   0.98363338   -4.9626304      1728000    5249.7621       137800         2525 
27570000   0.98475023   -5.0365497      1728000     5251.865       137850         2525 
27580000   0.95452673   -4.9569955      1728000    5253.9809       137900         2526 
27590000    1.0204435   -4.8233556      1728000     5256.078       137950         2526 
27600000    0.9868353   -4.8047798      1728000    5258.1832       138000         2527 
27610000   0.94771977   -4.8563681      1728000    5260.2681       138050         2527 
27620000    0.9706182   -4.7268548      1728000    5262.3582       138100         2527 
27630000   0.97012174    -4.821416      1728000    5264.4502       138150         2527 
27640000   0.96487624   -4.8604834      1728000    5266.5112       138200         2527 
27650000   0.95208567   -4.9305138      1728000    5268.6409       138250         2527 
27660000   0.95492355   -4.8683351      1728000    5270.8801       138300         2528 
27670000    1.0544557   -4.8837712      1728000    5273.0549       138350         2528 
27680000   0.95163378   -4.8522173      1728000    5275.2638       138400         2528 
27690000    1.0808336    -4.857862      1728000    5277.3407       138450         2528 
27700000   0.99148947   -4.8732846      1728000    5279.4218       138500         2528 
27710000    1.0285147   -4.9336837      1728000    5281.4892       138550         2528 
27720000   0.99827033   -4.8547239      1728000    5283.5244       138600         2528 
27730000    1.0664877   -4.8483358      1728000    5285.5887       138650         2528 
27740000      1.01403   -4.8915655      1728000    5287.5964       138700         2528 
27750000   0.99729053   -4.8111573      1728000    5289.6522       138750         2528 
27760000    1.0084352   -4.9901901      1728000    5292.2229       138800         2528 
27770000    1.0111632   -4.8699869      1728000    5294.2392       138850         2528 
27780000   0.95311605   -4.9883639      1728000    5296.3195       138900         2528 
27790000    1.0453979   -4.9965103      1728000    5298.3719       138950         2528 
27800000    1.0229558   -4.8143032      1728000    5300.4091       139000         2529 
27810000    0.9601564   -4.8386934      1728000    5302.4348       139050         2529 
27820000    1.0259328   -4.8448937      1728000     5304.509       139100         2530 
27830000    1.0171128   -4.8980695      1728000    5306.5958       139150         2530 
27840000    1.0446343   -4.7223679      1728000    5308.6443       139200         2530 
27850000    1.0826342   -4.8618437      1728000    5310.6487       139250         2530 
27860000    1.0418679   -4.8793991      1728000    5312.6847       139300         2531 
27870000   0.98690935   -4.8020834      1728000    5314.7491       139350         2531 
27880000   0.92632458   -4.8102648      1728000    5316.8356       139400         2531 
27890000    1.0411076   -4.8499613      1728000    5318.9082       139450         2531 
27900000   0.98497224   -4.8824706      1728000    5320.9988       139500         2532 
27910000    1.0205947   -4.7816018      1728000    5323.0725       139550         2532 
27920000   0.99063616   -4.8561438      1728000    5325.1528       139600         2532 
27930000   0.93123857   -4.8822291      1728000    5327.2939       139650         2532 
27940000     0.956087   -4.7502165      1728000    5329.4026       139700         2532 
27950000   0.97622677   -4.8855336      1728000    5331.5008       139750         2533 
27960000    1.0178611   -4.8713519      1728000    5333.5567       139800         2533 
27970000   0.98383679   -4.7794538      1728000    5335.7067       139850         2533 
27980000   0.98774786   -4.9499232      1728000    5337.7542       139900         2533 
27990000    1.0198897    -4.930102      1728000    5339.8383       139950         2533 
28000000    1.0526374   -4.8749771      1728000    5341.9407       140000         2533 
28010000     1.015296    -4.939148      1728000    5343.9884       140050         2534 
28020000     1.023044    -4.930313      1728000    5346.1212       140100         2534 
28030000   0.99335072   -4.8890111      1728000    5348.2431       140150         2535 
28040000   0.99392182   -4.9180207      1728000    5350.3191       140200         2535 
28050000    0.9246503   -4.7748999      1728000    5352.4447       140250         2535 
28060000    1.0444753   -4.9520233      1728000    5354.5207       140300         2535 
28070000    1.0668913   -4.7961817      1728000    5356.5811       140350         2535 
28080000    1.0180079   -4.8025431      1728000    5358.6878       140400         2535 
28090000   0.98009802    -4.947948      1728000    5360.7808       140450         2536 
28100000    1.0413265   -4.9432868      1728000    5362.8726       140500         2536 
28110000    1.0519354   -4.8844746      1728000    5364.9326       140550         2537 
28120000   0.96611685   -5.0688911      1728000    5367.0118       140600         2537 
28130000   0.99961972   -4.9816221      1728000    5369.1218       140650         2537 
28140000    1.0309168   -4.9005906      1728000    5371.2708       140700         2537 
28150000    1.0277439   -5.0093217      1728000     5373.405       140750         2537 
28160000   0.97957816   -4.7914977      1728000    5375.5028       140800         2537 
28170000    1.0375155   -4.9144523      1728000    5377.5396       140850         2537 
28180000     1.022916   -4.8384705      1728000    5379.6109       140900         2537 
28190000    1.0726884   -4.9184224      1728000    5381.7217       140950         2537 
28200000    1.0556516   -4.8485976      1728000    5383.7975       141000         2537 
28210000   0.99037602   -4.9310275      1728000    5385.8846       141050         2537 
28220000   0.95180016    -4.888945      1728000    5387.9447       141100         2538 
28230000   0.97680443   -4.8659865      1728000    5390.0317       141150         2539 
28240000    1.0167274   -4.8080449      1728000    5392.1497       141200         2539 
28250000    1.0242718   -4.9665031      1728000    5394.2601       141250         2539 
28260000   0.92969587   -5.0009363      1728000    5396.3487       141300         2539 
28270000   0.99533702    -4.813034      1728000    5398.4438       141350         2539 
28280000    1.0063156   -4.8630379      1728000    5400.5035       141400         2540 
28290000   0.96864576   -4.9077876      1728000    5402.5837       141450         2540 
28300000   0.97550574   -4.8305172      1728000    5404.6967       141500         2540 
28310000   0.98886536   -4.8493403      1728000    5406.7947       141550         2540 
28320000    1.0048458   -4.8603737      1728000    5408.8608       141600         2543 
28330000   0.98573864   -5.0155057      1728000    5410.9264       141650         2543 
28340000    1.0045693    -4.866797      1728000    5413.0047       141700         2543 
28350000   0.97869457    -4.819986      1728000      5415.11       141750         2543 
28360000    0.9783827   -4.9239567      1728000    5417.2006       141800         2543 
28370000    0.9740183   -4.8473882      1728000    5419.3002       141850         2543 
28380000    1.0207648   -4.7927663      1728000    5421.4159       141900         2543 
28390000    1.0087599   -4.9083771      1728000    5423.5246       141950         2543 
28400000    1.0265834   -4.9070297      1728000    5425.6463       142000         2543 
28410000    1.0311151   -4.7657787      1728000    5427.7726       142050         2543 
28420000    1.0431625   -4.9399098      1728000    5429.8833       142100         2543 
28430000    1.0172515   -4.8047751      1728000    5431.9947       142150         2544 
28440000    1.0416589   -4.8599359      1728000    5434.0707       142200         2544 
28450000    1.0278922    -4.870034      1728000    5436.1826       142250         2544 
28460000     1.021796   -4.8305661      1728000    5438.3197       142300         2545 
28470000    1.0182064   -4.8007286      1728000    5440.4127       142350         2545 
28480000    1.0497995   -4.8210471      1728000    5442.4818       142400         2545 
28490000    1.0098012   -4.9016348      1728000    5444.6014       142450         2545 
28500000     1.011141   -5.0218167      1728000    5446.6867       142500         2546 
28510000    1.0544059   -4.9719558      1728000    5448.7757       142550         2546 
28520000   0.97100773   -4.8833854      1728000    5450.8667       142600         2547 
28530000    1.0129282   -4.9294276      1728000    5452.9367       142650         2547 
28540000    1.0279466   -4.9017869      1728000    5455.0303       142700         2547 
28550000   0.96066506   -4.8559222      1728000    5457.1156       142750         2547 
28560000    1.0408992   -4.9334587      1728000    5459.1745       142800         2547 
28570000   0.95463024   -5.0483694      1728000    5461.2785       142850         2547 
28580000   0.97344853    -4.876379      1728000    5463.3456       142900         2547 
28590000    1.0894801   -4.8057063      1728000    5465.4059       142950         2547 
28600000    1.0311752   -4.7709999      1728000     5467.471       143000         2548 
28610000   0.94952736   -4.9258855      1728000    5469.5465       143050         2548 
28620000   0.97756601   -4.8657173      1728000    5472.3048       143100         2548 
28630000     1.034183   -4.8854936      1728000    5474.5239       143150         2548 
28640000    1.0418514   -4.7473064      1728000    5476.6687       143200         2548 
28650000    1.0072387   -4.9604778      1728000    5478.7606       143250         2548 
28660000   0.93825767   -4.9632731      1728000    5480.8756       143300         2548 
28670000   0.97383912     -4.90947      1728000    5482.9845       143350         2548 
28680000    0.9590588    -4.838622      1728000    5485.0837       143400         2549 
28690000   0.98825301   -4.7794919      1728000    5487.2016       143450         2549 
28700000     1.012972   -5.0205783      1728000    5489.3366       143500         2550 
28710000    1.0125347   -4.9599539      1728000    5491.4625       143550         2550 
28720000   0.93284008    -4.996082      1728000     5493.565       143600         2550 
28730000   0.99840663   -4.8975291      1728000    5495.6916       143650         2550 
28740000    1.0214518    -4.937155      1728000    5497.7969       143700         2550 
28750000    1.0320672   -4.9973787      1728000    5499.8981       143750         2550 
28760000   0.95012047   -4.9357582      1728000    5502.0186       143800         2550 
28770000     1.051681   -4.8968893      1728000    5504.0914       143850         2550 
28780000    1.0490544   -4.9237769      1728000    5507.0859       143900         2550 
28790000   0.96037683   -4.9931514      1728000    5509.1371       143950         2550 
28800000   0.97618306   -4.8821895      1728000    5511.2085       144000         2550 
28810000   0.97918823   -4.9386598      1728000    5513.3015       144050         2550 
28820000    1.0055341   -4.8673022      1728000    5515.4135       144100         2550 
28830000   0.96084144   -4.8051919      1728000    5517.5705       144150         2550 
28840000   0.99857744   -4.9176375      1728000    5519.6724       144200         2550 
28850000   0.96863317   -4.9319821      1728000    5521.7747       144250         2550 
28860000     1.059272   -4.8665207      1728000    5523.8865       144300         2551 
28870000   0.97287334   -4.8603512      1728000    5526.0147       144350         2551 
28880000    1.0141216   -4.8653366      1728000    5528.1254       144400         2551 
28890000   0.97354962   -4.8994705      1728000    5530.2435       144450         2551 
28900000     1.041481   -4.9372997      1728000    5532.3568       144500         2551 
28910000    1.0599839   -4.7453337      1728000     5534.449       144550         2551 
28920000    0.9713815   -4.9204811      1728000    5536.4387       144600         2551 
28930000    1.0160616   -4.8528582      1728000    5538.5033       144650         2551 
28940000    1.0770053   -4.9187504      1728000    5540.5737       144700         2551 
28950000   0.95051299   -4.8771493      1728000    5542.6831       144750         2552 
28960000   0.99031987   -5.0240528      1728000    5544.7586       144800         2552 
28970000    0.9569909   -4.9095663      1728000    5546.7849       144850         2553 
28980000    0.9779729   -4.8904321      1728000    5549.1944       144900         2554 
28990000   0.98078445   -4.9521182      1728000    5551.2653       144950         2554 
29000000   0.92039708   -4.9510777      1728000    5553.4296       145000         2555 
29010000   0.99740063   -4.9810603      1728000    5555.5157       145050         2555 
29020000    1.0496252   -4.8753338      1728000    5557.6242       145100         2555 
29030000   0.97435839   -4.9840669      1728000    5559.7245       145150         2555 
29040000   0.98452003    -4.869825      1728000    5561.8725       145200         2555 
29050000   0.97219173   -4.8469388      1728000    5563.9456       145250         2555 
29060000    1.0439642    -4.936535      1728000    5566.0498       145300         2555 
29070000    0.9968958   -5.0281298      1728000    5568.1795       145350         2556 
29080000   0.97236882   -4.9903014      1728000    5570.2764       145400         2556 
29090000   0.95916757     -5.00674      1728000    5572.3478       145450         2556 
29100000   0.95805923   -4.9795819      1728000    5574.4892       145500         2557 
29110000   0.99460856   -4.9539279      1728000    5576.6012       145550         2557 
29120000    1.0249371   -4.8287337      1728000    5578.6461       145600         2557 
29130000   0.96890495   -4.8352874      1728000     5580.731       145650         2557 
29140000   0.99417225   -4.9404416      1728000    5582.8299       145700         2557 
29150000    1.0171299    -4.978803      1728000    5584.8966       145750         2558 
29160000   0.99916446   -4.9027042      1728000    5586.9995       145800         2558 
29170000    1.0049103   -4.8852148      1728000    5589.0715       145850         2558 
29180000   0.99450538   -4.8761225      1728000    5591.1396       145900         2560 
29190000   0.99669638   -4.9705053      1728000    5593.1845       145950         2560 
29200000     1.036679   -4.9405837      1728000    5595.2357       146000         2560 
29210000   0.97552371   -4.9223158      1728000     5597.345       146050         2560 
29220000    0.9923058   -4.8304426      1728000    5599.3654       146100         2560 
29230000    1.0064541    -4.692217      1728000    5601.4567       146150         2561 
29240000    1.0852798   -4.9575486      1728000    5603.5544       146200         2561 
29250000     1.012379   -4.8650734      1728000    5605.6401       146250         2561 
29260000    1.0010299   -4.9226754      1728000    5607.6996       146300         2561 
29270000    1.0832376   -4.8080643      1728000    5609.7715       146350         2561 
29280000    1.0198859   -4.9591976      1728000    5611.8641       146400         2561 
29290000   0.97917083   -4.9481283      1728000    5613.9589       146450         2561 
29300000   0.92757468   -4.8435201      1728000    5616.0201       146500         2561 
29310000   0.95746739   -4.8066443      1728000    5618.1249       146550         2562 
29320000    1.0253961   -4.9206633      1728000    5620.2321       146600         2562 
29330000   0.97776922   -4.8870131      1728000    5622.3415       146650         2562 
29340000    1.0257654   -4.8001396      1728000    5624.4145       146700         2563 
29350000    1.0060673   -4.8366922      1728000    5626.4404       146750         2563 
29360000   0.95874823   -4.8990971      1728000    5628.5403       146800         2563 
29370000    1.0405152    -4.947106      1728000    5631.2038       146850         2563 
29380000   0.96644692   -4.9446029      1728000     5633.344       146900         2564 
29390000   0.96591745   -4.9050544      1728000    5635.4356       146950         2564 
29400000    1.0041447   -4.9168736      1728000    5637.6556       147000         2564 
29410000   0.97806731    -4.858804      1728000    5639.7351       147050         2564 
29420000   0.99816938   -4.7635959      1728000    5641.8163       147100         2564 
29430000    0.9804734   -4.9098873      1728000    5643.9861       147150         2564 
29440000   0.99974152   -4.9574942      1728000    5646.0956       147200         2564 
29450000   0.99270995   -4.8776559      1728000    5648.2127       147250         2564 
29460000   0.98851559   -4.9433839      1728000    5650.3267       147300         2564 
29470000    1.0067942   -4.9342854      1728000    5652.4489       147350         2564 
29480000    1.0181162   -4.8589159      1728000    5654.5334       147400         2564 
29490000    0.9775083   -4.9270477      1728000    5656.6608       147450         2564 
29500000    1.0026685   -4.9208576      1728000    5658.7721       147500         2565 
29510000   0.99481791    -4.844101      1728000    5660.8586       147550         2565 
29520000    1.0208631   -4.8198781      1728000    5662.9352       147600         2565 
29530000   0.91614019   -4.9879021      1728000    5665.0385       147650         2565 
29540000   0.97234013    -4.824776      1728000    5667.1555       147700         2565 
29550000    1.0358549   -5.0202686      1728000    5669.2224       147750         2565 
29560000    1.0344972   -5.0039918      1728000    5671.2884       147800         2565 
29570000   0.98117173   -4.8606382      1728000    5673.3614       147850         2565 
29580000    0.9968268   -4.9814017      1728000    5675.5078       147900         2565 
29590000   0.92309587   -5.0198331      1728000    5677.5876       147950         2565 
29600000   0.97574636   -4.9860574      1728000    5679.7227       148000         2565 
29610000   0.96909626   -5.0724255      1728000    5681.8169       148050         2565 
29620000   0.94211312   -4.8142544      1728000    5683.9201       148100         2565 
29630000   0.95356197   -4.7982954      1728000    5685.9888       148150         2565 
29640000    0.9913255   -4.7732745      1728000    5688.0776       148200         2565 
29650000   0.98093397   -4.9200599      1728000     5690.097       148250         2565 
29660000    1.0235648   -4.9103606      1728000    5692.1714       148300         2565 
29670000   0.95979875   -4.8877008      1728000    5694.2373       148350         2565 
29680000    1.0231191   -4.7267721      1728000    5696.2533       148400         2565 
29690000   0.96657263   -4.8786062      1728000    5698.3372       148450         2566 
29700000   0.96317089   -4.8065752      1728000    5700.4341       148500         2566 
29710000   0.95056319   -4.8984977      1728000    5702.5289       148550         2567 
29720000    1.0266659   -4.8362671      1728000    5704.5996       148600         2568 
29730000    1.0423135   -4.8801028      1728000     5706.692       148650         2568 
29740000    1.0253651   -4.7764609      1728000    5708.7909       148700         2568 
29750000    1.0632241   -4.9811869      1728000    5710.9004       148750         2569 
29760000     1.011338   -4.7674415      1728000    5712.8953       148800         2569 
29770000    1.0246156   -4.8314152      1728000    5714.9343       148850         2569 
29780000    1.0399989    -4.863422      1728000     5717.049       148900         2569 
29790000   0.97870901   -4.9277765      1728000      5719.19       148950         2570 
29800000     1.011668   -4.9753843      1728000    5721.3216       149000         2570 
29810000     0.959912   -4.9868216      1728000    5723.4403       149050         2572 
29820000    1.0052994   -4.8547325      1728000    5725.4709       149100         2572 
29830000    1.0307932    -4.827304      1728000      5727.51       149150         2572 
29840000    1.0128888   -4.8436028      1728000    5729.5435       149200         2572 
29850000   0.97925429   -4.9091323      1728000    5731.5735       149250         2572 
29860000    1.0183879   -4.7887839      1728000    5733.6356       149300         2572 
29870000   0.97248472   -4.8545073      1728000    5735.6676       149350         2572 
29880000   0.94370687   -4.8506873      1728000    5737.7854       149400         2572 
29890000   0.94819981   -4.7801386      1728000    5739.8884       149450         2572 
29900000    1.0557652   -4.8716589      1728000    5741.9947       149500         2572 
29910000   0.99482468   -5.0622016      1728000    5744.0758       149550         2573 
29920000    0.9984126   -4.8943709      1728000     5746.198       149600         2573 
29930000   0.99078821    -4.931526      1728000    5748.3382       149650         2573 
29940000    1.0128554    -4.913748      1728000    5750.4438       149700         2573 
29950000    1.0482995   -4.8177343      1728000    5752.5107       149750         2573 
29960000    1.0193311   -4.8923493      1728000    5754.6304       149800         2573 
29970000   0.95803302   -4.9317432      1728000    5756.7168       149850         2573 
29980000    1.0090437   -4.8464766      1728000    5758.8522       149900         2573 
29990000   0.97704023   -4.7965351      1728000     5760.962       149950         2573 
30000000    1.0005117   -4.8870561      1728000    5763.0826       150000         2574 
30010000     1.022043   -4.8662153      1728000     5765.192       150050         2575 
30020000     1.027467   -4.8343863      1728000    5767.3081       150100         2575 
30030000   0.99650639    -4.937644      1728000    5769.4483       150150         2575 
30040000    1.0075753   -4.7971124      1728000    5771.6054       150200         2576 
30050000    1.0055572   -4.8980547      1728000    5773.6963       150250         2576 
30060000    1.0094458   -4.9898726      1728000    5775.8051       150300         2576 
30070000   0.92963393   -4.7882741      1728000    5778.3603       150350         2576 
30080000    1.0022764   -4.8781527      1728000    5780.4957       150400         2577 
30090000   0.94562845   -4.7600063      1728000    5782.5976       150450         2578 
30100000   0.97960421   -4.8923459      1728000    5784.7576       150500         2578 
30110000    1.0110604    -4.947823      1728000    5786.8834       150550         2578 
30120000   0.97795263   -4.8282962      1728000    5789.0024       150600         2578 
30130000     1.056115   -4.8828605      1728000    5791.1373       150650         2578 
30140000    0.9731767   -4.9008984      1728000    5793.2681       150700         2578 
30150000   0.94910797    -4.929818      1728000    5795.3731       150750         2578 
30160000    1.0548358   -4.8382702      1728000     5797.498       150800         2580 
30170000    1.0559922   -5.0504256      1728000    5799.6078       150850         2580 
30180000    1.0246595   -4.9151188      1728000    5801.7886       150900         2580 
30190000    0.9937409   -4.9850949      1728000    5803.8916       150950         2580 
30200000    1.0572559   -4.9906198      1728000    5806.0573       151000         2580 
30210000    1.0179746   -4.8168009      1728000    5808.2149       151050         2580 
30220000   0.95032526   -4.9597142      1728000    5810.3617       151100         2580 
30230000    1.0140465   -4.9104681      1728000    5812.4677       151150         2581 
30240000   0.99359224    -4.886452      1728000    5814.5797       151200         2581 
30250000    0.9776799   -4.8211559      1728000    5816.6586       151250         2581 
30260000    0.9517303   -4.9069277      1728000    5818.7505       151300         2581 
30270000   0.98150965   -4.8812288      1728000    5820.8593       151350         2581 
30280000   0.99187898   -4.8094598      1728000    5822.9676       151400         2581 
30290000   0.98668628   -4.6877978      1728000    5825.0536       151450         2581 
30300000   0.96755003   -4.8849279      1728000    5827.1924       151500         2581 
30310000   0.97977262   -4.9411878      1728000    5829.2823       151550         2581 
30320000    1.0328276   -4.9226569      1728000    5831.3532       151600         2581 
30330000   0.98088773   -4.7652301      1728000     5833.431       151650         2581 
30340000   0.97222962   -4.8876114      1728000    5835.4979       151700         2581 
30350000    1.0737454   -4.8426634      1728000     5837.607       151750         2581 
30360000   0.96377615   -4.8882235      1728000    5839.7262       151800         2582 
30370000    1.0092226   -4.7646445      1728000    5841.8231       151850         2582 
30380000   0.97218484   -4.8501136      1728000     5843.956       151900         2583 
30390000   0.99703036   -4.7967551      1728000    5846.0878       151950         2584 
30400000     1.028194   -4.8325682      1728000     5848.215       152000         2584 
30410000   0.99646828   -4.9198411      1728000    5850.3029       152050         2584 
30420000   0.95593524   -4.8384595      1728000    5852.3764       152100         2585 
30430000    1.0304415   -4.9078224      1728000    5854.4853       152150         2585 
30440000   0.94685112    -4.740633      1728000    5856.6031       152200         2585 
30450000   0.97856173    -4.953146      1728000    5858.7049       152250         2585 
30460000   0.93792079   -4.8914369      1728000    5860.8069       152300         2585 
30470000   0.96939275   -4.7780364      1728000    5862.9058       152350         2585 
30480000   0.99978133     -4.78085      1728000    5864.9808       152400         2586 
30490000    1.0272356   -4.8435281      1728000    5867.0218       152450         2586 
30500000     1.002703   -4.9600056      1728000    5869.1666       152500         2586 
30510000   0.88632723   -4.7714135      1728000    5871.2854       152550         2588 
30520000   0.99922655   -4.9064972      1728000    5873.3763       152600         2588 
30530000    1.0333547    -4.755089      1728000    5875.5051       152650         2589 
30540000   0.96963313    -4.993742      1728000    5877.6304       152700         2590 
30550000    1.0554414   -4.7851769      1728000    5879.7672       152750         2590 
30560000    1.0092728     -4.82945      1728000    5881.8751       152800         2590 
30570000   0.95505766   -4.6625043      1728000    5883.9662       152850         2590 
30580000    1.0277657   -4.7627448      1728000    5886.3371       152900         2590 
30590000    1.0014575   -4.8234243      1728000     5888.456       152950         2590 
30600000   0.99933335   -4.8604276      1728000     5890.582       153000         2590 
30610000   0.96761747   -4.9713609      1728000    5892.6955       153050         2590 
30620000    0.9535585   -4.7966219      1728000    5894.8421       153100         2591 
30630000   0.97222122   -4.8595324      1728000    5896.9693       153150         2591 
30640000    1.0119531    -4.908278      1728000    5899.0688       153200         2592 
30650000   0.94967462   -4.8075117      1728000    5901.1547       153250         2592 
30660000    1.0510255   -4.8517298      1728000    5903.2885       153300         2592 
30670000   0.99402119   -4.9073718      1728000    5905.3761       153350         2592 
30680000   0.94986006   -4.8741418      1728000    5907.4937       153400         2592 
30690000    0.9940519   -4.9204184      1728000    5909.5858       153450         2592 
30700000    1.0393952   -4.8967082      1728000    5911.6996       153500         2592 
30710000    1.0645988    -4.782625      1728000    5913.7885       153550         2593 
30720000    1.0433364   -4.8439191      1728000    5915.8824       153600         2594 
30730000    1.0541031   -4.8777704      1728000    5918.0597       153650         2594 
30740000    1.0478046   -4.9495889      1728000    5920.1616       153700         2594 
30750000   0.96126521   -4.9368864      1728000    5922.2665       153750         2594 
30760000    1.0176627   -4.9314385      1728000    5924.4276       153800         2594 
30770000    1.0035793   -4.8430495      1728000     5926.565       153850         2594 
30780000   0.96744733    -4.889799      1728000    5928.7315       153900         2594 
30790000    1.0355331   -4.8838891      1728000    5930.8398       153950         2594 
30800000    1.0096468   -4.9317658      1728000    5932.9724       154000         2594 
30810000   0.94141965   -4.8490171      1728000    5935.1043       154050         2594 
30820000   0.99904771    -4.901284      1728000    5937.2152       154100         2594 
30830000   0.99361893   -4.9346881      1728000     5939.297       154150         2594 
30840000    1.0391067   -4.8827461      1728000    5941.4229       154200         2594 
30850000    1.0833395     -4.74049      1728000    5943.5376       154250         2594 
30860000   0.96030528   -4.8670458      1728000    5945.6485       154300         2595 
30870000    1.0125593   -4.8714459      1728000    5947.8214       154350         2595 
30880000   0.99103786   -4.9503925      1728000    5949.9368       154400         2595 
30890000   0.99603258    -4.902376      1728000    5952.0666       154450         2595 
30900000    1.0211695   -4.8715775      1728000    5954.2216       154500         2596 
30910000    1.0152055   -4.8685007      1728000    5956.4547       154550         2596 
30920000    1.0063474   -4.8957198      1728000    5958.7274       154600         2596 
30930000    1.0141863   -4.8230631      1728000    5960.9911       154650         2597 
30940000    1.0057574   -4.7885851      1728000     5963.145       154700         2597 
30950000   0.98006986    -4.874123      1728000    5965.2721       154750         2597 
30960000   0.94351931    -4.803057      1728000    5967.3756       154800         2598 
30970000   0.97553611   -4.8946671      1728000    5969.5559       154850         2598 
30980000   0.98323641   -5.0097006      1728000    5971.7142       154900         2598 
30990000    0.9967595    -4.928115      1728000    5973.8772       154950         2598 
31000000   0.94557465   -4.8021256      1728000    5976.0639       155000         2598 
31010000   0.97797283   -4.8045685      1728000    5978.1767       155050         2598 
31020000    1.0045958   -4.9255086      1728000    5980.2859       155100         2599 
31030000    1.0064281   -4.9537753      1728000    5982.4606       155150         2599 
31040000    1.0135572   -4.8800676      1728000    5984.6384       155200         2599 
31050000   0.99440952   -4.7890431      1728000    5986.7802       155250         2599 
31060000    1.0107059   -4.8536345      1728000    5988.8849       155300         2599 
31070000    1.0372028   -4.7780047      1728000    5991.0168       155350         2599 
31080000   0.92315558   -4.8471714      1728000    5993.1536       155400         2599 
31090000    1.0083908   -4.8233562      1728000    5995.2904       155450         2599 
31100000   0.99565733   -4.9712024      1728000    5997.4819       155500         2600 
31110000    1.0330647   -4.8835784      1728000    5999.6218       155550         2601 
31120000   0.95083031   -4.8856811      1728000    6001.7222       155600         2603 
31130000   0.98829587   -4.9578744      1728000    6003.8622       155650         2603 
31140000   0.98856685   -4.7654745      1728000     6005.991       155700         2603 
31150000   0.99194759    -4.857136      1728000    6008.1088       155750         2603 
31160000    1.0061142   -4.8385499      1728000    6010.2049       155800         2603 
31170000   0.93433162   -4.9862201      1728000    6012.2888       155850         2604 
31180000    0.9949711   -5.0121237      1728000     6014.387       155900         2604 
31190000    1.0047541   -4.9913897      1728000     6016.477       155950         2605 
31200000    1.0003395   -4.8524065      1728000     6018.548       156000         2605 
31210000   0.98206561   -4.8350125      1728000    6020.5983       156050         2605 
31220000    1.0228535   -4.9761763      1728000    6022.7073       156100         2605 
31230000    1.0204341   -4.8736967      1728000    6024.7952       156150         2605 
31240000   0.97548156   -4.9832379      1728000    6026.8424       156200         2605 
31250000   0.96386472   -4.7958854      1728000    6028.9352       156250         2605 
31260000    1.0681216   -4.9728082      1728000    6031.0781       156300         2605 
31270000   0.99323392   -4.8040174      1728000    6033.1506       156350         2605 
31280000   0.99551333   -4.8501083      1728000    6035.2721       156400         2605 
31290000     1.014277   -4.8191643      1728000    6037.3823       156450         2606 
31300000   0.99099452   -4.8359386      1728000    6039.4242       156500         2606 
31310000   0.96197144   -4.9546654      1728000    6041.5123       156550         2606 
31320000   0.99471662   -4.8084055      1728000    6043.5802       156600         2606 
31330000    1.0173575   -4.9718545      1728000    6045.6321       156650         2606 
31340000    1.0180126   -4.8817825      1728000    6048.2359       156700         2606 
31350000    1.0025951   -4.7471603      1728000    6050.2669       156750         2607 
31360000    1.0348882   -4.9118263      1728000    6052.3589       156800         2607 
31370000   0.95737521   -5.0350804      1728000    6054.4201       156850         2607 
31380000   0.96725716   -4.8874901      1728000    6056.4849       156900         2607 
31390000   0.98068872   -4.9044839      1728000    6058.5158       156950         2607 
31400000    1.0076011   -4.8514762      1728000    6060.6237       157000         2607 
31410000   0.95767734   -4.9426375      1728000    6062.6917       157050         2607 
31420000    1.0124754   -4.9226518      1728000     6064.745       157100         2607 
31430000    1.0121056   -4.7707625      1728000    6066.7799       157150         2607 
31440000   0.99808303    -4.751756      1728000    6068.8078       157200         2607 
31450000    1.0596312   -4.8591467      1728000    6070.9526       157250         2607 
31460000   0.95050844   -4.9024895      1728000    6073.0914       157300         2607 
31470000   0.97900051   -4.7366621      1728000    6075.1733       157350         2607 
31480000   0.98785286   -4.8805736      1728000    6077.2072       157400         2607 
31490000     1.054524   -4.8385044      1728000    6079.3211       157450         2607 
31500000    1.0130225   -5.0097962      1728000     6081.382       157500         2608 
31510000    1.0199891   -4.9015848      1728000    6083.4412       157550         2608 
31520000    0.9829424   -4.8735737      1728000    6085.5155       157600         2608 
31530000   0.93879497   -4.8773164      1728000    6087.5793       157650         2608 
31540000    1.0306938   -4.9497906      1728000    6089.5783       157700         2608 
31550000   0.99170496   -4.7838776      1728000    6091.6375       157750         2608 
31560000    1.0106356   -4.8036475      1728000    6093.7074       157800         2609 
31570000     1.045602   -5.0465465      1728000    6095.7972       157850         2610 
31580000   0.97518514   -4.8779303      1728000    6097.8912       157900         2610 
31590000    1.0116909   -4.9812763      1728000    6099.9761       157950         2610 
31600000    1.0474719   -4.9433787      1728000    6102.0579       158000         2610 
31610000   0.99675968    -4.888536      1728000    6104.1388       158050         2610 
31620000   0.96220005   -4.8600416      1728000    6106.2097       158100         2611 
31630000   0.94637108   -4.7582261      1728000    6108.2416       158150         2611 
31640000    1.0262271   -4.8595158      1728000    6110.2798       158200         2611 
31650000   0.97760086   -5.0405414      1728000    6112.2977       158250         2611 
31660000   0.97519587   -4.9302623      1728000    6114.3874       158300         2611 
31670000   0.98849788   -5.0661515      1728000    6116.4894       158350         2612 
31680000    1.0289778   -4.8449406      1728000    6118.5893       158400         2613 
31690000    1.0290081   -4.8481092      1728000    6120.6565       158450         2613 
31700000    1.0404217    -4.916293      1728000    6122.7816       158500         2613 
31710000   0.98779527   -5.0283209      1728000    6124.8865       158550         2613 
31720000    1.0363588   -4.8419609      1728000    6126.9573       158600         2613 
31730000    1.0847748   -4.8439936      1728000    6129.0255       158650         2613 
31740000    0.9664265   -4.9192328      1728000    6131.0917       158700         2613 
31750000    1.0218781   -4.8919945      1728000    6133.1626       158750         2613 
31760000   0.98840367   -4.8165762      1728000    6135.2265       158800         2613 
31770000    1.0075515   -4.9684937      1728000    6137.2826       158850         2613 
31780000    1.0027503   -4.8426835      1728000    6139.3517       158900         2613 
31790000    1.0023746   -4.9437079      1728000    6141.4569       158950         2613 
31800000    0.9729295   -4.7567266      1728000    6143.5217       159000         2613 
31810000    1.0380637   -4.9291856      1728000    6145.5826       159050         2613 
31820000   0.98762919   -4.9283722      1728000    6147.6395       159100         2613 
31830000    1.0133929   -4.8645442      1728000    6149.6974       159150         2613 
31840000   0.96499264   -4.9051551      1728000    6151.8033       159200         2613 
31850000   0.95974364   -4.8764679      1728000    6154.4656       159250         2613 
31860000    1.0127773   -4.9162896      1728000    6156.6521       159300         2613 
31870000     0.996148   -4.8997582      1728000    6158.8695       159350         2613 
31880000    0.9921015    -4.928454      1728000    6161.0473       159400         2613 
31890000   0.96588223   -4.9727071      1728000    6163.1356       159450         2613 
31900000    1.0332025    -4.779997      1728000     6165.228       159500         2613 
31910000   0.99919527   -4.8882527      1728000    6167.2908       159550         2613 
31920000    1.0231705   -4.8838479      1728000    6169.3676       159600         2613 
31930000   0.96525423   -4.8754262      1728000    6171.4276       159650         2613 
31940000   0.92343259   -4.8242715      1728000    6173.4877       159700         2613 
31950000    1.0248513   -4.8881144      1728000      6175.55       159750         2613 
31960000     1.035837   -4.9393055      1728000    6177.6166       159800         2614 
31970000     1.015933   -4.8227306      1728000    6179.6543       159850         2614 
31980000   0.96329298   -4.9912282      1728000    6181.6812       159900         2614 
31990000    1.0729086   -4.9014565      1728000    6183.7641       159950         2614 
32000000   0.99594929   -4.9438682      1728000     6185.873       160000         2614 
32010000    1.0219209   -5.0120142      1728000    6187.9117       160050         2614 
32020000    1.0046315   -4.9130335      1728000    6189.9638       160100         2614 
32030000    1.0288967   -4.8300582      1728000    6192.0185       160150         2614 
32040000   0.96375208   -4.8573799      1728000    6194.0601       160200         2614 
32050000   0.96162448   -4.9083367      1728000    6196.1492       160250         2615 
32060000   0.99564595   -4.9202607      1728000    6198.2513       160300         2615 
32070000   0.98338076   -4.8797277      1728000    6200.3419       160350         2617 
32080000   0.99306518   -4.9011495      1728000    6202.4275       160400         2617 
32090000   0.94231244   -4.9105247      1728000    6204.5509       160450         2617 
32100000   0.94921306   -4.9956721      1728000    6206.6575       160500         2619 
32110000     1.062965   -4.9676322      1728000    6208.7611       160550         2619 
32120000    1.0387599   -4.7226398      1728000    6210.8757       160600         2619 
32130000    1.0086305   -4.8221846      1728000     6212.964       160650         2620 
32140000   0.96405443   -4.9406879      1728000    6215.0721       160700         2620 
32150000   0.98396875   -4.8883797      1728000    6217.1427       160750         2620 
32160000    1.0153705   -4.9584555      1728000     6219.284       160800         2620 
32170000   0.99598909   -4.9293777      1728000    6221.4421       160850         2620 
32180000   0.99538856     -4.95985      1728000    6223.5443       160900         2620 
32190000   0.99333599   -4.9175019      1728000    6225.6419       160950         2620 
32200000   0.95735195   -4.9224242      1728000    6227.7764       161000         2620 
32210000    1.0509164    -4.889191      1728000    6229.9231       161050         2620 
32220000   0.99399979   -4.7803907      1728000    6232.0159       161100         2620 
32230000   0.98497655   -4.8419749      1728000    6234.1258       161150         2620 
32240000   0.95286911   -4.8288374      1728000    6236.2604       161200         2620 
32250000   0.99215697   -4.9857577      1728000    6238.3719       161250         2620 
32260000   0.97366075   -4.9364232      1728000    6240.5029       161300         2620 
32270000   0.95732954   -4.9631932      1728000    6242.5967       161350         2620 
32280000    0.9988332   -4.7912984      1728000    6244.7111       161400         2620 
32290000    1.0299123    -4.930552      1728000     6246.807       161450         2620 
32300000    1.0237976   -4.8869912      1728000    6248.9008       161500         2620 
32310000   0.99921722   -5.0087051      1728000    6251.0328       161550         2620 
32320000   0.99560219   -4.9935376      1728000    6253.1466       161600         2620 
32330000    1.0231439   -4.8815888      1728000    6255.2864       161650         2620 
32340000   0.98317243    -4.862953      1728000    6257.3825       161700         2620 
32350000   0.97784193   -4.8408076      1728000    6259.4307       161750         2620 
32360000   0.99210632   -4.8578921      1728000    6261.5601       161800         2620 
32370000   0.92657057   -4.8964232      1728000    6263.6854       161850         2620 
32380000   0.97244542   -4.9589081      1728000    6265.8033       161900         2620 
32390000   0.97443629   -4.9177682      1728000     6267.926       161950         2620 
32400000    0.9925879   -5.0091229      1728000    6270.0084       162000         2620 
32410000    1.0417956   -4.9627371      1728000    6272.1308       162050         2620 
32420000   0.95108957   -4.9048221      1728000    6274.2969       162100         2620 
32430000    1.0133882   -4.8042282      1728000    6276.3806       162150         2620 
32440000   0.95403126    -4.869311      1728000    6278.5087       162200         2620 
32450000   0.95866115   -4.9253798      1728000    6280.6271       162250         2620 
32460000    1.0127394   -4.9366885      1728000    6282.7188       162300         2620 
32470000    1.0332337    -4.825292      1728000    6284.8482       162350         2621 
32480000    1.0523934    -4.899979      1728000     6287.012       162400         2621 
32490000   0.92034509   -4.8083735      1728000    6289.1247       162450         2621 
32500000    1.0175391   -4.8554445      1728000    6291.2485       162500         2621 
32510000    1.0058896   -4.8496435      1728000    6293.3863       162550         2621 
32520000   0.96670945   -4.9661537      1728000    6295.4942       162600         2621 
32530000     1.064799   -4.8373696      1728000    6297.6229       162650         2621 
32540000    1.0387955   -4.9914882      1728000    6299.7455       162700         2622 
32550000    1.0007365   -4.8328214      1728000    6301.9069       162750         2622 
32560000   0.97514075    -4.976531      1728000    6303.9765       162800         2622 
32570000    0.9960084   -4.9114302      1728000    6306.0473       162850         2622 
32580000    1.0625295    -4.858747      1728000    6308.1905       162900         2622 
32590000    1.0762997    -4.863682      1728000    6310.3439       162950         2622 
32600000   0.90016408   -4.9950554      1728000     6312.466       163000         2622 
32610000   0.97456628   -4.7935189      1728000    6314.5573       163050         2622 
32620000   0.97610081   -4.9382639      1728000    6316.6689       163100         2622 
32630000    1.0419591    -4.867083      1728000    6318.8069       163150         2622 
32640000    1.0198948   -4.8137382      1728000    6320.8712       163200         2622 
32650000    1.0387852   -4.8579183      1728000    6323.4613       163250         2622 
32660000    1.0239696   -4.9199307      1728000    6325.5511       163300         2622 
32670000    1.0690869   -4.8706052      1728000    6327.6183       163350         2622 
32680000    1.0000066    -4.935178      1728000    6329.6805       163400         2622 
32690000   0.98197682   -5.0429602      1728000    6331.7492       163450         2622 
32700000   0.93554205   -4.8009158      1728000    6333.8357       163500         2622 
32710000    1.0114727   -4.9908838      1728000    6335.9191       163550         2622 
32720000    1.0367193   -4.7805356      1728000    6338.0038       163600         2622 
32730000    1.0014735   -4.8417319      1728000    6340.1029       163650         2622 
32740000    1.0370379   -5.0381167      1728000    6342.2342       163700         2623 
32750000    1.0387749   -4.8575401      1728000    6344.3572       163750         2623 
32760000     1.013123   -4.8170367      1728000    6346.4644       163800         2624 
32770000   0.97245002   -4.8929599      1728000      6348.56       163850         2624 
32780000     1.026409   -4.8227888      1728000    6350.6108       163900         2624 
32790000   0.97796404   -4.9886845      1728000    6352.6971       163950         2624 
32800000   0.92686251   -4.9673624      1728000    6354.8131       164000         2624 
32810000    1.0081095   -4.9009183      1728000    6356.9184       164050         2624 
32820000   0.96896921   -4.8633621      1728000     6358.974       164100         2625 
32830000    1.0205654   -4.8151514      1728000    6361.0599       164150         2626 
32840000   0.98996502   -4.9681569      1728000    6363.1426       164200         2626 
32850000    1.0022182   -4.9852207      1728000    6365.2658       164250         2626 
32860000    1.0010006    -4.945049      1728000    6367.3209       164300         2626 
32870000    1.0144053   -4.8015212      1728000     6369.413       164350         2627 
32880000   0.95909901   -4.8125872      1728000     6371.536       164400         2627 
32890000    1.0153578   -4.8701732      1728000    6373.6629       164450         2627 
32900000   0.98205462   -4.8975522      1728000    6375.8177       164500         2627 
32910000   0.94689752   -4.8102003      1728000    6377.9315       164550         2627 
32920000    1.0046361   -4.7974187      1728000    6380.0613       164600         2627 
32930000    1.0268551   -4.7887337      1728000    6382.1692       164650         2628 
32940000   0.99700068   -4.8399866      1728000     6384.271       164700         2629 
32950000    0.9244194   -4.9476215      1728000    6386.4021       164750         2629 
32960000   0.95455671   -4.8373877      1728000    6388.5651       164800         2629 
32970000    1.0178914   -4.9306429      1728000    6390.8188       164850         2629 
32980000    1.0192793    -4.921919      1728000    6393.0386       164900         2629 
32990000     1.013878    -4.847775      1728000    6395.1465       164950         2630 
33000000    1.0050055   -4.8800581      1728000    6397.2883       165000         2630 
33010000    1.0321654   -4.7587832      1728000    6399.4286       165050         2630 
33020000   0.94251834   -4.8483033      1728000    6401.5761       165100         2631 
33030000    1.0177479   -4.8098903      1728000    6403.6784       165150         2631 
33040000    1.0270293   -4.8470986      1728000    6405.8206       165200         2631 
33050000     1.014721   -4.9868981      1728000    6407.9512       165250         2631 
33060000   0.99523188   -4.8447568      1728000    6410.1258       165300         2631 
33070000    1.0576904   -4.8245208      1728000    6412.2611       165350         2631 
33080000    1.0295551   -4.8373575      1728000     6414.423       165400         2631 
33090000    1.0284837   -4.8372766      1728000    6416.5426       165450         2631 
33100000   0.95361481   -5.0145851      1728000    6418.6935       165500         2632 
33110000   0.96434073   -4.7595441      1728000    6420.8679       165550         2632 
33120000   0.96319898   -5.0098913      1728000    6423.0446       165600         2632 
33130000   0.98029084   -4.8377024      1728000    6425.1635       165650         2632 
33140000   0.95775059   -4.7695674      1728000    6427.3139       165700         2634 
33150000   0.96440158   -4.8167911      1728000    6429.4465       165750         2634 
33160000    1.0018961   -4.9156182      1728000     6431.571       165800         2634 
33170000   0.99314755   -4.7970561      1728000    6433.7267       165850         2634 
33180000    1.0396024   -4.8690388      1728000    6436.0815       165900         2634 
33190000    1.0675511   -4.8985253      1728000    6438.1813       165950         2634 
33200000    1.0010462   -4.8931103      1728000    6440.3061       166000         2634 
33210000   0.94358574      -4.9151      1728000    6442.4593       166050         2635 
33220000    1.0044443    -4.981189      1728000    6444.6041       166100         2635 
33230000   0.96503073   -4.8525101      1728000    6446.7612       166150         2635 
33240000   0.96794506   -4.9329546      1728000     6448.902       166200         2635 
33250000    1.0170371    -4.795942      1728000    6451.0509       166250         2635 
33260000    1.0417375    -4.946631      1728000    6453.1818       166300         2635 
33270000   0.96078479   -4.8045528      1728000    6455.2957       166350         2636 
33280000    1.0372936   -4.6307424      1728000    6457.4405       166400         2636 
33290000   0.97895639   -4.8424424      1728000    6459.5873       166450         2636 
33300000   0.99518118   -4.9000337      1728000    6461.7366       166500         2636 
33310000    1.0590226   -4.8871059      1728000    6463.8913       166550         2636 
33320000    1.0850768   -4.8509556      1728000    6466.0382       166600         2637 
33330000    1.0140939   -4.8106622      1728000    6468.1865       166650         2637 
33340000   0.97625352   -4.8041254      1728000    6470.2654       166700         2638 
33350000    1.0409123   -4.9467009      1728000    6472.4072       166750         2638 
33360000    1.0073091   -4.7940881      1728000    6474.5362       166800         2638 
33370000    1.0472636   -4.9131515      1728000    6476.6794       166850         2638 
33380000   0.93466101   -4.8045459      1728000    6478.7472       166900         2638 
33390000    1.0051527   -4.9664217      1728000    6480.8583       166950         2639 
33400000    0.9990534   -4.7783991      1728000    6483.0392       167000         2639 
33410000   0.96251419   -4.8754647      1728000    6485.1788       167050         2639 
33420000    1.0312444   -4.8597165      1728000    6487.3261       167100         2639 
33430000    1.0579665   -4.9078902      1728000    6489.3957       167150         2639 
33440000   0.99570595    -4.880241      1728000    6491.5646       167200         2640 
33450000    1.0276402   -4.9879958      1728000    6493.7146       167250         2640 
33460000    1.0249103   -4.8616885      1728000    6495.8628       167300         2640 
33470000   0.96839844   -4.8245769      1728000    6497.9914       167350         2640 
33480000   0.98338551    -4.826705      1728000    6500.1643       167400         2640 
33490000   0.98961219   -4.7680517      1728000     6502.279       167450         2640 
33500000   0.97572221   -4.8137442      1728000    6504.4601       167500         2640 
33510000    1.0259625   -4.8681763      1728000    6506.6078       167550         2640 
33520000    1.0178584    -4.887969      1728000    6508.7631       167600         2640 
33530000   0.93480458   -4.9676373      1728000    6510.8845       167650         2640 
33540000   0.97954222   -4.9548435      1728000    6513.1288       167700         2640 
33550000    1.0143513   -4.8492292      1728000    6515.2797       167750         2640 
33560000   0.94169479   -4.9977302      1728000    6517.4565       167800         2640 
33570000   0.98241636   -4.8310399      1728000    6519.6039       167850         2640 
33580000   0.98498233   -4.9133471      1728000    6521.6948       167900         2641 
33590000    1.0600376   -4.9428513      1728000    6523.7775       167950         2643 
33600000   0.97878162    -4.868299      1728000    6525.8774       168000         2643 
33610000   0.99606174   -4.9754034      1728000    6527.9571       168050         2643 
33620000    1.0038664   -4.9137911      1728000    6529.9974       168100         2643 
33630000   0.97148443   -4.8666184      1728000    6532.0945       168150         2644 
33640000   0.98245638    -4.890266      1728000    6534.2183       168200         2644 
33650000    1.0334893   -4.9068071      1728000    6536.3769       168250         2644 
33660000    1.0030659   -4.9047788      1728000    6538.5492       168300         2644 
33670000   0.98204056   -4.9238654      1728000    6540.5621       168350         2644 
33680000    1.0538006   -4.8615928      1728000    6542.6212       168400         2644 
33690000    1.0553465   -4.8985432      1728000    6544.7926       168450         2644 
33700000   0.98562892   -4.9149376      1728000    6546.9837       168500         2644 
33710000   0.95776239   -4.8117772      1728000    6549.1418       168550         2644 
33720000   0.95082882   -5.0073488      1728000    6551.2891       168600         2644 
33730000   0.98581895   -4.9690403      1728000    6553.4039       168650         2644 
33740000   0.91199667   -4.8782687      1728000    6555.5308       168700         2644 
33750000    1.0687652   -4.7623636      1728000    6557.7047       168750         2644 
33760000    1.0042031   -4.7697054      1728000    6559.8565       168800         2645 
33770000     1.031392   -4.9558915      1728000    6562.0192       168850         2645 
33780000   0.97009066   -4.7838292      1728000    6564.1237       168900         2645 
33790000     1.009325   -4.8303816      1728000    6566.2301       168950         2645 
33800000    1.0692527    -4.781664      1728000    6568.2751       169000         2645 
33810000    1.0246055   -4.9284766      1728000     6570.361       169050         2646 
33820000   0.96943149   -4.8259068      1728000    6572.4091       169100         2647 
33830000    1.0042714   -4.9139229      1728000    6574.4741       169150         2647 
33840000    1.0082781   -4.7412973      1728000    6576.6226       169200         2647 
33850000    1.0339176   -4.8898905      1728000    6578.7459       169250         2648 
33860000    1.0324683   -4.8850043      1728000    6580.9164       169300         2648 
33870000    1.0016097   -4.8670241      1728000    6583.0731       169350         2648 
33880000    1.0163671   -4.8480042      1728000    6585.3232       169400         2649 
33890000   0.98974396   -4.9056915      1728000    6587.5983       169450         2649 
33900000    1.0238575   -4.9291778      1728000    6589.8698       169500         2649 
33910000   0.99725711   -4.6591937      1728000    6592.0259       169550         2649 
33920000   0.94684808   -4.8452408      1728000    6594.1709       169600         2650 
33930000    1.0216304   -4.9492801      1728000    6596.3026       169650         2650 
33940000    1.0406047   -4.8560914      1728000     6598.406       169700         2650 
33950000   0.99901866   -5.0331538      1728000    6600.5654       169750         2651 
33960000    1.0194154   -4.9689592      1728000    6602.7021       169800         2651 
33970000   0.90789889   -4.9416686      1728000    6605.0781       169850         2651 
33980000   0.99480534     -4.84656      1728000    6607.1936       169900         2651 
33990000   0.96883467   -4.8815337      1728000    6609.3877       169950         2651 
34000000    0.9857717   -4.9418101      1728000    6611.5665       170000         2651 
34010000     0.964186   -4.8693446      1728000    6613.6971       170050         2653 
34020000    1.0298389   -4.9767837      1728000    6615.7984       170100         2653 
34030000    1.0696414   -4.7604197      1728000    6617.9342       170150         2653 
34040000    1.0029508   -4.8990278      1728000    6620.0505       170200         2653 
34050000   0.98815827   -4.9477997      1728000    6622.1663       170250         2653 
34060000    1.0442416   -4.8933063      1728000    6624.3101       170300         2653 
34070000    1.0400412   -4.8518408      1728000     6626.431       170350         2653 
34080000   0.96796285    -4.733836      1728000    6628.5848       170400         2653 
34090000    1.0466474   -4.9073688      1728000    6630.7078       170450         2653 
34100000   0.99702272   -4.8175567      1728000    6632.8426       170500         2653 
34110000    1.0260216   -4.8796308      1728000    6634.9724       170550         2653 
34120000    1.0336326   -4.8789089      1728000    6637.1222       170600         2654 
34130000    1.0294162   -4.9027652      1728000    6639.2231       170650         2655 
34140000    1.0483547   -4.9287519      1728000    6641.3411       170700         2655 
34150000    1.0030748   -4.9291671      1728000    6643.4519       170750         2655 
34160000   0.96148146   -4.9193554      1728000    6645.5727       170800         2655 
34170000     1.078151   -4.8488169      1728000    6647.6925       170850         2655 
34180000   0.98916105   -4.8655929      1728000    6649.8283       170900         2655 
34190000    1.0104415   -4.7189819      1728000    6651.9392       170950         2655 
34200000    1.0026566   -4.6837042      1728000     6654.051       171000         2656 
34210000   0.97540705   -4.8624379      1728000    6656.2198       171050         2656 
34220000    1.0174629   -5.0330459      1728000    6658.3328       171100         2656 
34230000   0.96233274   -4.8451391      1728000      6660.46       171150         2656 
34240000    0.9866575   -4.8972582      1728000    6662.5881       171200         2657 
34250000    1.0294353   -4.8649629      1728000    6664.7878       171250         2657 
34260000   0.95910368   -4.8135565      1728000    6666.8997       171300         2658 
34270000    0.9476649   -4.8607872      1728000    6668.9476       171350         2658 
34280000    1.1072871   -4.9241265      1728000    6671.0767       171400         2658 
34290000   0.92764832   -4.9174426      1728000    6673.2295       171450         2659 
34300000   0.99654543   -4.8051404      1728000    6675.3304       171500         2660 
34310000   0.97971856   -4.8068941      1728000    6677.3893       171550         2660 
34320000    1.0504569   -4.9002547      1728000    6679.4602       171600         2660 
34330000    1.0257437    -4.844383      1728000     6681.553       171650         2660 
34340000   0.96340632   -4.9271387      1728000     6683.687       171700         2660 
34350000    1.0377708   -4.8679757      1728000    6685.7788       171750         2661 
34360000   0.97151993   -4.9237386      1728000     6687.917       171800         2661 
34370000    1.0426446   -4.8776128      1728000    6690.0308       171850         2661 
34380000   0.99250744   -4.9317447      1728000    6692.1207       171900         2661 
34390000   0.95349127   -4.8979705      1728000    6694.7373       171950         2661 
34400000    1.0229331   -4.8990679      1728000    6696.8685       172000         2662 
34410000    1.0002217   -4.8405937      1728000    6699.0278       172050         2662 
34420000    1.0276713   -5.0088125      1728000    6701.1706       172100         2662 
34430000    1.0276359   -4.9090716      1728000    6703.2671       172150         2662 
34440000   0.98455684    -4.870908      1728000     6705.373       172200         2662 
34450000    0.9807411   -4.7850759      1728000    6707.5078       172250         2662 
34460000   0.95827049   -4.9597855      1728000    6709.6039       172300         2662 
34470000    1.0702483   -4.8267286      1728000    6711.7148       172350         2662 
34480000   0.95484256   -4.9798018      1728000    6713.8136       172400         2662 
34490000   0.93980497   -4.9530437      1728000      6715.95       172450         2662 
34500000    1.0521848   -4.8793037      1728000    6718.0611       172500         2663 
34510000    1.0134595   -4.9775719      1728000    6720.2358       172550         2663 
34520000   0.97312034   -4.8771977      1728000      6722.32       172600         2663 
34530000   0.95611166   -4.9293601      1728000    6724.4448       172650         2663 
34540000    1.0520355   -5.0230228      1728000    6726.5866       172700         2663 
34550000   0.98351652   -4.9223347      1728000    6728.7243       172750         2663 
34560000    0.9554459   -4.9978898      1728000    6730.8407       172800         2663 
34570000   0.95172717   -4.9290433      1728000    6732.9287       172850         2663 
34580000   0.99458643   -4.9084026      1728000    6735.0713       172900         2663 
34590000    1.0503157   -4.8212448      1728000    6737.1824       172950         2663 
34600000   0.94669532   -4.8257911      1728000    6739.3469       173000         2663 
34610000   0.98755874   -4.8457176      1728000    6741.4687       173050         2663 
34620000    1.0337897   -4.8007193      1728000    6743.5621       173100         2663 
34630000   0.98632049   -4.9312553      1728000    6745.6543       173150         2663 
34640000    1.0152843   -4.9075326      1728000    6747.8017       173200         2663 
34650000    1.0268791   -4.9306125      1728000    6749.9043       173250         2663 
34660000    1.0107303   -4.8482565      1728000    6752.0229       173300         2663 
34670000    1.0162709   -5.0721156      1728000    6754.1118       173350         2663 
34680000   0.98780579   -4.9802995      1728000    6756.2337       173400         2663 
34690000    1.0560084     -4.98927      1728000    6758.3523       173450         2663 
34700000   0.91097293   -4.8029551      1728000    6760.4835       173500         2663 
34710000    1.0072075   -4.9978576      1728000    6762.6046       173550         2663 
34720000    1.0221477   -4.9985076      1728000    6764.7115       173600         2663 
34730000   0.97912153   -4.9245911      1728000    6766.8383       173650         2663 
34740000   0.96576348   -4.8976702      1728000    6768.9741       173700         2663 
34750000   0.97245384   -4.8577166      1728000    6771.1236       173750         2663 
34760000   0.98093099   -4.8272694      1728000    6773.2475       173800         2663 
34770000   0.99707354   -4.9335985      1728000    6775.3167       173850         2663 
34780000   0.91635928   -4.9331224      1728000    6777.4452       173900         2663 
34790000   0.99712356   -4.9043788      1728000      6779.53       173950         2663 
34800000    1.0154194   -4.8898755      1728000    6781.6053       174000         2663 
34810000    1.0445666    -4.894312      1728000    6783.6959       174050         2663 
34820000    1.0624632   -4.9253103      1728000    6785.7485       174100         2663 
34830000   0.96126375   -5.0204221      1728000    6787.7831       174150         2663 
34840000    1.0069518   -4.8529273      1728000    6789.8298       174200         2663 
34850000    1.0185907      -5.0207      1728000    6791.9538       174250         2663 
34860000   0.96962995   -4.7918269      1728000    6794.0753       174300         2663 
34870000   0.96082628   -4.9208343      1728000    6796.2037       174350         2663 
34880000    1.0226503   -4.8195724      1728000    6798.3675       174400         2663 
34890000    1.0228818   -4.9331141      1728000    6800.5171       174450         2663 
34900000    1.0511244    -4.947415      1728000    6802.6202       174500         2663 
34910000     1.019649   -5.0356835      1728000    6804.7654       174550         2663 
34920000   0.98929839   -4.8131219      1728000    6806.8026       174600         2663 
34930000   0.96490991   -4.9254653      1728000    6808.7412       174650         2663 
34940000    1.0317625   -5.0779928      1728000    6810.7397       174700         2663 
34950000    1.0213401   -4.8272106      1728000    6812.8593       174750         2663 
34960000    1.0624909   -4.9249912      1728000    6815.0075       174800         2663 
34970000   0.96856981   -4.8963069      1728000    6817.1434       174850         2663 
34980000   0.94979597   -4.9331976      1728000    6819.2998       174900         2663 
34990000    1.0347755   -4.9190551      1728000    6821.4291       174950         2663 
35000000    1.0295516    -4.878605      1728000    6823.5805       175000         2663 
35010000    1.0145065   -4.8474435      1728000    6825.7177       175050         2664 
35020000    1.0047211     -4.96557      1728000    6827.8274       175100         2664 
35030000    1.0330207   -4.8682803      1728000    6829.9516       175150         2664 
35040000   0.94477354   -4.8979521      1728000    6832.0257       175200         2664 
35050000    1.0168294   -4.8809925      1728000    6834.1561       175250         2664 
35060000   0.99929279    -4.803715      1728000     6836.251       175300         2664 
35070000    1.0317508   -4.7386521      1728000    6838.4141       175350         2664 
35080000   0.98465831   -4.8680958      1728000    6840.5469       175400         2664 
35090000    1.0732755   -4.8897918      1728000    6842.6459       175450         2664 
35100000   0.98426207   -4.7941536      1728000      6844.78       175500         2664 
35110000   0.97523857   -4.9284725      1728000    6846.9162       175550         2664 
35120000   0.95683239   -4.9130031      1728000    6849.0761       175600         2664 
35130000    0.9669591    -4.903259      1728000      6851.21       175650         2664 
35140000    1.0663332   -4.8787035      1728000    6853.3387       175700         2664 
35150000    1.0516851    -4.944736      1728000    6855.4506       175750         2664 
35160000     1.029987   -4.8294049      1728000    6857.5874       175800         2664 
35170000   0.96417422    -4.780128      1728000    6859.6827       175850         2664 
35180000   0.94453147   -4.8289203      1728000    6861.8238       175900         2664 
35190000    1.0407825   -4.9611161      1728000    6863.9454       175950         2664 
35200000   0.95165669   -4.8474026      1728000    6866.0573       176000         2664 
35210000   0.96609386     -4.74465      1728000     6868.149       176050         2664 
35220000    1.0106396   -4.8825609      1728000     6870.841       176100         2664 
35230000   0.95831352   -4.8183731      1728000     6872.936       176150         2664 
35240000    1.0207269   -4.9594164      1728000    6875.0792       176200         2664 
35250000   0.99632227   -4.8436638      1728000    6877.2012       176250         2665 
35260000   0.96433441   -4.8521228      1728000    6879.2821       176300         2666 
35270000    1.0077964   -4.9617602      1728000    6881.4191       176350         2666 
35280000    1.0059774   -4.9495829      1728000    6883.5609       176400         2667 
35290000    1.0619248    -4.879892      1728000    6885.7347       176450         2667 
35300000   0.98929924   -4.7208099      1728000    6887.8686       176500         2668 
35310000    1.0154381   -4.9263927      1728000    6889.9605       176550         2669 
35320000   0.97265484    -4.874512      1728000    6892.1124       176600         2669 
35330000    1.0007948    -5.030225      1728000    6894.2857       176650         2669 
35340000   0.91728313   -4.8912209      1728000    6896.4165       176700         2669 
35350000   0.99948236   -4.8461757      1728000    6898.5635       176750         2669 
35360000   0.99104343   -4.8954879      1728000    6900.6655       176800         2669 
35370000     1.002431   -4.7586752      1728000    6902.7995       176850         2669 
35380000    1.0452391    -4.807125      1728000    6904.9263       176900         2671 
35390000    0.9375596   -4.8718058      1728000    6907.0493       176950         2675 
35400000    1.0336539   -4.7228465      1728000    6909.1784       177000         2675 
35410000    1.0063796   -4.9246341      1728000    6911.3371       177050         2675 
35420000    1.0918862   -4.8476045      1728000    6913.4584       177100         2675 
35430000    1.0682107   -5.0072567      1728000    6915.5864       177150         2675 
35440000     1.031031   -4.8519279      1728000    6917.7524       177200         2676 
35450000    1.0077692   -4.9975415      1728000    6919.8914       177250         2676 
35460000   0.96664675     -4.89456      1728000    6922.0215       177300         2676 
35470000    1.0077507   -4.7839793      1728000    6924.1255       177350         2676 
35480000    1.0734918    -4.839282      1728000    6926.2483       177400         2676 
35490000    1.0736383   -4.9955934      1728000    6928.3773       177450         2677 
35500000     1.012227   -5.0004499      1728000    6930.5214       177500         2677 
35510000   0.97567301   -4.8980497      1728000    6932.6364       177550         2677 
35520000    1.0058224   -4.8516303      1728000    6934.7755       177600         2677 
35530000    1.0363343   -4.9425756      1728000    6936.8637       177650         2677 
35540000    1.0579799   -4.8963948      1728000    6938.9697       177700         2677 
35550000   0.99045091   -4.8101613      1728000    6941.1006       177750         2677 
35560000   0.96979755   -4.9092793      1728000    6943.2594       177800         2677 
35570000    1.1113406   -4.8496952      1728000    6945.4064       177850         2677 
35580000   0.99192039    -4.898603      1728000    6947.5462       177900         2677 
35590000    1.0193615   -4.8941963      1728000    6949.6783       177950         2677 
35600000   0.99883014   -4.9106736      1728000    6951.8183       178000         2677 
35610000   0.97572143   -4.7315859      1728000    6953.9383       178050         2678 
35620000    1.0329622    -4.816538      1728000    6956.0652       178100         2679 
35630000   0.94141327   -4.9225545      1728000    6958.2156       178150         2680 
35640000   0.98260191    -4.963609      1728000    6960.3636       178200         2681 
35650000    1.0038839   -4.9050902      1728000     6962.523       178250         2681 
35660000   0.98748125   -4.8929243      1728000    6964.6638       178300         2681 
35670000   0.94171848    -4.907121      1728000    6966.7746       178350         2681 
35680000    1.0001552   -4.7416078      1728000    6968.8961       178400         2682 
35690000    1.0708037   -4.9194562      1728000    6971.3258       178450         2682 
35700000   0.91383134   -4.7594801      1728000    6973.5138       178500         2682 
35710000   0.99617412   -4.8591947      1728000    6975.6398       178550         2682 
35720000   0.95550743   -4.9106233      1728000    6977.8227       178600         2682 
35730000   0.95805403   -4.8607934      1728000    6979.9395       178650         2683 
35740000    1.0279442   -4.8783059      1728000    6982.1056       178700         2684 
35750000    1.0133457   -4.9568975      1728000    6984.2499       178750         2684 
35760000    1.0275845   -4.8605889      1728000     6986.418       178800         2684 
35770000    1.0002892   -4.8783533      1728000     6988.556       178850         2684 
35780000    1.0449308   -4.9453249      1728000    6990.6876       178900         2685 
35790000    1.0160846   -4.9535766      1728000    6992.8236       178950         2685 
35800000    1.0069855   -4.7560835      1728000    6994.9588       179000         2685 
35810000   0.97024007   -4.8784738      1728000    6997.0896       179050         2685 
35820000    1.0417384    -4.876089      1728000    6999.2548       179100         2685 
35830000    1.0074471   -4.9682375      1728000    7001.3702       179150         2685 
35840000   0.97794885   -4.7831198      1728000    7003.4835       179200         2685 
35850000    1.0168452   -4.9706201      1728000    7005.6224       179250         2686 
35860000   0.97583876   -4.8877034      1728000    7007.7643       179300         2687 
35870000   0.95635783   -4.9210997      1728000    7009.8987       179350         2688 
35880000    1.0265669   -4.9465577      1728000    7012.0335       179400         2688 
35890000    1.0276739    -4.802922      1728000    7014.1285       179450         2689 
35900000    1.0261273    -4.839165      1728000    7016.2523       179500         2689 
35910000   0.96301295   -4.9101942      1728000    7018.4074       179550         2690 
35920000    1.0506099   -4.8324063      1728000    7020.5493       179600         2690 
35930000    1.0228193   -4.8062894      1728000    7022.6792       179650         2691 
35940000    1.0884489   -4.8318326      1728000    7024.7892       179700         2691 
35950000    1.0740924   -4.8352213      1728000    7026.9241       179750         2691 
35960000    1.0025428   -4.9755257      1728000    7029.0623       179800         2692 
35970000    1.0190486   -4.8622101      1728000    7031.2134       179850         2692 
35980000    1.0490773    -4.855405      1728000    7033.3778       179900         2692 
35990000   0.96773983    -4.898965      1728000    7035.5021       179950         2692 
36000000    1.0236095   -4.9060626      1728000    7037.6013       180000         2692 
36010000    1.0176162   -4.9065919      1728000    7039.6423       180050         2692 
36020000    0.9359756    -4.882545      1728000    7041.6798       180100         2693 
36030000    1.0283837   -4.9507461      1728000    7043.7533       180150         2693 
36040000    0.9694668   -4.8876243      1728000    7045.7672       180200         2693 
36050000   0.94894073   -4.8028811      1728000    7047.7932       180250         2693 
36060000    1.0229592   -4.9285722      1728000    7049.8486       180300         2693 
36070000    1.0195306   -4.7909237      1728000    7051.8772       180350         2693 
36080000    1.0251211   -4.8869212      1728000    7053.9586       180400         2693 
36090000    1.0540998    -4.881993      1728000    7056.0331       180450         2693 
36100000    1.0041394   -4.9467047      1728000     7058.112       180500         2693 
36110000   0.98635666   -5.0126763      1728000    7060.1767       180550         2693 
36120000    1.0632814   -4.8696668      1728000    7062.2354       180600         2693 
36130000   0.94616955   -4.8385637      1728000     7064.292       180650         2693 
36140000    0.9751579   -4.8243576      1728000    7066.3654       180700         2693 
36150000    1.0357003   -4.8240214      1728000    7068.4283       180750         2693 
36160000    1.0147213   -4.9093943      1728000    7070.4805       180800         2694 
36170000     1.040506   -4.8615223      1728000     7072.551       180850         2694 
36180000    1.0340942   -4.7871014      1728000    7074.6033       180900         2694 
36190000   0.97613929   -4.9708872      1728000    7076.6394       180950         2694 
36200000   0.95235069   -4.8936537      1728000    7078.7265       181000         2694 
36210000    1.0389756   -4.9007226      1728000    7080.8026       181050         2694 
36220000    1.0391298   -5.0203769      1728000    7082.8741       181100         2694 
36230000    1.0027157   -4.7916814      1728000    7084.9768       181150         2694 
36240000     1.013802   -4.7585549      1728000    7087.0762       181200         2694 
36250000   0.91574387   -4.8492601      1728000    7089.1327       181250         2694 
36260000    1.0567117   -4.9359838      1728000    7091.2298       181300         2694 
36270000   0.94879639   -4.8481732      1728000    7093.3209       181350         2694 
36280000    1.0454986   -4.8376683      1728000    7095.3985       181400         2694 
36290000   0.97430323   -4.7793233      1728000    7097.5006       181450         2694 
36300000    0.9718339   -4.9155794      1728000    7099.6096       181500         2695 
36310000   0.97937401   -4.8985784      1728000    7101.6771       181550         2695 
36320000     1.000749   -4.8275961      1728000    7103.7484       181600         2696 
36330000   0.99510323   -4.8363154      1728000    7105.8479       181650         2697 
36340000   0.98219988   -4.7192292      1728000    7107.9483       181700         2697 
36350000   0.96305551   -4.9274033      1728000    7110.0869       181750         2699 
36360000    1.0127203    -4.921068      1728000    7112.1632       181800         2699 
36370000    1.0224967   -4.9630183      1728000    7114.1921       181850         2699 
36380000    1.0107277   -4.8074865      1728000    7116.3089       181900         2699 
36390000    1.0868456   -4.8574147      1728000    7118.3992       181950         2700 
36400000     0.965684   -5.0114094      1728000    7120.5241       182000         2700 
36410000    1.0113973    -4.985435      1728000    7122.5745       182050         2700 
36420000   0.96715779   -4.8188434      1728000    7124.6272       182100         2700 
36430000   0.99864044   -4.7089701      1728000    7126.7063       182150         2700 
36440000   0.94879838   -4.7572017      1728000    7128.7941       182200         2701 
36450000   0.98559948   -4.8821432      1728000    7130.8924       182250         2701 
36460000   0.99389538   -4.8728603      1728000    7133.0064       182300         2702 
36470000   0.98636058   -4.8829928      1728000    7135.0673       182350         2703 
36480000   0.98739996   -4.8643913      1728000    7137.1172       182400         2705 
36490000    1.0237432   -4.8897418      1728000     7139.254       182450         2705 
36500000    1.0690927   -4.9248734      1728000    7141.3614       182500         2705 
36510000   0.98454053   -4.9288099      1728000    7143.4864       182550         2705 
36520000    1.0547686   -4.8501623      1728000    7145.5614       182600         2705 
36530000   0.95923154   -4.9534966      1728000    7147.6613       182650         2705 
36540000    1.0177079   -4.9885207      1728000    7150.3537       182700         2705 
36550000     1.016603   -4.7624142      1728000     7152.449       182750         2705 
36560000    1.0434264   -4.9931338      1728000    7154.5686       182800         2705 
36570000    1.1016938   -4.8771397      1728000    7156.6341       182850         2705 
36580000     1.036672   -4.8783204      1728000    7158.7309       182900         2707 
36590000   0.92119047   -4.8435702      1728000    7160.8117       182950         2707 
36600000   0.99055181   -4.8020657      1728000    7162.8956       183000         2707 
36610000   0.99763732   -4.8169467      1728000    7164.9875       183050         2707 
36620000   0.96739514   -5.0258259      1728000    7167.0926       183100         2708 
36630000    1.0075775    -4.870536      1728000    7169.2296       183150         2709 
36640000    1.0072622   -4.9238939      1728000    7171.3337       183200         2710 
36650000    1.0391749    -4.992852      1728000    7173.5489       183250         2710 
36660000   0.99016669   -4.9313831      1728000    7175.6466       183300         2710 
36670000    1.0241657   -4.8687438      1728000    7177.7768       183350         2710 
36680000    1.0001398   -4.8291043      1728000    7179.8633       183400         2711 
36690000    1.0382647    -4.928826      1728000    7182.0237       183450         2712 
36700000   0.97437478   -4.8317704      1728000    7184.1931       183500         2712 
36710000   0.99260743   -4.7622583      1728000    7186.3127       183550         2713 
36720000    1.0431708   -4.9509138      1728000    7188.2974       183600         2713 
36730000    1.0241304   -4.7665134      1728000    7190.3981       183650         2713 
36740000    1.0571506   -4.8127591      1728000     7192.446       183700         2715 
36750000    1.0099409   -4.9348224      1728000    7194.4708       183750         2715 
36760000   0.99061632    -4.893963      1728000    7196.5289       183800         2715 
36770000    1.0242387   -4.8652384      1728000    7198.6108       183850         2715 
36780000    1.0471012   -4.8343734      1728000    7200.6257       183900         2715 
36790000   0.96734386   -4.9260601      1728000    7202.6706       183950         2715 
36800000     1.048508   -4.8891212      1728000    7204.7029       184000         2716 
36810000    1.0354137   -4.8793983      1728000    7206.6889       184050         2716 
36820000    1.0417917   -4.9942263      1728000    7208.7228       184100         2716 
36830000    1.0131092   -4.8760009      1728000    7210.7697       184150         2716 
36840000   0.99730064   -4.8904382      1728000    7212.8376       184200         2716 
36850000    1.0585877   -4.8624525      1728000    7214.9597       184250         2716 
36860000   0.99252989   -4.8287215      1728000    7217.1149       184300         2716 
36870000     1.015582   -4.9108722      1728000    7219.2907       184350         2716 
36880000    0.9603239   -4.6661465      1728000    7221.3526       184400         2716 
36890000    1.0303864   -4.9325803      1728000    7223.3976       184450         2716 
36900000    1.0329957   -4.9742577      1728000     7225.434       184500         2717 
36910000    1.0027163   -4.8586503      1728000    7227.5002       184550         2717 
36920000    1.0606327   -4.9696619      1728000    7229.5294       184600         2717 
36930000     1.015784   -4.8882991      1728000    7231.6253       184650         2717 
36940000    1.0045503   -4.7979857      1728000    7233.6123       184700         2717 
36950000   0.98471935     -4.97529      1728000    7235.6512       184750         2717 
36960000   0.98579545   -4.9386923      1728000    7237.6571       184800         2717 
36970000    1.0238268   -4.8490903      1728000    7239.6611       184850         2717 
36980000   0.99544277   -4.9700768      1728000     7241.682       184900         2717 
36990000   0.99910216   -5.0028963      1728000    7244.0166       184950         2717 
37000000   0.97198333   -4.8416408      1728000    7246.0266       185000         2717 
37010000   0.98977523    -4.811447      1728000    7248.0425       185050         2717 
37020000    1.0330341    -4.825771      1728000    7250.0814       185100         2717 
37030000   0.98923864   -4.7856931      1728000    7252.1228       185150         2717 
37040000    0.9805951   -4.9644408      1728000    7254.1557       185200         2717 
37050000    1.0321989    -4.980388      1728000    7256.1497       185250         2717 
37060000   0.97569136   -4.9281598      1728000    7258.2298       185300         2717 
37070000   0.99783916   -4.8667465      1728000    7260.2802       185350         2717 
37080000   0.95692784    -4.948673      1728000     7262.355       185400         2718 
37090000   0.96740023   -4.8098239      1728000     7264.387       185450         2718 
37100000    1.0460605   -4.8856859      1728000    7266.5063       185500         2718 
37110000    1.1627639   -4.8053332      1728000    7268.5292       185550         2719 
37120000   0.95378365   -4.7920825      1728000    7270.5874       185600         2719 
37130000   0.98160451    -4.763458      1728000    7272.6346       185650         2720 
37140000   0.95495951   -4.7390854      1728000    7274.6965       185700         2721 
37150000     1.028886   -4.8591599      1728000    7276.7074       185750         2722 
37160000     1.005943   -4.8621704      1728000    7278.6927       185800         2722 
37170000   0.97738363    -4.737669      1728000    7280.6729       185850         2722 
37180000    1.0344544   -4.8230782      1728000    7282.6269       185900         2722 
37190000    1.0325751   -4.7726117      1728000     7284.656       185950         2723 
37200000    1.0217489   -4.8714091      1728000    7286.6739       186000         2724 
37210000    1.0360409   -4.7939696      1728000    7288.6549       186050         2724 
37220000    1.0219718   -4.9111866      1728000    7290.6358       186100         2725 
37230000    1.0578614   -4.9120626      1728000    7292.6051       186150         2725 
37240000    1.0094838   -4.8828922      1728000      7294.61       186200         2726 
37250000    1.0022244   -4.8974662      1728000     7296.628       186250         2726 
37260000    1.0251869    -4.870158      1728000    7298.5943       186300         2726 
37270000    1.0891806   -4.8332377      1728000    7300.5446       186350         2727 
37280000   0.95525217   -5.0036214      1728000    7302.5441       186400         2727 
37290000   0.96267095    -4.854517      1728000     7304.578       186450         2727 
37300000   0.94556676   -4.8245372      1728000    7306.5459       186500         2727 
37310000   0.99318191   -4.7675438      1728000     7308.484       186550         2727 
37320000    1.0499656   -4.9879612      1728000    7310.4138       186600         2728 
37330000   0.97628628    -4.847152      1728000    7312.3518       186650         2728 
37340000   0.99032153   -4.9451684      1728000    7314.3579       186700         2728 
37350000    1.0233642   -4.9257249      1728000     7316.299       186750         2728 
37360000   0.98064419    -4.853036      1728000    7318.3281       186800         2728 
37370000   0.95923186    -4.769918      1728000    7320.3154       186850         2728 
37380000   0.94260105   -4.9125065      1728000    7322.2614       186900         2729 
37390000    1.0673752   -4.8361987      1728000    7324.2498       186950         2729 
37400000   0.99738194   -4.8770499      1728000    7326.2587       187000         2729 
37410000   0.98778181   -4.9402992      1728000    7328.2464       187050         2730 
37420000   0.97577396    -4.853659      1728000    7330.2189       187100         2730 
37430000    1.0276559   -4.8898158      1728000    7332.1916       187150         2730 
37440000    1.0873974   -4.8551239      1728000    7334.2388       187200         2731 
37450000   0.94852556    -4.904982      1728000    7336.3309       187250         2731 
37460000   0.94210876   -4.8478002      1728000    7338.3129       187300         2732 
37470000    1.0100616   -4.7127515      1728000    7340.3569       187350         2732 
37480000    1.0399426   -4.8716805      1728000     7342.347       187400         2732 
37490000   0.98526917    -4.879922      1728000     7344.371       187450         2732 
37500000    1.0254733   -5.0030472      1728000     7346.442       187500         2732 
37510000   0.99293113   -4.8540535      1728000    7348.5318       187550         2733 
37520000   0.99014702   -4.9026297      1728000    7350.5558       187600         2733 
37530000   0.98947128   -4.7447636      1728000    7352.6047       187650         2733 
37540000   0.98981633   -5.0174262      1728000    7354.6187       187700         2733 
37550000    1.0399216   -4.8295439      1728000    7356.6429       187750         2734 
37560000    1.0132691   -4.8247464      1728000    7358.6996       187800         2734 
37570000   0.98807336   -4.9202929      1728000    7360.7183       187850         2735 
37580000   0.96562851   -4.7764629      1728000    7362.7799       187900         2735 
37590000    1.0405502   -4.8827939      1728000    7364.8038       187950         2735 
37600000    1.0456686   -4.9554048      1728000       7366.9       188000         2735 
37610000    1.0539066   -4.7720047      1728000    7368.9881       188050         2735 
37620000    1.0673738   -5.0099103      1728000    7371.0792       188100         2735 
37630000    1.0099567   -5.0044328      1728000    7373.1701       188150         2736 
37640000   0.96119638   -4.9614782      1728000    7375.2578       188200         2736 
37650000   0.94251421   -4.7948567      1728000     7377.323       188250         2736 
37660000   0.95288746   -4.8628503      1728000    7379.3848       188300         2737 
37670000     1.007138   -4.8422469      1728000    7381.4509       188350         2737 
37680000   0.99630617   -4.8867189      1728000    7383.5579       188400         2738 
37690000   0.98677131   -4.9291428      1728000    7385.6628       188450         2738 
37700000    1.0317604     -4.84775      1728000    7387.7686       188500         2738 
37710000    1.0131938   -4.9107173      1728000     7389.858       188550         2738 
37720000    1.0276804   -5.0578237      1728000    7391.9453       188600         2738 
37730000   0.94076164   -4.9573211      1728000    7394.0558       188650         2738 
37740000   0.97158388   -4.8916058      1728000    7396.1827       188700         2738 
37750000   0.94823806   -5.0139504      1728000     7398.232       188750         2738 
37760000    1.0126058   -4.9346038      1728000    7400.3419       188800         2738 
37770000   0.94033104   -4.9539576      1728000    7402.4508       188850         2738 
37780000    1.0092396   -4.8833313      1728000    7404.5769       188900         2738 
37790000    1.0291388   -4.8979675      1728000    7406.6959       188950         2739 
37800000    1.0171587   -4.8264744      1728000    7408.7818       189000         2739 
37810000   0.97982777   -4.7453745      1728000    7410.9036       189050         2739 
37820000   0.95700839   -4.9470389      1728000    7412.9925       189100         2739 
37830000   0.95278958    -4.864415      1728000    7415.0646       189150         2740 
37840000    1.0074979   -4.7982575      1728000    7417.1655       189200         2740 
37850000   0.99320437   -4.9806348      1728000    7419.2279       189250         2740 
37860000   0.94642389   -4.9720953      1728000     7421.294       189300         2740 
37870000    1.1227026   -4.9682462      1728000    7423.3616       189350         2740 
37880000   0.96555829   -4.8963757      1728000    7425.4001       189400         2740 
37890000    1.0208596    -4.917588      1728000    7427.4735       189450         2740 
37900000    1.0473301   -4.8623401      1728000    7430.1289       189500         2740 
37910000    1.0321826   -4.8509676      1728000    7432.1719       189550         2740 
37920000    1.0645211    -4.800363      1728000    7434.2098       189600         2740 
37930000    1.0598576   -4.8751876      1728000    7436.2979       189650         2740 
37940000   0.99320592   -4.8514444      1728000     7438.518       189700         2741 
37950000   0.97474932   -4.8189229      1728000    7440.6429       189750         2742 
37960000    1.0487354   -4.9193881      1728000    7442.7345       189800         2742 
37970000   0.99013993   -4.8352404      1728000    7444.7986       189850         2742 
37980000    1.0947365    -4.754693      1728000    7446.8829       189900         2742 
37990000    1.0117652   -4.9758765      1728000    7448.9355       189950         2742 
38000000   0.95151477    -4.905469      1728000    7451.0656       190000         2742 
38010000   0.99348309   -4.9169704      1728000     7453.098       190050         2742 
38020000    1.0953968    -4.783513      1728000    7455.1225       190100         2742 
38030000   0.98652553   -4.9634436      1728000    7457.1604       190150         2742 
38040000    1.0497259   -4.8125354      1728000    7459.2179       190200         2742 
38050000    1.0517824   -4.9548018      1728000    7461.2326       190250         2742 
38060000   0.97981319   -4.9224881      1728000    7463.2724       190300         2742 
38070000   0.94975209   -4.7800127      1728000    7465.3534       190350         2743 
38080000    1.0883259   -4.8896833      1728000    7467.3903       190400         2744 
38090000   0.94644549   -4.7573196      1728000    7469.3953       190450         2745 
38100000     1.102351   -4.9117551      1728000    7471.3702       190500         2745 
38110000    1.0253148   -4.8763623      1728000    7473.4026       190550         2745 
38120000    1.0029591   -4.9010929      1728000    7475.5075       190600         2745 
38130000    1.0072967   -4.8912989      1728000    7477.5996       190650         2746 
38140000    1.0026105   -4.9371445      1728000    7479.6845       190700         2746 
38150000   0.98998191   -4.8515038      1728000    7481.8323       190750         2746 
38160000    0.9734893   -4.8962204      1728000    7483.9516       190800         2746 
38170000    1.0584788   -4.8047618      1728000    7486.0185       190850         2746 
38180000   0.97836314   -4.8249457      1728000    7488.0966       190900         2746 
38190000   0.97903132   -4.9237654      1728000    7490.2034       190950         2747 
38200000   0.98520028   -4.8287298      1728000    7492.4211       191000         2748 
38210000   0.94118544   -4.7893251      1728000    7494.5035       191050         2748 
38220000   0.95934629   -4.8673184      1728000    7496.6253       191100         2748 
38230000   0.96912951    -4.969024      1728000    7498.7221       191150         2748 
38240000     1.078073    -4.907839      1728000     7500.817       191200         2749 
38250000    1.0508512   -5.0194687      1728000    7502.8913       191250         2749 
38260000    1.0143479    -4.930502      1728000    7504.9881       191300         2751 
38270000   0.99644337   -4.7842467      1728000    7507.1016       191350         2751 
38280000    1.0463085   -4.9139421      1728000    7509.2092       191400         2751 
38290000    1.0344279    -4.886265      1728000    7511.3134       191450         2751 
38300000    1.0422752   -4.9009645      1728000    7513.4644       191500         2751 
38310000     0.942376   -4.8591421      1728000    7515.5686       191550         2751 
38320000    1.0179093   -4.8042279      1728000    7517.6493       191600         2751 
38330000   0.95504387   -4.8393247      1728000    7519.7251       191650         2751 
38340000    1.0052874   -4.9146172      1728000    7521.8687       191700         2752 
38350000   0.95280402   -4.9017426      1728000    7524.0468       191750         2752 
38360000    1.0143276   -4.9938596      1728000    7526.2126       191800         2752 
38370000    1.0338419    -4.843375      1728000    7528.3177       191850         2752 
38380000   0.96446542   -4.8234277      1728000    7530.3756       191900         2753 
38390000   0.94126649   -4.8727891      1728000    7532.4235       191950         2754 
38400000    1.0097357   -4.9078738      1728000    7534.4854       192000         2754 
38410000    1.0176564   -4.8746245      1728000    7536.5091       192050         2754 
38420000   0.94486318   -4.8236646      1728000    7538.5415       192100         2754 
38430000    1.0554434   -4.9582187      1728000    7540.5886       192150         2756 
38440000    1.0583609    -4.846602      1728000    7542.6716       192200         2756 
38450000    1.0631314   -4.8670164      1728000    7544.7115       192250         2756 
38460000   0.98782372   -4.9072519      1728000    7546.7209       192300         2756 
38470000    1.0673527   -4.8906455      1728000    7548.8224       192350         2756 
38480000     1.008627   -4.8952912      1728000    7550.9165       192400         2756 
38490000    1.0712072   -4.9659847      1728000    7553.0486       192450         2756 
38500000   0.98811298   -4.8667687      1728000    7555.1954       192500         2756 
38510000    1.0503277   -4.9360316      1728000    7557.2897       192550         2756 
38520000    0.9811726   -4.8582142      1728000     7559.389       192600         2756 
38530000    1.0351024    -4.948552      1728000    7561.4776       192650         2756 
38540000    0.9811624   -4.9789236      1728000    7563.5692       192700         2756 
38550000   0.95647102   -4.9855174      1728000    7565.6989       192750         2756 
38560000    1.0349367   -4.9175972      1728000    7567.8026       192800         2756 
38570000   0.95929297   -4.8591041      1728000    7569.8825       192850         2757 
38580000    1.0138564   -4.9069465      1728000    7572.0261       192900         2757 
38590000    1.0083144   -5.0197811      1728000    7574.2663       192950         2757 
38600000    1.0152427   -4.8472729      1728000    7576.4411       193000         2757 
38610000    1.0529639   -4.8087628      1728000    7578.5703       193050         2758 
38620000   0.99228187   -4.8583456      1728000    7580.6846       193100         2758 
38630000    1.0681596   -4.9228418      1728000    7582.7676       193150         2759 
38640000    1.0080864    -4.911386      1728000    7584.8555       193200         2761 
38650000   0.96886934   -4.8013597      1728000    7586.9513       193250         2762 
38660000    1.0188742   -4.6923499      1728000    7589.4687       193300         2762 
38670000   0.97116745   -4.8506212      1728000    7591.6195       193350         2763 
38680000   0.96399999   -4.7926668      1728000    7593.7803       193400         2763 
38690000     1.034674   -4.8708189      1728000    7595.7974       193450         2763 
38700000   0.96967526   -4.9104377      1728000    7597.8516       193500         2763 
38710000    0.9940936    -5.017061      1728000    7599.8511       193550         2764 
38720000    1.0093372   -4.9410016      1728000    7601.9198       193600         2764 
38730000    1.0626323   -4.7325309      1728000    7603.9483       193650         2764 
38740000   0.98993138   -4.8190818      1728000    7605.9862       193700         2765 
38750000   0.95518413   -4.9149669      1728000    7608.0236       193750         2766 
38760000   0.99792225   -4.7980494      1728000    7610.1414       193800         2766 
38770000   0.95735692   -4.8189547      1728000    7612.2525       193850         2766 
38780000   0.97235302   -4.8038024      1728000    7614.2984       193900         2766 
38790000   0.95985772   -4.9300427      1728000    7616.4007       193950         2766 
38800000    1.0044985   -4.8966002      1728000    7618.5254       194000         2766 
38810000   0.95707128   -4.9010375      1728000    7620.5801       194050         2767 
38820000     1.029272   -4.9144836      1728000    7622.6535       194100         2767 
38830000   0.96978453   -4.9190327      1728000    7624.7776       194150         2767 
38840000    1.0206033   -4.8531403      1728000    7626.8534       194200         2767 
38850000    1.0184276   -4.9071519      1728000    7628.9083       194250         2767 
38860000    1.0089788   -4.9080658      1728000    7630.9879       194300         2767 
38870000   0.98167843   -4.8402886      1728000    7633.0695       194350         2767 
38880000   0.97045738   -4.8785249      1728000    7635.1285       194400         2767 
38890000   0.96659673   -4.8013198      1728000    7637.2413       194450         2767 
38900000   0.93356797   -5.0053361      1728000    7639.3115       194500         2767 
38910000    1.0330875   -4.9231165      1728000    7641.4253       194550         2767 
38920000   0.99444397   -4.9684926      1728000    7643.5664       194600         2767 
38930000    1.0270502   -4.8431019      1728000    7645.6992       194650         2767 
38940000    1.0548663     -4.97608      1728000     7647.808       194700         2768 
38950000    1.0407972   -4.9021403      1728000    7649.8959       194750         2768 
38960000   0.97825497    -4.828831      1728000    7652.0267       194800         2768 
38970000   0.99572422   -4.8393665      1728000    7654.1118       194850         2768 
38980000    1.1026973   -4.9357476      1728000    7656.2528       194900         2768 
38990000    1.0299473   -4.8457661      1728000    7658.3546       194950         2768 
39000000    1.0574609   -4.8535877      1728000    7660.4947       195000         2768 
39010000   0.98568184   -4.8358252      1728000    7662.5882       195050         2768 
39020000    1.0791137   -5.0247997      1728000    7664.6715       195100         2768 
39030000   0.97373226   -5.0077616      1728000    7666.7524       195150         2768 
39040000    1.0144647   -4.8183883      1728000    7668.7844       195200         2768 
39050000    1.0144282   -4.9688172      1728000    7670.8184       195250         2769 
39060000   0.99969099   -4.8491388      1728000    7672.9014       195300         2770 
39070000    1.0886744    -4.920342      1728000    7674.9643       195350         2771 
39080000    1.0324351   -4.7134785      1728000    7677.0252       195400         2771 
39090000   0.93114686   -4.9299948      1728000    7679.0941       195450         2771 
39100000    1.0031388   -4.7986858      1728000     7681.188       195500         2771 
39110000   0.95478258   -4.9001786      1728000    7683.2229       195550         2772 
39120000    1.0051014   -5.0004324      1728000    7685.3062       195600         2772 
39130000   0.99710988   -4.8990674      1728000    7687.3581       195650         2772 
39140000   0.99396436   -4.8915555      1728000    7689.4361       195700         2772 
39150000    1.0229654   -4.8007842      1728000    7691.4832       195750         2772 
39160000    1.0280759   -4.8930766      1728000    7693.5201       195800         2772 
39170000    1.0337751    -4.792303      1728000    7695.5843       195850         2772 
39180000    1.0329428   -4.7774377      1728000    7697.6286       195900         2772 
39190000   0.97978892   -4.8690318      1728000    7699.6967       195950         2772 
39200000    1.0311551   -4.8553655      1728000    7701.7326       196000         2773 
39210000    1.0022221   -4.9075272      1728000    7703.7937       196050         2773 
39220000    1.0013938   -4.8103887      1728000    7705.8039       196100         2773 
39230000    0.9592217   -4.8996182      1728000    7707.8759       196150         2773 
39240000    1.0102265   -4.8321292      1728000    7709.9508       196200         2773 
39250000   0.92720943   -4.9656548      1728000    7711.9499       196250         2773 
39260000   0.94523882   -4.8951795      1728000     7713.975       196300         2774 
39270000    1.0940262   -4.9239206      1728000    7716.0371       196350         2775 
39280000    1.0497351   -4.7660249      1728000    7718.0949       196400         2775 
39290000   0.99036345   -4.8797781      1728000    7720.1191       196450         2775 
39300000    1.0020454   -4.9436739      1728000    7722.1732       196500         2775 
39310000    1.0394341   -4.8572107      1728000    7724.1931       196550         2775 
39320000   0.96218407   -4.9423123      1728000    7726.2234       196600         2775 
39330000   0.98959878   -4.8570428      1728000    7728.2565       196650         2775 
39340000    1.0209883   -4.7442969      1728000    7730.2497       196700         2776 
39350000    1.0265945    -4.930326      1728000    7732.2836       196750         2776 
39360000    1.0076514   -4.8396067      1728000    7734.3117       196800         2776 
39370000    1.0622084    -4.818982      1728000    7736.4029       196850         2777 
39380000    1.0280015   -4.8924209      1728000    7738.4819       196900         2778 
39390000   0.96931741   -4.8128855      1728000    7740.6011       196950         2778 
39400000   0.99564957   -4.8332791      1728000     7742.753       197000         2778 
39410000   0.97793111   -4.8429469      1728000    7744.8219       197050         2778 
39420000    1.0018989   -4.9677811      1728000     7746.958       197100         2778 
39430000   0.98658927   -4.9317688      1728000    7749.0878       197150         2779 
39440000   0.94474812   -4.8657259      1728000    7751.1799       197200         2779 
39450000   0.98712213   -4.9323113      1728000    7753.2218       197250         2779 
39460000    0.9790556   -4.8505573      1728000    7755.2861       197300         2779 
39470000   0.97205712   -4.9073748      1728000    7757.4074       197350         2779 
39480000   0.99167847   -4.8466743      1728000    7759.4842       197400         2779 
39490000   0.94426523   -4.8956853      1728000    7761.5501       197450         2779 
39500000   0.98435351   -4.8809332      1728000    7763.6421       197500         2779 
39510000     1.010558   -4.9366052      1728000    7765.7152       197550         2780 
39520000    1.0038646   -4.9560904      1728000    7767.8414       197600         2780 
39530000     1.000015   -4.7655964      1728000    7769.9222       197650         2780 
39540000   0.95302758   -4.9272929      1728000    7772.0342       197700         2780 
39550000    1.0528451   -4.8326197      1728000    7774.1254       197750         2780 
39560000    1.0253044   -4.8287352      1728000    7776.2053       197800         2780 
39570000    1.1025578   -4.9115786      1728000    7778.2722       197850         2780 
39580000    1.0447015   -4.9168093      1728000    7780.3421       197900         2780 
39590000    1.0141468   -4.9392146      1728000    7782.4442       197950         2780 
39600000    1.0217776    -4.794637      1728000     7784.499       198000         2780 
39610000   0.98764855   -4.9664628      1728000    7786.6186       198050         2780 
39620000    1.0705517   -4.9699397      1728000    7788.7344       198100         2781 
39630000    1.0482572   -4.9481441      1728000    7790.8382       198150         2782 
39640000    0.9208751   -4.8032951      1728000    7792.9421       198200         2782 
39650000    1.0259091   -4.8452054      1728000    7795.0491       198250         2782 
39660000    1.0431109   -4.8873397      1728000    7797.1619       198300         2783 
39670000    1.0441728   -4.8389436      1728000    7799.2499       198350         2783 
39680000   0.93703427   -4.8214255      1728000    7801.3611       198400         2784 
39690000    1.0500602   -4.7976291      1728000    7803.4642       198450         2785 
39700000    1.0171163   -4.8526254      1728000    7806.0181       198500         2786 
39710000   0.98876752   -4.8728592      1728000    7808.0934       198550         2787 
39720000   0.97878678   -4.8606623      1728000    7810.1919       198600         2787 
39730000    1.0066265    -4.984459      1728000    7812.2893       198650         2787 
39740000    1.0326307   -4.9048439      1728000    7814.3994       198700         2787 
39750000   0.99073351   -4.8164857      1728000    7816.4833       198750         2787 
39760000    1.0923996   -4.9459623      1728000    7818.5741       198800         2788 
39770000    1.0456572   -4.8040309      1728000    7820.6294       198850         2788 
39780000   0.97296051    -4.923999      1728000    7822.7202       198900         2788 
39790000    1.0857655   -4.7700524      1728000    7824.8336       198950         2789 
39800000    1.0502677   -4.8739062      1728000    7826.9397       199000         2789 
39810000   0.98119352    -4.961644      1728000    7829.0223       199050         2789 
39820000    1.0664428   -4.9043259      1728000    7831.1303       199100         2789 
39830000   0.96926077   -4.9302174      1728000    7833.2123       199150         2789 
39840000       1.0452   -5.0231704      1728000    7835.2461       199200         2789 
39850000   0.98190118   -4.9885186      1728000    7837.2969       199250         2789 
39860000    1.0680035   -4.8558682      1728000    7839.3475       199300         2789 
39870000    1.0165169   -4.7521015      1728000    7841.3586       199350         2789 
39880000    1.0376514   -4.9763661      1728000    7843.4217       199400         2789 
39890000      1.02418   -5.0375928      1728000    7845.4559       199450         2789 
39900000    1.0414641   -4.9721153      1728000    7847.4928       199500         2789 
39910000    1.0327521   -4.8860559      1728000    7849.5663       199550         2789 
39920000   0.99964698    -4.897519      1728000    7851.6444       199600         2789 
39930000   0.97259552   -4.8974462      1728000    7853.7287       199650         2789 
39940000    1.0151849   -4.9401454      1728000    7855.8327       199700         2789 
39950000   0.95728073   -5.0433549      1728000    7857.8737       199750         2789 
39960000    0.9565196   -4.9260047      1728000    7859.9673       199800         2789 
39970000   0.94615605   -4.9561637      1728000    7862.0258       199850         2789 
39980000    1.0049596   -4.9204728      1728000    7864.0875       199900         2789 
39990000   0.99681983   -4.9000559      1728000    7866.1555       199950         2789 
40000000   0.98993195   -4.8556202      1728000    7868.2534       200000         2789 
40010000    0.9259401   -4.9323284      1728000    7870.2999       200050         2789 
40020000    1.0224104   -4.8977823      1728000    7872.4447       200100         2789 
40030000   0.90987471    -4.970273      1728000     7874.571       200150         2789 
40040000    1.0480913   -4.8522724      1728000    7876.6401       200200         2789 
40050000    1.0147399   -4.9843923      1728000    7878.7195       200250         2789 
40060000   0.99611354   -4.8521382      1728000    7880.8422       200300         2789 
40070000    1.0983929   -4.9221309      1728000     7882.939       200350         2789 
40080000     1.026249   -4.9076123      1728000    7885.0499       200400         2789 
40090000    1.0428654   -4.9414671      1728000    7887.1242       200450         2789 
40100000   0.99448094   -4.8734371      1728000    7889.3074       200500         2789 
40110000   0.94750998   -4.8617976      1728000    7891.5344       200550         2789 
40120000    1.0569096   -4.9166345      1728000    7893.6816       200600         2789 
40130000    1.0236127   -4.8834286      1728000    7895.8138       200650         2789 
40140000   0.98141436   -4.8942649      1728000    7897.8692       200700         2789 
40150000   0.97768154   -4.9180904      1728000    7899.9459       200750         2789 
40160000    1.0519166   -4.8819882      1728000    7901.9913       200800         2790 
40170000    1.0620827   -4.8625652      1728000    7904.1035       200850         2790 
40180000   0.94013384   -4.8421582      1728000    7906.1951       200900         2790 
40190000   0.92771241   -4.9127333      1728000    7908.3505       200950         2791 
40200000   0.97649374    -4.932167      1728000    7910.5033       201000         2791 
40210000    1.0100475   -4.9176618      1728000    7912.6961       201050         2791 
40220000   0.99520347   -5.0065555      1728000    7914.7852       201100         2791 
40230000   0.95902992   -4.8963547      1728000    7916.8284       201150         2791 
40240000    1.0275188   -4.8647972      1728000    7918.9108       201200         2791 
40250000    1.0437328   -5.0231107      1728000    7920.9622       201250         2791 
40260000    1.0531149   -4.8532133      1728000    7923.0425       201300         2791 
40270000   0.99176962   -4.8489962      1728000    7925.1466       201350         2791 
40280000    0.9732994   -4.9192835      1728000    7927.2463       201400         2791 
40290000   0.96917405   -5.0779145      1728000    7929.3242       201450         2791 
40300000    1.0590761   -4.8760934      1728000    7931.4312       201500         2791 
40310000    1.0199209   -4.7161046      1728000    7933.5121       201550         2791 
40320000    1.0653268   -4.7821075      1728000    7935.6111       201600         2791 
40330000    1.0041881   -4.8839364      1728000    7937.6709       201650         2791 
40340000   0.98863508   -4.8477959      1728000    7939.7059       201700         2791 
40350000   0.94563051   -4.8571478      1728000    7941.7514       201750         2791 
40360000    1.0393958   -4.9034192      1728000    7943.8078       201800         2791 
40370000    1.0397607   -4.8892117      1728000    7945.8766       201850         2791 
40380000    1.1011709   -4.8623123      1728000    7947.9439       201900         2791 
40390000   0.97569956    -5.005192      1728000    7950.0827       201950         2791 
40400000   0.97260774   -4.9384489      1728000    7952.1925       202000         2791 
40410000    1.0733191   -4.8270235      1728000    7954.2516       202050         2791 
40420000    1.0025025    -4.970396      1728000     7956.317       202100         2791 
40430000    1.0284447   -4.8880385      1728000    7958.9903       202150         2791 
40440000   0.92945688   -4.9454471      1728000    7961.1094       202200         2791 
40450000    1.0423215   -5.0134567      1728000    7963.2468       202250         2791 
40460000   0.97776398   -4.8882902      1728000    7965.3242       202300         2791 
40470000    1.0368294   -4.9363529      1728000      7967.43       202350         2791 
40480000    0.9603875   -4.9307176      1728000    7969.5179       202400         2791 
40490000    1.0454139   -4.8904751      1728000    7971.6079       202450         2791 
40500000   0.92641407   -4.8484273      1728000      7973.65       202500         2791 
40510000    1.0430283   -4.9578363      1728000    7975.7129       202550         2791 
40520000     1.029288    -4.896261      1728000    7977.8107       202600         2791 
40530000    1.0254221   -4.9367757      1728000    7979.8836       202650         2791 
40540000    1.0078433   -4.7667609      1728000    7981.9515       202700         2791 
40550000    1.0177751   -4.8994674      1728000    7984.0344       202750         2791 
40560000    1.0280412   -4.9030427      1728000    7986.0576       202800         2791 
40570000   0.99227448   -4.9114067      1728000    7988.0796       202850         2791 
40580000    0.9864515   -4.8253336      1728000    7990.0937       202900         2791 
40590000   0.98057934   -4.9860534      1728000    7992.1176       202950         2791 
40600000    1.0197348   -4.9313191      1728000    7994.1516       203000         2791 
40610000     1.001386   -4.7588198      1728000    7996.2127       203050         2791 
40620000   0.93984997   -4.8755749      1728000    7998.2408       203100         2791 
40630000    1.0490224   -4.9249165      1728000     8000.272       203150         2791 
40640000   0.97706039   -4.9578758      1728000    8002.3853       203200         2791 
40650000    1.0068564   -4.8296236      1728000    8004.4952       203250         2791 
40660000   0.98643388   -4.8225458      1728000    8006.5742       203300         2791 
40670000    1.0285909   -4.9586767      1728000    8008.6231       203350         2791 
40680000   0.91976303   -4.8099457      1728000    8010.6391       203400         2791 
40690000     1.022433   -4.9735474      1728000     8012.651       203450         2791 
40700000   0.97359376    -4.938414      1728000    8014.7329       203500         2791 
40710000    1.0222818   -4.9233804      1728000     8016.771       203550         2791 
40720000   0.96839365   -4.9429586      1728000    8018.8518       203600         2791 
40730000    1.0138307    -4.709807      1728000    8020.9437       203650         2791 
40740000    1.0241775   -4.9653896      1728000    8022.9697       203700         2791 
40750000    1.0697859   -4.7791983      1728000    8025.0299       203750         2791 
40760000    1.0115608   -4.9093436      1728000    8027.0758       203800         2791 
40770000    1.0060849   -4.8357036      1728000    8029.1048       203850         2791 
40780000   0.99054794   -4.9776583      1728000    8031.1826       203900         2791 
40790000    1.0475143   -4.8065134      1728000    8033.2695       203950         2791 
40800000    1.0232301   -4.8224008      1728000     8035.349       204000         2791 
40810000    1.0401875   -4.8681678      1728000     8037.403       204050         2791 
40820000     1.001143   -4.9460573      1728000    8039.4649       204100         2791 
40830000   0.99757903    -5.034759      1728000    8041.5317       204150         2791 
40840000    1.1014733   -4.9430547      1728000    8043.6865       204200         2791 
40850000    0.9554185   -4.8907162      1728000    8045.7185       204250         2791 
40860000   0.98804052   -4.9629357      1728000    8047.8077       204300         2791 
40870000   0.99204995   -4.9126222      1728000    8049.8326       204350         2791 
40880000    0.9662938    -4.898318      1728000    8051.9155       204400         2791 
40890000   0.96125911   -4.8657227      1728000    8053.9644       204450         2791 
40900000    1.1014162   -4.8074983      1728000    8056.0054       204500         2791 
40910000   0.97918667   -4.8512148      1728000    8058.0253       204550         2791 
40920000    1.0304258   -4.8932771      1728000    8060.0592       204600         2791 
40930000   0.92268814   -4.9192497      1728000    8062.0941       204650         2792 
40940000     1.010389   -4.8697853      1728000    8064.1331       204700         2792 
40950000   0.99413008    -5.030274      1728000     8066.166       204750         2792 
40960000   0.93711124   -4.8877968      1728000    8068.1959       204800         2793 
40970000    1.0241322   -4.8915504      1728000    8070.2538       204850         2793 
40980000   0.96876197   -5.0149265      1728000    8072.3489       204900         2793 
40990000    1.0311951   -4.9805863      1728000     8074.431       204950         2793 
41000000   0.96858848   -4.9572067      1728000    8076.5438       205000         2793 
41010000    1.0056367   -4.9431955      1728000    8078.6087       205050         2793 
41020000    1.0364198   -4.8934146      1728000    8080.6845       205100         2793 
41030000   0.98052111   -4.7969276      1728000    8082.7795       205150         2794 
41040000    0.9257923     -4.90198      1728000    8084.8396       205200         2794 
41050000    1.0401834   -4.8574402      1728000    8086.9705       205250         2794 
41060000   0.98841799   -4.9896536      1728000    8089.0843       205300         2794 
41070000    1.0383945   -4.9323875      1728000    8091.1891       205350         2794 
41080000    1.0054302   -4.8984588      1728000     8093.253       205400         2794 
41090000   0.97378686   -4.9176909      1728000    8095.3662       205450         2794 
41100000   0.96323553   -4.8745665      1728000    8097.4711       205500         2794 
41110000    1.0169409   -4.8709754      1728000    8099.5359       205550         2794 
41120000   0.98654285   -4.8749067      1728000    8101.6258       205600         2794 
41130000    0.9324328   -4.8484829      1728000    8103.7117       205650         2794 
41140000    1.0338957   -4.8933964      1728000    8105.7669       205700         2794 
41150000    1.0468278   -4.9725556      1728000    8107.8572       205750         2794 
41160000   0.99074163   -5.0276194      1728000    8109.8854       205800         2794 
41170000    1.0217623   -4.9348561      1728000    8111.9173       205850         2794 
41180000    1.0176317   -4.8651592      1728000    8113.9153       205900         2794 
41190000    1.0206935   -4.9109747      1728000    8115.9262       205950         2794 
41200000    1.0529533   -4.7798865      1728000    8117.9576       206000         2794 
41210000    1.0089844   -4.8911291      1728000    8119.9855       206050         2794 
41220000      1.01857   -4.9225123      1728000    8122.0206       206100         2794 
41230000   0.97649675   -4.9762715      1728000    8124.0406       206150         2796 
41240000    1.0181012   -4.8479802      1728000    8126.0835       206200         2796 
41250000    1.0387338   -4.9052023      1728000    8128.1535       206250         2796 
41260000   0.93393253   -4.8596923      1728000    8130.1977       206300         2796 
41270000    1.0449655    -4.902071      1728000     8132.231       206350         2796 
41280000    0.9975089   -4.8623549      1728000     8134.325       206400         2796 
41290000   0.93609973   -4.8550591      1728000    8136.3819       206450         2796 
41300000    1.0869204   -4.9254832      1728000    8138.4608       206500         2796 
41310000     1.015296    -4.879174      1728000    8140.5217       206550         2796 
41320000   0.97847623   -4.9480678      1728000    8142.6245       206600         2796 
41330000    1.0067266   -4.8389342      1728000    8144.7054       206650         2796 
41340000    1.0171087   -4.8390678      1728000    8146.7575       206700         2796 
41350000   0.99089945   -5.0101264      1728000    8148.8704       206750         2796 
41360000   0.97605426   -4.9370197      1728000    8150.9433       206800         2796 
41370000     1.020516   -4.8933099      1728000    8153.0181       206850         2796 
41380000    1.0280624   -4.9372484      1728000     8155.069       206900         2796 
41390000   0.98438164   -4.8873213      1728000    8157.1302       206950         2796 
41400000   0.98248226   -4.8954735      1728000     8159.246       207000         2796 
41410000    1.0572836   -5.0296367      1728000    8161.3201       207050         2796 
41420000    1.0349979   -4.8476035      1728000    8163.3413       207100         2796 
41430000   0.99316016   -4.8950013      1728000    8165.3914       207150         2796 
41440000   0.99842447    -4.962101      1728000    8167.4733       207200         2796 
41450000     1.035466   -4.8774143      1728000    8169.5684       207250         2796 
41460000   0.98372222   -4.9089952      1728000    8171.7052       207300         2796 
41470000   0.94419471   -4.9655793      1728000     8173.838       207350         2796 
41480000    1.0226652    -4.930546      1728000    8175.9631       207400         2796 
41490000    1.0223507   -4.8038943      1728000    8178.0559       207450         2796 
41500000    1.0701305   -4.9094973      1728000    8180.1458       207500         2796 
41510000   0.97167581   -4.8662917      1728000    8182.1777       207550         2796 
41520000   0.99333713   -4.9880561      1728000    8184.2186       207600         2796 
41530000   0.96342729   -4.9768379      1728000    8186.2407       207650         2796 
41540000   0.95936293   -4.9464427      1728000    8188.2826       207700         2796 
41550000    1.0274507   -4.9177111      1728000    8190.3645       207750         2796 
41560000   0.99956556   -4.9638176      1728000    8193.1387       207800         2796 
41570000   0.99717343    -4.888176      1728000    8195.1429       207850         2796 
41580000   0.99935011   -4.9054329      1728000    8197.1648       207900         2797 
41590000    1.0361724   -4.9698012      1728000    8199.1688       207950         2797 
41600000   0.94883771    -4.901153      1728000    8201.1517       208000         2797 
41610000    1.0131544   -4.7500875      1728000    8203.2157       208050         2797 
41620000    1.0259046   -4.9837942      1728000    8205.2526       208100         2797 
41630000    1.0469191   -4.8974997      1728000    8207.2565       208150         2797 
41640000   0.92601547   -5.0660502      1728000    8209.2707       208200         2798 
41650000    1.0107425   -4.9773952      1728000    8211.2707       208250         2800 
41660000   0.98428317   -4.9762355      1728000    8213.2696       208300         2800 
41670000   0.99571193   -5.0244963      1728000    8215.2666       208350         2800 
41680000    1.0006989   -5.0050758      1728000    8217.2458       208400         2800 
41690000    1.0050658   -4.7802397      1728000    8219.2857       208450         2800 
41700000    1.0351978   -4.8515195      1728000    8221.3306       208500         2800 
41710000    1.0708347   -4.9037436      1728000    8223.3705       208550         2801 
41720000   0.97383649   -4.8469396      1728000    8225.3836       208600         2801 
41730000    1.0007161   -4.9876575      1728000    8227.3972       208650         2801 
41740000    1.0500935   -4.9302425      1728000    8229.3855       208700         2801 
41750000    1.0418439   -4.8501427      1728000    8231.4134       208750         2801 
41760000    1.0326429   -4.9328064      1728000    8233.5293       208800         2801 
41770000     1.050669   -5.0636888      1728000    8235.5862       208850         2801 
41780000    1.0204784   -4.9296332      1728000    8237.6815       208900         2801 
41790000    1.0252802   -4.9478327      1728000    8239.8293       208950         2801 
41800000    1.0239908   -4.8012502      1728000    8241.9246       209000         2801 
41810000    1.0026612   -4.8998724      1728000     8243.996       209050         2801 
41820000   0.99642306   -4.7514378      1728000    8246.0699       209100         2801 
41830000    1.0294317    -4.971945      1728000    8248.1527       209150         2801 
41840000    1.0117925    -4.846293      1728000    8250.2406       209200         2801 
41850000   0.97420488   -4.8053497      1728000    8252.3234       209250         2801 
41860000    1.0471071   -4.8883914      1728000    8254.4244       209300         2801 
41870000    1.0177393   -4.9327515      1728000    8256.4873       209350         2801 
41880000    1.0533745   -4.7020233      1728000    8258.5961       209400         2802 
41890000    1.0431843   -4.8633319      1728000    8260.6919       209450         2802 
41900000    1.0160606   -4.8506829      1728000     8262.802       209500         2802 
41910000    1.0492499   -4.9631893      1728000    8264.8999       209550         2802 
41920000    1.0360347   -4.9502749      1728000    8266.9587       209600         2802 
41930000   0.98713184     -4.65817      1728000    8269.0566       209650         2802 
41940000    1.0460777   -4.9114699      1728000    8271.2144       209700         2802 
41950000    1.0568446   -4.8740315      1728000    8273.3545       209750         2802 
41960000   0.99585923   -5.0576936      1728000    8275.4283       209800         2802 
41970000   0.99582858   -4.9754543      1728000    8277.4944       209850         2802 
41980000   0.95000903   -4.8035238      1728000    8279.5983       209900         2802 
41990000    1.0205567   -4.8262792      1728000    8281.7131       209950         2803 
42000000    1.0364088   -4.7160991      1728000     8283.801       210000         2803 
42010000   0.98775895   -4.8990861      1728000    8285.8939       210050         2803 
42020000    1.0335056    -4.887765      1728000    8287.9688       210100         2803 
42030000    1.0520415   -4.8785991      1728000     8290.031       210150         2805 
42040000   0.98089395   -4.8108741      1728000     8292.161       210200         2805 
42050000    1.0412797   -4.8145669      1728000    8294.2559       210250         2806 
42060000    1.0245263   -4.9215582      1728000    8296.3347       210300         2806 
42070000   0.96373992    -4.787274      1728000    8298.4228       210350         2807 
42080000    1.0133444   -4.8364128      1728000    8300.5232       210400         2808 
42090000     1.011741   -4.7967527      1728000     8302.663       210450         2808 
42100000   0.94698522   -4.9087518      1728000    8304.7459       210500         2810 
42110000   0.97211258   -4.8100319      1728000    8306.8448       210550         2811 
42120000     1.037949   -4.7910752      1728000    8308.9636       210600         2812 
42130000   0.93582188   -4.8641211      1728000    8311.0278       210650         2812 
42140000   0.95510163   -4.8397756      1728000    8313.1076       210700         2812 
42150000    1.0436969   -4.8330355      1728000    8315.2225       210750         2812 
42160000    1.0204497   -4.8572103      1728000    8317.3126       210800         2812 
42170000    1.0022623   -4.8441017      1728000    8319.3726       210850         2813 
42180000    0.9886966   -4.7999317      1728000    8321.4477       210900         2815 
42190000   0.97681154   -4.8827959      1728000    8323.5788       210950         2815 
42200000    1.0207031   -4.8551323      1728000    8325.6657       211000         2815 
42210000   0.94776904   -4.8153451      1728000    8327.7825       211050         2817 
42220000    0.9849392   -4.8877499      1728000    8329.8524       211100         2818 
42230000    1.0056753   -4.7526322      1728000    8331.9043       211150         2818 
42240000   0.93086812   -4.7708768      1728000    8333.9542       211200         2818 
42250000    1.0090718   -4.8335417      1728000    8336.0421       211250         2819 
42260000     1.044219   -4.7623847      1728000    8338.1289       211300         2820 
42270000     1.031629   -4.8014079      1728000    8340.2188       211350         2821 
42280000     1.012631   -4.9579414      1728000      8342.36       211400         2823 
42290000    1.0816133   -4.9716243      1728000    8344.5218       211450         2824 
42300000    1.0007619   -4.7132639      1728000    8346.6286       211500         2824 
42310000    1.0306575   -4.8074194      1728000    8348.7477       211550         2824 
42320000    1.0539266   -4.9682573      1728000    8350.8585       211600         2825 
42330000    1.0142244    -4.888503      1728000    8352.9905       211650         2825 
42340000    1.0276047   -4.8657307      1728000    8355.1014       211700         2825 
42350000    1.0198979   -4.8696648      1728000    8357.1795       211750         2825 
42360000   0.99715463   -4.8459394      1728000    8359.3223       211800         2825 
42370000    1.0059671   -4.7672856      1728000    8361.4095       211850         2826 
42380000     1.007055   -4.8646434      1728000    8363.5473       211900         2826 
42390000    1.0407535   -4.8288161      1728000    8365.6551       211950         2826 
42400000   0.98829608   -4.8554493      1728000    8367.8092       212000         2826 
42410000    1.0139609    -4.916358      1728000    8369.9261       212050         2826 
42420000    1.0423164   -4.8738207      1728000    8372.0332       212100         2826 
42430000   0.99158187   -4.9469982      1728000    8374.1061       212150         2826 
42440000   0.95362133   -4.8705264      1728000    8376.2059       212200         2826 
42450000     1.028953   -4.9547515      1728000    8378.3013       212250         2826 
42460000     1.005217    -4.867597      1728000    8380.3582       212300         2827 
42470000   0.98392297   -4.9543355      1728000    8382.4471       212350         2827 
42480000    1.0148471   -4.8599906      1728000    8384.5271       212400         2827 
42490000    1.0341191   -4.8563703      1728000     8386.548       212450         2827 
42500000    1.0652223   -4.7704159      1728000    8388.5961       212500         2827 
42510000    1.0295972   -4.9018831      1728000    8390.7023       212550         2827 
42520000    1.0375739   -4.8753739      1728000    8392.8322       212600         2827 
42530000   0.97965572   -4.8938821      1728000    8394.9203       212650         2827 
42540000    1.0074946   -4.8844536      1728000    8396.9991       212700         2827 
42550000    1.0189527   -4.9709981      1728000     8399.105       212750         2827 
42560000   0.99566891   -4.9053723      1728000    8401.2008       212800         2827 
42570000    1.0727533   -4.9820544      1728000    8403.2627       212850         2827 
42580000    1.0389851   -4.9708958      1728000    8405.3602       212900         2827 
42590000   0.97346397    -4.935929      1728000    8407.4928       212950         2827 
42600000   0.96080615   -4.9846264      1728000    8409.6027       213000         2827 
42610000   0.99482141   -4.8942193      1728000     8411.656       213050         2827 
42620000    1.0242332    -4.820482      1728000    8413.6303       213100         2827 
42630000   0.99167243   -4.8650309      1728000    8415.6588       213150         2827 
42640000   0.99094751   -4.8473491      1728000    8417.7382       213200         2827 
42650000      1.00235   -4.6296207      1728000    8419.8267       213250         2827 
42660000   0.96686045   -4.7916715      1728000    8421.8783       213300         2827 
42670000   0.99762832   -4.9325058      1728000    8423.9534       213350         2827 
42680000   0.96067358    -4.903856      1728000    8426.0412       213400         2827 
42690000    1.0174775   -4.9334437      1728000    8428.1221       213450         2828 
42700000    1.0312813   -4.9320439      1728000     8430.191       213500         2828 
42710000   0.98519085   -4.9398811      1728000    8432.2968       213550         2829 
42720000   0.98416738   -4.8852516      1728000    8434.7947       213600         2829 
42730000    1.0089441   -4.8786138      1728000    8436.8614       213650         2829 
42740000   0.99869154   -4.8861366      1728000    8438.8985       213700         2829 
42750000   0.97171573   -4.9117268      1728000    8440.9384       213750         2829 
42760000   0.94535459    -4.818806      1728000    8443.5756       213800         2829 
42770000    1.0609224   -4.9083267      1728000    8446.0441       213850         2829 
42780000    1.0202774   -4.8016602      1728000    8448.0751       213900         2829 
42790000   0.93309391   -4.9337598      1728000     8450.142       213950         2829 
42800000   0.97567885   -5.0245098      1728000    8452.2289       214000         2829 
42810000   0.95666682   -4.8925245      1728000    8454.2906       214050         2829 
42820000    1.0097395   -4.9535591      1728000     8456.306       214100         2829 
42830000   0.97710221   -4.8920649      1728000    8458.3584       214150         2829 
42840000     0.988052   -4.9154017      1728000    8460.4183       214200         2829 
42850000     1.055614   -4.8798016      1728000    8462.5023       214250         2829 
42860000   0.92800908   -4.8844404      1728000    8464.5943       214300         2829 
42870000    1.0224531   -4.8668066      1728000     8466.674       214350         2830 
42880000   0.95376899   -4.9283362      1728000    8468.7085       214400         2830 
42890000   0.96226866   -4.8788099      1728000    8470.8826       214450         2830 
42900000    1.0219996    -4.981818      1728000    8473.0173       214500         2830 
42910000   0.98315662   -4.9143793      1728000    8475.0723       214550         2830 
42920000    1.0552494   -4.9029592      1728000    8477.0834       214600         2830 
42930000   0.95220541   -4.8685624      1728000    8479.1106       214650         2831 
42940000   0.98483162   -4.9735797      1728000    8481.1645       214700         2831 
42950000    1.0196286    -4.906974      1728000    8483.2291       214750         2831 
42960000    1.0298879   -4.9045524      1728000    8485.2766       214800         2831 
42970000    1.0475919   -4.7582352      1728000    8487.3191       214850         2831 
42980000    1.0532003   -4.8245546      1728000    8489.3531       214900         2832 
42990000    0.9788011   -4.9325401      1728000    8491.3871       214950         2833 
43000000    1.0199658   -4.8037756      1728000    8493.4585       215000         2833 
43010000    1.0000404   -4.7470543      1728000    8495.5018       215050         2834 
43020000   0.98406759   -4.8918217      1728000      8497.56       215100         2836 
43030000    1.0152227   -4.8584295      1728000    8499.6122       215150         2837 
43040000    1.0946072   -4.7173738      1728000    8501.6776       215200         2837 
43050000    1.0600265   -4.8356342      1728000    8503.7764       215250         2840 
43060000     1.011503   -4.8487814      1728000    8505.8513       215300         2840 
43070000    1.0411033   -4.8910117      1728000    8507.8932       215350         2840 
43080000    1.0842234   -4.8385018      1728000    8509.9652       215400         2840 
43090000    0.9788603   -4.8491011      1728000    8512.0273       215450         2840 
43100000    1.0809976   -4.7736128      1728000    8514.0773       215500         2840 
43110000    1.0263062   -4.9246377      1728000     8516.092       215550         2842 
43120000    1.0492738   -4.9114085      1728000     8518.139       215600         2842 
43130000     1.024277   -4.6957817      1728000    8520.1551       215650         2842 
43140000    1.0354403    -4.944256      1728000    8522.2261       215700         2842 
43150000     1.038011   -4.8747053      1728000     8524.325       215750         2842 
43160000   0.98907829   -4.7020739      1728000    8526.3742       215800         2842 
43170000    1.0054293   -4.9608983      1728000    8528.4434       215850         2843 
43180000    1.0194451   -4.8853772      1728000    8530.4973       215900         2843 
43190000   0.93902451   -4.8433656      1728000    8532.5149       215950         2843 
43200000   0.96326382   -4.8156614      1728000    8534.5072       216000         2843 
43210000    1.0135864   -4.8350815      1728000    8536.5241       216050         2844 
43220000    1.0362065   -4.8781565      1728000    8538.6116       216100         2844 
43230000   0.96928895   -4.9096937      1728000    8540.6275       216150         2844 
43240000   0.96082418    -4.827405      1728000    8542.6618       216200         2844 
43250000    1.0273318   -4.6677949      1728000    8544.6588       216250         2845 
43260000   0.97101701   -4.8464654      1728000     8546.676       216300         2846 
43270000    1.0478783   -4.9375378      1728000    8548.8636       216350         2846 
43280000    0.9837245   -4.8711875      1728000    8551.0725       216400         2846 
43290000   0.99394765   -4.8564468      1728000    8553.2815       216450         2846 
43300000    1.0104895   -4.9589948      1728000    8555.3358       216500         2846 
43310000    1.0323305   -4.8158717      1728000    8557.3726       216550         2848 
43320000   0.98458326    -4.853719      1728000    8559.4216       216600         2848 
43330000   0.98384378   -4.8906667      1728000    8561.4476       216650         2848 
43340000   0.95149402   -4.8898298      1728000    8563.4631       216700         2848 
43350000    1.0336687   -4.8631726      1728000    8565.4817       216750         2848 
43360000    1.0358695   -4.8528554      1728000    8567.5626       216800         2849 
43370000    1.0322728   -4.8857416      1728000    8569.6166       216850         2850 
43380000   0.95840003   -4.7891637      1728000      8571.68       216900         2850 
43390000    0.9902071   -4.9226951      1728000     8573.717       216950         2851 
43400000    1.0513601   -4.8231627      1728000    8575.8241       217000         2851 
43410000   0.94344375   -4.8891088      1728000    8577.9221       217050         2851 
43420000   0.90648189   -4.9265213      1728000    8580.0281       217100         2852 
43430000   0.98399351   -4.9137587      1728000     8582.122       217150         2852 
43440000    1.0130598   -4.9673392      1728000    8584.2499       217200         2852 
43450000    1.0646083   -4.8036807      1728000    8586.3428       217250         2852 
43460000   0.92240244   -4.8759743      1728000    8588.4509       217300         2852 
43470000   0.96503412   -4.9621996      1728000      8590.53       217350         2852 
43480000    1.0563358   -4.8520379      1728000    8592.6459       217400         2852 
43490000   0.96215748   -4.8143393      1728000    8594.7917       217450         2852 
43500000    1.0002227   -4.7737909      1728000    8596.8648       217500         2852 
43510000    1.0105775   -4.8059787      1728000    8599.5082       217550         2852 
43520000   0.95839136   -4.8750845      1728000    8601.5914       217600         2852 
43530000   0.97640576   -4.8465128      1728000    8603.6871       217650         2852 
43540000   0.99109191   -4.8185822      1728000    8605.7806       217700         2853 
43550000   0.99934598   -4.7865233      1728000    8607.8879       217750         2853 
43560000    1.0024308   -4.9712054      1728000    8610.0179       217800         2853 
43570000   0.98356574   -5.0301577      1728000    8612.1185       217850         2853 
43580000   0.98828903   -4.8639678      1728000    8614.2329       217900         2853 
43590000    1.0139865   -4.7818706      1728000    8616.3339       217950         2853 
43600000    1.0067019   -4.8844334      1728000    8618.4466       218000         2854 
43610000    1.0616141   -4.7889142      1728000     8620.539       218050         2854 
43620000   0.95245572   -4.8784226      1728000    8622.6218       218100         2854 
43630000     1.024103   -4.9069035      1728000    8624.7187       218150         2854 
43640000   0.91410878   -4.8337942      1728000    8626.8426       218200         2854 
43650000   0.95638668   -4.9124549      1728000     8628.972       218250         2854 
43660000   0.97584455   -4.9395553      1728000    8631.0876       218300         2855 
43670000    1.0490294   -4.9205607      1728000    8633.1731       218350         2855 
43680000   0.98642196   -4.8624634      1728000    8635.3078       218400         2855 
43690000   0.94669827    -5.073127      1728000    8637.4002       218450         2855 
43700000   0.96140025   -4.8816889      1728000    8639.5137       218500         2855 
43710000    1.0282091   -4.9439394      1728000    8641.6309       218550         2855 
43720000   0.97597204   -5.0253623      1728000    8643.6922       218600         2855 
43730000   0.99651479   -4.8625301      1728000    8645.8809       218650         2855 
43740000    1.0117014   -5.0734068      1728000    8647.9796       218700         2855 
43750000      1.01608   -4.9340152      1728000     8650.069       218750         2855 
43760000    1.0978171   -4.9319981      1728000    8652.1933       218800         2855 
43770000    1.0245449   -5.0766565      1728000    8654.3076       218850         2855 
43780000   0.93837206   -4.8768289      1728000    8656.3667       218900         2855 
43790000   0.97322411   -4.7875403      1728000    8658.4973       218950         2855 
43800000   0.99219467    -4.860729      1728000    8660.5929       219000         2855 
43810000    1.0084088   -4.8679766      1728000    8662.6981       219050         2855 
43820000    1.0020675   -4.9578428      1728000    8664.7597       219100         2855 
43830000   0.99087522   -5.0154208      1728000    8666.8853       219150         2855 
43840000      1.01189   -4.8851491      1728000    8668.9836       219200         2855 
43850000    1.0359617   -4.8198492      1728000    8671.0955       219250         2855 
43860000   0.97563205    -4.924825      1728000    8673.1723       219300         2855 
43870000    1.0204922   -4.9687948      1728000    8675.2549       219350         2855 
43880000   0.96279951    -4.858636      1728000    8677.3503       219400         2855 
43890000    1.0247728   -5.0225787      1728000    8679.4467       219450         2855 
43900000   0.99055892   -4.8705502      1728000    8681.5486       219500         2855 
43910000   0.94684729   -4.9481244      1728000    8683.6828       219550         2855 
43920000   0.99372682   -4.6430599      1728000    8685.7605       219600         2856 
43930000    1.0147803   -4.8340133      1728000     8687.807       219650         2857 
43940000    1.0393226   -4.8811439      1728000    8689.9081       219700         2857 
43950000    1.0535573   -4.9560272      1728000    8691.9876       219750         2857 
43960000    1.0327881   -4.8036813      1728000    8694.1154       219800         2857 
43970000   0.99027684   -4.8914518      1728000    8696.1871       219850         2857 
43980000    1.0211247   -4.7806684      1728000    8698.2839       219900         2857 
43990000    1.0267044    -4.954488      1728000    8700.3857       219950         2857 
44000000    1.0073901   -4.8369736      1728000     8702.511       220000         2857 
44010000    1.0544139   -4.9106798      1728000    8704.6284       220050         2857 
44020000    1.0021638   -4.9433757      1728000    8706.6719       220100         2857 
44030000    1.0207012   -4.8972909      1728000    8708.7351       220150         2857 
44040000    1.0681628   -4.8077367      1728000    8710.7687       220200         2857 
44050000    1.0320824   -5.0054335      1728000    8712.8359       220250         2857 
44060000    1.0040065   -4.7894805      1728000    8714.9152       220300         2858 
44070000    1.0419013   -4.9222691      1728000    8717.0018       220350         2858 
44080000   0.98429051    -4.939965      1728000    8719.0634       220400         2858 
44090000    1.0131159   -4.8316993      1728000    8721.1305       220450         2858 
44100000   0.94010211    -4.888101      1728000    8723.1872       220500         2858 
44110000    0.9942022   -4.8671305      1728000    8725.2169       220550         2858 
44120000     0.970658   -4.9793723      1728000    8727.2426       220600         2858 
44130000    1.0230506   -4.8885896      1728000    8729.2474       220650         2858 
44140000   0.93077105   -4.9103539      1728000     8731.281       220700         2859 
44150000    0.9577542   -4.8904667      1728000    8733.2814       220750         2859 
44160000   0.99156829   -4.8518533      1728000    8735.3289       220800         2859 
44170000   0.95561316    -4.828962      1728000    8737.4126       220850         2859 
44180000    1.0097932     -4.96892      1728000    8739.5213       220900         2859 
44190000   0.98963959    -4.981914      1728000     8741.578       220950         2859 
44200000   0.94372368   -4.9182327      1728000    8743.6308       221000         2859 
44210000    1.0241116    -4.675098      1728000    8745.6313       221050         2860 
44220000   0.98264569   -4.9012726      1728000    8747.6695       221100         2861 
44230000    1.0297853   -4.9126093      1728000    8749.7472       221150         2861 
44240000   0.92322696   -4.8802947      1728000    8751.7964       221200         2861 
44250000   0.97649879   -4.9821481      1728000    8753.8381       221250         2861 
44260000    1.0219545   -4.8944471      1728000    8755.8582       221300         2861 
44270000    1.0219434   -4.7997899      1728000    8757.9159       221350         2863 
44280000   0.99135468   -4.7589148      1728000    8759.9557       221400         2863 
44290000    1.0487546    -4.746039      1728000    8761.9758       221450         2863 
44300000   0.98692848    -4.811778      1728000    8764.0457       221500         2864 
44310000    0.9916509    -4.945974      1728000    8766.1036       221550         2865 
44320000    0.9618741   -4.8435739      1728000    8768.1736       221600         2865 
44330000    1.0708196    -4.929907      1728000    8770.1762       221650         2865 
44340000    1.0237545   -4.8472461      1728000    8772.2188       221700         2865 
44350000    1.0133864   -4.9009769      1728000    8774.2669       221750         2866 
44360000     1.008032   -4.8676907      1728000    8776.3039       221800         2866 
44370000   0.94304591   -4.9105881      1728000    8778.3245       221850         2867 
44380000   0.99510645   -4.9320917      1728000    8780.4024       221900         2867 
44390000    1.0177315   -4.7513405      1728000    8782.4727       221950         2867 
44400000    1.0392233   -4.6729397      1728000    8784.5799       222000         2867 
44410000    1.0044213   -4.8294032      1728000    8786.6429       222050         2868 
44420000    1.0157351   -4.8667984      1728000    8788.7073       222100         2868 
44430000     1.026376   -4.7176278      1728000    8790.8052       222150         2869 
44440000   0.99985428   -4.8982824      1728000    8792.8837       222200         2869 
44450000   0.94068925   -4.7331241      1728000    8794.8909       222250         2869 
44460000   0.98425506   -4.9445537      1728000    8796.9207       222300         2869 
44470000    1.0395566   -4.8500014      1728000    8798.9637       222350         2869 
44480000    1.0199894   -4.8486255      1728000    8800.9787       222400         2869 
44490000    1.0014866   -4.9496423      1728000     8802.974       222450         2869 
44500000    1.0376537   -4.9647019      1728000     8805.098       222500         2869 
44510000    1.0162127   -4.9113801      1728000     8807.152       222550         2869 
44520000    1.0796645   -4.8006086      1728000    8809.2449       222600         2869 
44530000   0.99157285   -4.8644128      1728000    8811.3184       222650         2870 
44540000    1.0105863   -4.9311832      1728000    8813.3831       222700         2870 
44550000    1.0156043   -4.8368361      1728000    8815.4463       222750         2870 
44560000    1.0346111   -4.8353488      1728000    8817.5237       222800         2870 
44570000    1.0309437   -4.7501876      1728000    8819.5453       222850         2872 
44580000   0.98696674    -4.937112      1728000    8821.5508       222900         2872 
44590000    1.0452362   -4.8809073      1728000    8823.5623       222950         2872 
44600000   0.98715354   -4.9323346      1728000    8825.5513       223000         2872 
44610000    1.0823758   -4.8699561      1728000    8827.5941       223050         2873 
44620000    1.0303943   -4.8478508      1728000    8829.6331       223100         2873 
44630000     1.006874   -4.8411234      1728000    8831.6817       223150         2873 
44640000    1.0655473   -4.8832214      1728000    8834.3513       223200         2874 
44650000   0.95652729   -5.0127495      1728000    8836.3672       223250         2874 
44660000    1.0627726   -4.9224998      1728000    8838.4221       223300         2875 
44670000   0.97488082   -4.8490607      1728000    8840.4161       223350         2876 
44680000    1.0764464   -4.8790761      1728000    8842.4462       223400         2876 
44690000    1.0085681   -4.8382543      1728000    8844.4611       223450         2876 
44700000   0.95544018   -4.8629883      1728000    8846.4891       223500         2876 
44710000   0.99132412   -4.9169679      1728000     8848.504       223550         2877 
44720000   0.99128624     -4.83529      1728000    8850.5359       223600         2878 
44730000    1.0356673   -4.8389561      1728000    8852.5505       223650         2878 
44740000   0.99036931   -4.9309769      1728000    8854.5776       223700         2879 
44750000    1.0219416   -4.8318901      1728000    8856.5936       223750         2879 
44760000    1.0166749   -4.9787772      1728000    8858.6115       223800         2879 
44770000   0.97726805   -4.8082274      1728000    8860.6844       223850         2879 
44780000   0.98797497   -4.8580119      1728000    8862.7304       223900         2879 
44790000   0.99893515   -4.8429906      1728000    8864.7412       223950         2879 
44800000   0.98500467   -4.8915339      1728000    8866.7634       224000         2879 
44810000    1.0351486   -4.9850085      1728000    8868.7863       224050         2881 
44820000    1.0385463   -4.9103819      1728000    8870.8032       224100         2881 
44830000   0.95669131   -4.9146392      1728000    8872.8591       224150         2881 
44840000   0.98359567   -5.0232201      1728000    8874.9163       224200         2881 
44850000   0.93233812   -4.9030031      1728000    8876.9282       224250         2881 
44860000   0.98400592   -4.8772152      1728000    8878.9554       224300         2881 
44870000   0.98397699   -4.9978008      1728000    8881.0033       224350         2881 
44880000   0.98277799   -4.8946158      1728000    8883.0224       224400         2881 
44890000   0.96265189   -4.8727015      1728000    8885.0853       224450         2881 
44900000    1.0283191   -4.8790866      1728000    8887.1432       224500         2881 
44910000   0.95660551   -4.8756032      1728000    8889.1934       224550         2881 
44920000   0.97148229   -4.8877768      1728000    8891.2878       224600         2881 
44930000     1.076796   -4.8548538      1728000    8893.3437       224650         2881 
44940000   0.95868864   -4.8575469      1728000    8895.3769       224700         2881 
44950000   0.98043364   -4.8357053      1728000    8897.3688       224750         2882 
44960000   0.92099777   -4.9461795      1728000     8899.387       224800         2882 
44970000    1.0303401   -4.9334388      1728000    8901.3869       224850         2882 
44980000    1.0474785   -4.8452931      1728000    8903.4321       224900         2882 
44990000   0.99598259   -4.9824879      1728000    8905.4701       224950         2882 
45000000   0.98060063   -5.0103723      1728000    8907.4935       225000         2882 
45010000    1.1156515   -4.9423477      1728000    8909.5154       225050         2882 
45020000   0.95297655   -4.6889136      1728000    8911.5451       225100         2882 
45030000   0.98762088   -4.9013011      1728000    8913.5833       225150         2883 
45040000    1.0560541   -4.9533933      1728000    8915.5924       225200         2883 
45050000    1.0342858   -4.8989689      1728000    8917.6713       225250         2884 
45060000   0.97024377   -4.7886145      1728000    8919.7264       225300         2884 
45070000    0.9844501   -4.8993418      1728000    8921.7833       225350         2884 
45080000   0.97674237   -4.8719107      1728000    8923.8257       225400         2884 
45090000    1.0218553   -4.8501439      1728000    8925.8277       225450         2885 
45100000    1.0685848   -4.9128234      1728000    8927.8802       225500         2885 
45110000    0.9954689   -4.8072727      1728000    8929.9172       225550         2886 
45120000    1.0084106   -4.9692682      1728000    8931.9511       225600         2886 
45130000   0.99855856   -5.0178359      1728000    8934.0829       225650         2886 
45140000    1.0125157   -4.8042421      1728000     8936.157       225700         2887 
45150000    1.0066044   -4.8491261      1728000    8938.2718       225750         2887 
45160000    1.0063795   -4.7345257      1728000    8940.2855       225800         2887 
45170000    1.0193882   -4.8059009      1728000    8942.3276       225850         2887 
45180000   0.99399413   -4.8872583      1728000    8944.3328       225900         2887 
45190000    1.0545712    -4.899463      1728000    8946.4629       225950         2887 
45200000    1.0115937   -4.8238301      1728000    8948.5338       226000         2889 
45210000    1.0077215    -4.907947      1728000     8950.594       226050         2889 
45220000   0.94967497   -4.8759835      1728000    8952.6933       226100         2889 
45230000   0.98338404   -4.8581004      1728000    8954.7536       226150         2889 
45240000   0.95893379   -4.8156116      1728000    8956.7816       226200         2890 
45250000   0.98598663   -4.9485774      1728000    8958.8081       226250         2890 
45260000    0.9874878   -4.8947005      1728000    8960.8542       226300         2892 
45270000   0.99923995   -4.9083241      1728000    8962.9095       226350         2892 
45280000    1.0595335   -4.8291952      1728000    8964.9679       226400         2893 
45290000     1.063738   -4.9092799      1728000    8967.0797       226450         2893 
45300000   0.97868875   -4.8418861      1728000    8969.1328       226500         2893 
45310000   0.97478681   -4.6897836      1728000    8971.1508       226550         2893 
45320000   0.98985675   -4.9299004      1728000    8973.2317       226600         2893 
45330000   0.99721272   -4.8546639      1728000    8975.2732       226650         2893 
45340000    1.0140548   -4.9399321      1728000    8977.2978       226700         2894 
45350000    1.0055636   -4.8367884      1728000    8979.3259       226750         2894 
45360000   0.97857207   -4.9366412      1728000     8981.423       226800         2894 
45370000    1.0762381   -4.8300783      1728000    8983.5131       226850         2894 
45380000   0.92268296   -4.8358127      1728000    8986.0627       226900         2894 
45390000    1.0165232   -4.9402145      1728000    8988.1506       226950         2895 
45400000   0.98824723   -4.9369225      1728000    8990.2349       227000         2895 
45410000   0.95182464   -4.9964816      1728000    8992.2871       227050         2896 
45420000   0.92221099   -4.9316204      1728000    8994.3771       227100         2896 
45430000    1.0249444   -4.8775346      1728000     8996.468       227150         2896 
45440000    1.0497941   -4.9537946      1728000    8998.5631       227200         2897 
45450000    1.0180766   -4.8170298      1728000    9000.6412       227250         2897 
45460000    1.0008866   -4.8292266      1728000    9002.7382       227300         2897 
45470000   0.98725453   -4.7778503      1728000    9004.8083       227350         2897 
45480000   0.89997616   -4.8150183      1728000    9006.8852       227400         2897 
45490000    1.0230056   -4.7766087      1728000    9008.9533       227450         2897 
45500000    1.0111026   -4.9141304      1728000    9011.0436       227500         2897 
45510000   0.98769336   -4.7945812      1728000    9013.1136       227550         2898 
45520000    1.0021176   -4.9302579      1728000    9015.2336       227600         2898 
45530000    1.0226123   -4.9640924      1728000    9017.3154       227650         2898 
45540000    1.0528526   -4.8489248      1728000    9019.4173       227700         2899 
45550000    1.0001163   -5.0421744      1728000    9021.5203       227750         2899 
45560000    1.0642128   -4.8987428      1728000    9023.6371       227800         2899 
45570000    1.0000571   -4.8058992      1728000    9025.7122       227850         2899 
45580000    1.0611816   -4.8508376      1728000    9027.7986       227900         2899 
45590000    1.0654142   -4.9051993      1728000    9029.9335       227950         2899 
45600000   0.98103623   -4.8219314      1728000    9032.0585       228000         2900 
45610000   0.98472978   -4.7873025      1728000    9034.1764       228050         2900 
45620000    1.0357726   -4.9366248      1728000    9036.2662       228100         2900 
45630000   0.99014595   -4.8097749      1728000    9038.3181       228150         2900 
45640000   0.97347948   -4.9242425      1728000    9040.4629       228200         2900 
45650000    1.0391834   -4.9471902      1728000    9042.6007       228250         2900 
45660000   0.95099687    -4.864222      1728000    9044.7257       228300         2901 
45670000    1.0785123    -4.958005      1728000    9046.8096       228350         2901 
45680000   0.96719098   -4.8699442      1728000    9048.9276       228400         2901 
45690000    1.0445402   -4.9202262      1728000    9051.0274       228450         2901 
45700000   0.97204282   -4.9068353      1728000    9053.1914       228500         2901 
45710000    1.0306006   -5.0064481      1728000    9055.3132       228550         2901 
45720000    1.0002869   -4.8360455      1728000    9057.4336       228600         2901 
45730000   0.97684213   -4.9484981      1728000    9059.5684       228650         2901 
45740000   0.96113832   -4.9486958      1728000    9061.7015       228700         2901 
45750000      1.04678   -4.8270636      1728000    9063.8056       228750         2901 
45760000   0.96874083   -4.8359901      1728000    9065.9154       228800         2901 
45770000   0.94474085   -4.8919529      1728000    9068.0732       228850         2901 
45780000     1.081296   -4.8063154      1728000    9070.1471       228900         2901 
45790000   0.97562462     -4.87803      1728000     9072.363       228950         2901 
45800000    1.0154017   -4.9668002      1728000     9074.559       229000         2901 
45810000    0.9932123   -4.9724585      1728000    9076.6861       229050         2901 
45820000   0.97461978   -4.8608114      1728000    9078.7974       229100         2901 
45830000    1.0402026   -4.8297115      1728000    9080.9317       229150         2901 
45840000    1.0073282   -5.0359074      1728000    9083.0327       229200         2901 
45850000    0.9948256   -4.9521537      1728000    9085.1226       229250         2901 
45860000   0.98662122   -4.9561776      1728000    9087.2047       229300         2901 
45870000   0.93872767   -4.9115525      1728000    9089.2646       229350         2901 
45880000   0.98396876   -4.9523483      1728000    9091.3585       229400         2902 
45890000    1.0018874   -4.8706516      1728000    9093.4315       229450         2902 
45900000   0.99458834   -4.7991528      1728000    9095.5575       229500         2902 
45910000    1.0044481   -4.8833988      1728000    9097.6384       229550         2902 
45920000   0.97743776   -4.9113989      1728000    9099.7688       229600         2902 
45930000    1.0064505   -4.8463321      1728000    9101.8502       229650         2902 
45940000   0.99174738   -4.8269501      1728000    9103.9431       229700         2902 
45950000   0.97179098    -4.886287      1728000    9106.0402       229750         2902 
45960000   0.98331227   -4.8884663      1728000    9108.1454       229800         2902 
45970000    1.0096416   -4.7479124      1728000    9110.2634       229850         2902 
45980000   0.94653427   -4.6677432      1728000     9112.371       229900         2902 
45990000    1.0802797   -4.8464642      1728000    9114.4619       229950         2902 
46000000    1.0173611   -4.9207648      1728000    9116.5899       230000         2902 
46010000   0.96074067   -4.9350504      1728000    9118.6598       230050         2902 
46020000    0.9532333   -4.9083288      1728000     9120.765       230100         2903 
46030000   0.98285999    -4.845078      1728000    9122.8346       230150         2903 
46040000    1.0363938   -5.0591411      1728000    9124.9459       230200         2903 
46050000    0.9812795   -4.9302971      1728000    9127.0218       230250         2903 
46060000    1.0120686   -4.8234244      1728000    9129.1156       230300         2903 
46070000   0.98099226   -4.8059561      1728000    9131.2381       230350         2903 
46080000    1.0026062   -4.9607586      1728000    9133.3449       230400         2903 
46090000    1.0320867   -4.9096304      1728000    9135.4061       230450         2903 
46100000   0.96776324    -4.945214      1728000    9137.5219       230500         2903 
46110000     1.044255   -4.9121298      1728000    9139.6209       230550         2903 
46120000    0.9316422   -4.8396589      1728000    9141.7837       230600         2903 
46130000   0.97813683   -4.9568432      1728000    9143.8599       230650         2903 
46140000   0.99724516   -4.8918542      1728000    9145.9004       230700         2903 
46150000    1.0438585   -5.0006598      1728000    9147.9972       230750         2903 
46160000   0.99493781   -4.8101174      1728000    9150.0661       230800         2903 
46170000    1.0129068   -4.9900186      1728000    9152.1517       230850         2903 
46180000    1.0635619   -4.9443328      1728000     9154.252       230900         2903 
46190000    1.0043922   -4.8210586      1728000    9156.3729       230950         2903 
46200000    1.0217451   -4.9832287      1728000    9158.4728       231000         2903 
46210000   0.97448221   -4.8179216      1728000    9160.5916       231050         2903 
46220000    1.0067192   -4.8975232      1728000    9162.6887       231100         2903 
46230000    1.0242708   -4.9886474      1728000    9164.7975       231150         2903 
46240000    1.0117562   -4.8441698      1728000    9166.8954       231200         2903 
46250000   0.97263949   -4.9512245      1728000    9168.9553       231250         2903 
46260000    1.0184087   -4.9337165      1728000    9171.0152       231300         2903 
46270000   0.96588434    -4.885906      1728000    9173.0481       231350         2903 
46280000    1.0197667   -4.9099703      1728000    9175.0843       231400         2903 
46290000   0.94668594   -4.8288286      1728000    9177.1226       231450         2903 
46300000   0.92994311   -4.8489241      1728000    9179.2121       231500         2903 
46310000   0.96213315   -4.8577722      1728000     9181.284       231550         2903 
46320000    1.0063482   -4.9438546      1728000    9183.3521       231600         2903 
46330000   0.94294544   -5.0004128      1728000     9185.377       231650         2903 
46340000    1.0417526   -4.9375322      1728000    9187.4379       231700         2903 
46350000    1.0045269   -5.0036169      1728000    9189.4609       231750         2903 
46360000   0.99435184   -4.8942854      1728000      9191.48       231800         2903 
46370000    1.0470953    -4.957913      1728000    9193.4829       231850         2903 
46380000    1.0152787   -5.0864618      1728000    9195.4894       231900         2903 
46390000    1.0065238   -4.8679563      1728000    9197.5104       231950         2903 
46400000    1.0268197   -4.9811638      1728000    9199.6152       232000         2903 
46410000   0.99752739   -4.9713881      1728000    9201.7301       232050         2903 
46420000   0.95931402   -4.9260797      1728000     9203.785       232100         2903 
46430000   0.98073956   -4.8563439      1728000    9205.8722       232150         2903 
46440000    1.0081406    -4.957388      1728000    9207.9821       232200         2904 
46450000   0.94152793   -4.7929924      1728000    9210.0702       232250         2904 
46460000    1.0303846   -4.9394508      1728000    9212.1804       232300         2904 
46470000   0.98826363    -4.959306      1728000    9214.3672       232350         2904 
46480000   0.96473635   -4.9401393      1728000     9216.485       232400         2904 
46490000     0.976538   -4.8819811      1728000    9218.6661       232450         2905 
46500000   0.98887256   -4.8961262      1728000    9220.6861       232500         2905 
46510000   0.91773404   -4.7447616      1728000    9222.7099       232550         2905 
46520000   0.93564645   -4.8899102      1728000    9224.7245       232600         2905 
46530000   0.94847898   -4.9066326      1728000    9226.7912       232650         2905 
46540000    1.0282413   -4.8165437      1728000    9228.8907       232700         2905 
46550000   0.96892186   -4.9639092      1728000    9230.9714       232750         2905 
46560000   0.99948801   -4.7751322      1728000    9233.0015       232800         2905 
46570000    1.0110245   -4.9422488      1728000    9235.0187       232850         2905 
46580000   0.93246782    -4.897089      1728000    9237.0771       232900         2905 
46590000    1.0009322   -4.9732286      1728000     9239.728       232950         2905 
46600000    1.0410376   -4.9248388      1728000    9241.7866       233000         2905 
46610000   0.98620939   -4.7826748      1728000    9243.8131       233050         2906 
46620000    1.0286466   -4.8142583      1728000     9245.896       233100         2906 
46630000    1.0231471   -4.9065216      1728000    9248.0442       233150         2906 
46640000   0.99595003    -4.898899      1728000    9250.1221       233200         2906 
46650000   0.99467825   -4.8627142      1728000     9252.211       233250         2906 
46660000    1.0355159   -4.7921606      1728000    9254.2539       233300         2906 
46670000    1.0122949   -4.8591675      1728000    9256.2893       233350         2907 
46680000    1.0115028   -4.9945221      1728000    9258.3462       233400         2907 
46690000   0.96269384   -4.8699492      1728000    9260.3622       233450         2907 
46700000    1.0278949    -4.787782      1728000    9262.4355       233500         2907 
46710000    1.0162752   -4.7967672      1728000    9264.5218       233550         2907 
46720000   0.95210095   -4.7318011      1728000    9266.6309       233600         2907 
46730000   0.97030935   -4.9611187      1728000     9268.724       233650         2907 
46740000   0.97138674   -4.8553223      1728000    9270.8245       233700         2908 
46750000    1.0473862   -4.8561918      1728000    9272.9023       233750         2908 
46760000   0.99267934   -4.8663779      1728000    9274.9622       233800         2908 
46770000    1.0048029   -4.7976638      1728000    9277.0405       233850         2908 
46780000   0.98336322   -4.8977487      1728000    9279.0684       233900         2908 
46790000   0.99442947   -4.8103352      1728000    9281.0534       233950         2908 
46800000    1.0107367    -4.821745      1728000    9283.0613       234000         2908 
46810000   0.98465218   -5.0470471      1728000    9285.0704       234050         2909 
46820000    1.0118136   -4.7883927      1728000    9287.0873       234100         2909 
46830000    1.0625296   -4.8359334      1728000    9289.0895       234150         2909 
46840000    1.0277447    -4.944666      1728000    9291.0935       234200         2911 
46850000    1.0472024   -4.8458276      1728000    9293.1104       234250         2911 
46860000   0.95598203   -4.8754769      1728000    9295.1073       234300         2911 
46870000    1.0529423   -4.9119667      1728000    9297.1465       234350         2911 
46880000    1.0185835   -4.9108645      1728000    9299.1545       234400         2911 
46890000   0.98613887   -4.9378884      1728000    9301.1454       234450         2912 
46900000    1.0257373   -4.9211135      1728000    9303.1554       234500         2912 
46910000   0.93617189   -4.9779753      1728000    9305.1533       234550         2912 
46920000    1.0433549    -4.990531      1728000    9307.1992       234600         2912 
46930000   0.97724561   -4.9894616      1728000    9309.2092       234650         2912 
46940000    1.0084762   -4.8641499      1728000    9311.2514       234700         2912 
46950000   0.98025188   -4.9662383      1728000    9313.3212       234750         2913 
46960000   0.93047011   -4.8264121      1728000    9315.3545       234800         2913 
46970000    1.0154888   -4.8593651      1728000     9317.476       234850         2913 
46980000    1.0203264   -4.9053973      1728000    9319.5521       234900         2913 
46990000    1.0290182   -4.8835137      1728000    9321.5959       234950         2914 
47000000    0.9744758   -4.7521823      1728000    9323.7085       235000         2914 
47010000    1.0275552   -4.9097233      1728000    9325.8475       235050         2914 
47020000   0.94206469   -4.8861453      1728000    9327.9835       235100         2914 
47030000    1.0218257   -4.8056016      1728000    9330.0613       235150         2914 
47040000    1.0580702     -5.00487      1728000    9332.1452       235200         2914 
47050000    1.0375654   -4.9181344      1728000    9334.1803       235250         2914 
47060000   0.98734082   -4.8481042      1728000    9336.3077       235300         2914 
47070000   0.95583932   -4.9015868      1728000     9338.313       235350         2914 
47080000    1.0648433   -4.8820223      1728000    9340.3919       235400         2915 
47090000   0.97374953   -4.9427404      1728000    9342.4578       235450         2915 
47100000    1.0195002   -4.8895363      1728000    9344.4957       235500         2916 
47110000    1.0592819   -4.9633818      1728000    9346.5257       235550         2917 
47120000    1.0535263   -4.9255372      1728000    9348.5401       235600         2918 
47130000   0.95222463   -4.9141629      1728000    9350.5272       235650         2919 
47140000     1.020596   -4.7697595      1728000    9352.5404       235700         2920 
47150000   0.96596837   -4.9683931      1728000    9354.5783       235750         2920 
47160000   0.95263512   -4.8566906      1728000    9356.5983       235800         2921 
47170000   0.94174555   -4.9089607      1728000    9358.6675       235850         2923 
47180000   0.99317989   -4.7539138      1728000    9360.7304       235900         2923 
47190000    1.0253916   -4.8060761      1728000    9362.7284       235950         2923 
47200000   0.95820561   -4.8897136      1728000    9364.7413       236000         2925 
47210000    1.0454189   -4.8541113      1728000    9366.7413       236050         2926 
47220000   0.93819705   -4.8952857      1728000    9368.8071       236100         2927 
47230000    1.0010806   -4.8071232      1728000    9370.8742       236150         2927 
47240000    1.0367674   -4.9672118      1728000    9372.9392       236200         2927 
47250000   0.94709242   -4.8805486      1728000    9374.9803       236250         2927 
47260000      1.06014   -4.8868815      1728000    9376.9894       236300         2927 
47270000   0.96620533   -4.8324413      1728000    9378.9964       236350         2927 
47280000    1.0408348   -4.8352783      1728000    9381.0003       236400         2928 
47290000    1.0782029   -4.8754325      1728000    9383.0043       236450         2928 
47300000    1.0238302   -4.8855693      1728000    9385.0224       236500         2928 
47310000    1.0284708   -4.8590469      1728000    9387.0438       236550         2929 
47320000    1.0644062   -4.7243244      1728000    9389.1269       236600         2930 
47330000    1.0057055   -4.8950962      1728000    9391.1445       236650         2931 
47340000   0.99420764   -4.7620121      1728000    9393.1974       236700         2931 
47350000   0.97556035   -4.8506359      1728000    9395.2327       236750         2933 
47360000   0.96588921   -4.9233543      1728000    9397.2958       236800         2933 
47370000   0.99398567   -4.8686601      1728000     9399.399       236850         2933 
47380000    1.0399252    -4.930021      1728000    9401.5232       236900         2933 
47390000   0.94259612   -4.8921368      1728000    9403.6103       236950         2934 
47400000    1.0330488   -4.7814626      1728000    9405.6716       237000         2934 
47410000   0.99035573   -4.9330109      1728000    9407.7175       237050         2934 
47420000    1.0076784   -4.9090718      1728000    9409.7796       237100         2934 
47430000     1.009695   -4.8047764      1728000     9411.784       237150         2934 
47440000   0.99036857   -4.8825397      1728000    9413.8119       237200         2934 
47450000    1.0019972    -4.949353      1728000    9415.8369       237250         2934 
47460000    1.0071957   -4.7815495      1728000    9417.8828       237300         2934 
47470000    0.9103699   -5.0118659      1728000    9419.9536       237350         2934 
47480000    1.0012348   -4.9850271      1728000    9422.0056       237400         2934 
47490000    1.0146583   -4.8524937      1728000    9424.0185       237450         2934 
47500000    1.0216872   -4.9713172      1728000    9426.0686       237500         2934 
47510000    1.0097738   -4.8644769      1728000    9428.0946       237550         2934 
47520000    1.0367594   -4.9120574      1728000     9430.102       237600         2934 
47530000    1.0399719   -4.7920648      1728000    9432.2078       237650         2935 
47540000    1.0104522   -4.9292191      1728000    9434.3039       237700         2935 
47550000   0.95000774   -4.8285836      1728000    9436.4387       237750         2935 
47560000   0.99572365   -4.9023869      1728000     9438.513       237800         2936 
47570000    1.0339508   -4.8326923      1728000      9440.59       237850         2936 
47580000    1.0105203   -4.8787222      1728000    9442.6974       237900         2936 
47590000    1.0137907   -4.8562206      1728000    9444.7585       237950         2936 
47600000   0.96752416   -4.9137625      1728000    9446.8214       238000         2936 
47610000   0.97599829   -4.8794423      1728000    9448.8972       238050         2937 
47620000   0.98861648   -4.9264931      1728000    9450.9541       238100         2937 
47630000    1.0147938   -4.9239402      1728000     9453.038       238150         2938 
47640000   0.96578666   -4.8408018      1728000    9455.1363       238200         2938 
47650000    1.0282908   -4.9514804      1728000    9457.2357       238250         2938 
47660000    1.0323004    -4.872065      1728000    9459.3596       238300         2939 
47670000    1.0344118   -4.9436602      1728000    9461.4228       238350         2939 
47680000    1.0356093   -4.8881291      1728000    9463.4758       238400         2939 
47690000   0.96275375   -4.8218617      1728000    9465.5476       238450         2939 
47700000    1.0102267   -5.0008206      1728000    9467.6195       238500         2940 
47710000    1.0065856   -4.8992245      1728000    9469.6554       238550         2940 
47720000    1.0434517   -4.8624054      1728000    9471.7163       238600         2940 
47730000   0.99805926   -4.8732828      1728000    9473.7962       238650         2940 
47740000    1.0587283   -4.8743435      1728000    9475.8906       238700         2940 
47750000   0.97274699   -4.9021476      1728000    9478.0167       238750         2940 
47760000    1.0018778   -4.9246323      1728000    9480.1076       238800         2940 
47770000    1.0599286   -4.9752731      1728000    9482.1805       238850         2940 
47780000    1.0542716   -4.8908269      1728000    9484.2654       238900         2940 
47790000    1.0053197   -4.8581928      1728000    9486.3364       238950         2941 
47800000   0.96174927   -4.8816965      1728000    9488.4203       239000         2941 
47810000   0.97922948   -4.8197273      1728000    9490.5591       239050         2941 
47820000    1.0067149    -4.942349      1728000      9492.62       239100         2941 
47830000    1.0416475    -4.871557      1728000    9494.7229       239150         2942 
47840000   0.96818093   -4.7976034      1728000    9496.8218       239200         2942 
47850000    1.0246693   -4.7885221      1728000    9498.9466       239250         2942 
47860000     1.046443   -4.8419006      1728000    9501.0304       239300         2943 
47870000    1.0620466   -4.8131834      1728000    9503.1274       239350         2943 
47880000     1.068091   -4.8784526      1728000    9505.1782       239400         2944 
47890000   0.93793249   -4.7423502      1728000    9507.2398       239450         2945 
47900000    1.0628555   -4.8685843      1728000    9509.3285       239500         2945 
47910000   0.97250914   -4.9880005      1728000     9511.441       239550         2946 
47920000    1.0345821   -4.9652766      1728000    9514.1809       239600         2946 
47930000    0.9735897   -4.8187627      1728000    9516.3104       239650         2946 
47940000   0.98094673   -4.8605396      1728000    9518.3853       239700         2947 
47950000    1.0489466   -4.8604318      1728000    9520.4693       239750         2947 
47960000   0.96985728   -4.7580691      1728000    9522.5122       239800         2947 
47970000    1.0083032   -4.7872201      1728000    9524.6151       239850         2947 
47980000    1.0336894   -4.8974022      1728000     9526.667       239900         2948 
47990000   0.96016287   -4.8466725      1728000    9528.7359       239950         2948 
48000000     0.963448   -4.7543301      1728000    9530.8537       240000         2948 
48010000    1.0354619   -4.8265312      1728000    9532.9356       240050         2948 
48020000   0.97669067   -4.7906023      1728000    9535.0255       240100         2948 
48030000   0.94923627    -4.770759      1728000    9537.1375       240150         2948 
48040000    0.9227787   -4.8945568      1728000    9539.2066       240200         2948 
48050000    1.0229252   -4.8847401      1728000    9541.2894       240250         2948 
48060000   0.92415684   -4.8443893      1728000    9543.4175       240300         2948 
48070000   0.98669772   -4.8556229      1728000    9545.4922       240350         2948 
48080000   0.97373322   -4.8187043      1728000    9547.5774       240400         2949 
48090000    1.0073119   -4.9239146      1728000    9549.6776       240450         2950 
48100000   0.95028004   -4.8272835      1728000    9551.6917       240500         2950 
48110000    1.0421193    -4.809601      1728000    9553.7815       240550         2950 
48120000    1.0130515   -4.9352297      1728000    9555.8292       240600         2950 
48130000   0.98386301    -4.909492      1728000    9557.9281       240650         2950 
48140000   0.99255696   -4.8508874      1728000    9559.9692       240700         2950 
48150000    1.0030143   -4.7690768      1728000    9562.0331       240750         2950 
48160000    1.0352669   -4.8269623      1728000     9564.101       240800         2950 
48170000   0.98172675   -4.8639097      1728000    9566.1776       240850         2950 
48180000   0.96324696    -4.900608      1728000    9568.2757       240900         2951 
48190000    1.0065929   -4.8263805      1728000    9570.3466       240950         2951 
48200000   0.97282576   -4.8115908      1728000    9572.4524       241000         2951 
48210000    1.0257287   -4.7972754      1728000    9574.5463       241050         2951 
48220000    0.9866996   -4.8258529      1728000    9576.6444       241100         2951 
48230000    1.0303177   -4.9039651      1728000    9578.7215       241150         2951 
48240000   0.96617653   -4.8632747      1728000    9580.7907       241200         2952 
48250000    1.0182204   -4.8538816      1728000    9582.8286       241250         2953 
48260000   0.99411394   -4.8057373      1728000    9584.8947       241300         2953 
48270000    1.0018012   -4.9305529      1728000    9586.9566       241350         2953 
48280000    1.0552627   -4.8336843      1728000    9588.9975       241400         2953 
48290000    1.0000035   -4.8789235      1728000    9591.0196       241450         2953 
48300000   0.96920249    -4.818902      1728000    9593.0563       241500         2955 
48310000    1.0171916   -4.8288276      1728000    9595.1329       241550         2956 
48320000    1.0122642   -4.8988605      1728000    9597.1741       241600         2956 
48330000   0.95533045   -4.8428936      1728000    9599.2445       241650         2957 
48340000    1.0654059   -4.9657833      1728000    9601.3544       241700         2957 
48350000   0.96845658   -4.8594515      1728000    9603.5157       241750         2957 
48360000    1.0583117   -4.7727269      1728000    9605.6009       241800         2958 
48370000   0.92506913   -4.9298342      1728000    9607.6892       241850         2960 
48380000   0.95774425   -4.8748772      1728000    9609.7797       241900         2960 
48390000    1.0475007   -4.7895048      1728000    9611.8624       241950         2960 
48400000   0.97705582   -4.9733176      1728000    9613.9485       242000         2961 
48410000    1.0483043   -4.9377337      1728000    9616.0232       242050         2961 
48420000   0.95361125   -4.9942844      1728000    9618.0945       242100         2961 
48430000   0.98742598   -4.9209044      1728000    9620.1431       242150         2961 
48440000   0.98094458   -4.8187629      1728000    9622.1777       242200         2961 
48450000   0.97612553   -4.9186533      1728000    9624.2077       242250         2962 
48460000   0.94413075   -4.8912553      1728000    9626.2737       242300         2962 
48470000    1.0033225   -4.9533238      1728000    9628.3436       242350         2962 
48480000   0.97070507   -4.9603501      1728000    9630.4136       242400         2962 
48490000    1.0026422   -4.8222486      1728000    9632.4705       242450         2962 
48500000   0.99857132   -4.9743391      1728000    9634.5491       242500         2962 
48510000    1.0149699   -4.8301476      1728000     9636.583       242550         2962 
48520000    1.0384546   -4.8022233      1728000     9638.617       242600         2962 
48530000    1.0153795   -4.8123291      1728000    9640.6899       242650         2962 
48540000     1.081476   -4.8016106      1728000    9642.7373       242700         2962 
48550000   0.93676434   -5.0042983      1728000    9644.8011       242750         2962 
48560000    1.0267621   -4.8627106      1728000    9646.8414       242800         2962 
48570000    1.0449586   -4.8938589      1728000    9648.8523       242850         2962 
48580000    1.0202693   -4.8938263      1728000    9650.9254       242900         2962 
48590000   0.99095884    -4.926491      1728000    9652.9313       242950         2962 
48600000   0.93503946   -4.7720238      1728000    9655.2849       243000         2962 
48610000    1.0255041    -4.794368      1728000    9657.3555       243050         2962 
48620000   0.95815662   -4.9593766      1728000    9659.3878       243100         2962 
48630000    1.0517315   -4.8934879      1728000    9661.4581       243150         2962 
48640000    1.0700014   -4.8551125      1728000     9663.479       243200         2962 
48650000    1.0307644   -4.8780393      1728000     9665.511       243250         2962 
48660000   0.97443654   -4.8838198      1728000    9667.5644       243300         2962 
48670000   0.99679897   -4.8167438      1728000    9669.5993       243350         2962 
48680000   0.94948481   -4.8920554      1728000    9671.7422       243400         2962 
48690000    1.0584022   -4.8574163      1728000     9673.886       243450         2962 
48700000   0.94303506   -4.8895697      1728000    9675.9906       243500         2962 
48710000    1.0292002   -4.8904018      1728000    9678.1057       243550         2962 
48720000   0.99851504   -5.0280245      1728000    9680.1776       243600         2962 
48730000   0.98158542   -4.8747218      1728000    9682.2597       243650         2962 
48740000   0.96475595   -4.9228541      1728000    9684.3607       243700         2962 
48750000   0.96817635   -4.9690686      1728000    9686.4315       243750         2962 
48760000   0.97803057   -4.7991313      1728000    9688.5304       243800         2962 
48770000    1.0182838   -4.9530596      1728000    9690.6255       243850         2962 
48780000    1.0699551    -4.886356      1728000    9692.6934       243900         2962 
48790000   0.97607215   -4.8448727      1728000    9694.7475       243950         2962 
48800000   0.98586114   -4.9331606      1728000    9696.8266       244000         2962 
48810000   0.95564219   -4.9184992      1728000    9698.8526       244050         2962 
48820000    1.0290453   -4.8806314      1728000    9700.8927       244100         2962 
48830000    1.0269076   -4.9156968      1728000    9702.9766       244150         2962 
48840000   0.99693581   -4.8955992      1728000    9704.9965       244200         2962 
48850000    1.0155812   -4.8643652      1728000    9707.0045       244250         2962 
48860000   0.99074689   -5.0580417      1728000    9709.0566       244300         2962 
48870000    1.0180371   -4.9073696      1728000    9711.1176       244350         2962 
48880000   0.96172309   -4.8804532      1728000    9713.1596       244400         2962 
48890000   0.99248537   -4.9084108      1728000    9715.1814       244450         2962 
48900000    1.0125603   -4.9530082      1728000    9717.2238       244500         2962 
48910000    1.0039724   -4.9870463      1728000    9719.2617       244550         2962 
48920000    1.0281265   -5.0474173      1728000    9721.2946       244600         2962 
48930000   0.99681484   -4.8290405      1728000    9723.3472       244650         2962 
48940000    1.0676901   -4.9336573      1728000    9725.4321       244700         2962 
48950000    1.0383008    -4.908982      1728000    9727.5196       244750         2962 
48960000    1.0327257   -4.9001697      1728000    9729.6106       244800         2962 
48970000    1.0490189   -4.9513183      1728000    9731.7039       244850         2962 
48980000   0.96509271   -5.0585951      1728000    9733.8008       244900         2962 
48990000    1.0192257    -4.932096      1728000    9735.8655       244950         2962 
49000000   0.97138343    -4.922412      1728000    9737.9397       245000         2962 
49010000    1.0406369   -4.8525912      1728000    9740.0658       245050         2962 
49020000   0.92303234    -4.985624      1728000    9742.1914       245100         2962 
49030000    1.0435016    -4.804437      1728000    9744.2907       245150         2962 
49040000     1.004925    -4.915209      1728000    9746.3828       245200         2962 
49050000   0.97562237   -4.9327117      1728000    9748.4527       245250         2962 
49060000    1.0167415   -4.7861679      1728000    9750.4996       245300         2962 
49070000      1.01132   -4.8806246      1728000    9752.5925       245350         2962 
49080000   0.94939511   -4.9324736      1728000    9754.6853       245400         2962 
49090000   0.99378783    -4.916586      1728000      9757.03       245450         2962 
49100000     1.032632   -4.9098352      1728000    9759.3317       245500         2962 
49110000   0.93748748    -4.778679      1728000    9761.4878       245550         2962 
49120000   0.96598492   -4.9551699      1728000    9763.5637       245600         2963 
49130000   0.95579057    -4.897529      1728000    9765.6377       245650         2963 
49140000   0.99445229   -4.9598762      1728000    9767.7676       245700         2963 
49150000    1.0819502   -4.9426755      1728000    9769.9493       245750         2964 
49160000   0.94365211   -4.9503521      1728000    9772.0821       245800         2964 
49170000    1.0123308   -5.0041137      1728000    9774.1692       245850         2965 
49180000   0.99270468   -4.7892256      1728000    9776.2541       245900         2965 
49190000   0.92376422   -4.8314701      1728000     9778.291       245950         2965 
49200000    1.0089729   -4.8124239      1728000    9780.4031       246000         2965 
49210000   0.99575858    -4.914597      1728000    9782.4834       246050         2966 
49220000   0.97828546   -4.9196264      1728000    9784.6052       246100         2966 
49230000    1.0567385   -4.7809687      1728000    9786.7192       246150         2967 
49240000    1.0362247   -4.8073556      1728000    9788.8251       246200         2967 
49250000     1.000274   -4.8570643      1728000    9790.9259       246250         2967 
49260000    0.9800317   -4.8679644      1728000    9793.0051       246300         2967 
49270000    1.0735841   -4.8620665      1728000    9795.0891       246350         2967 
49280000    1.0301676   -4.9401938      1728000    9797.1974       246400         2967 
49290000     1.015494   -4.7955474      1728000    9799.2993       246450         2967 
49300000    1.0103278   -4.7411211      1728000    9801.4014       246500         2967 
49310000   0.99917846   -4.9729226      1728000    9803.4902       246550         2968 
49320000    1.0861455   -4.7556576      1728000    9805.5361       246600         2968 
49330000   0.94578104   -5.0303497      1728000    9807.5553       246650         2968 
49340000   0.95984346   -4.9022802      1728000    9809.6092       246700         2968 
49350000   0.98642567   -4.8591485      1728000    9811.6345       246750         2968 
49360000   0.94750928   -4.9109759      1728000    9813.6574       246800         2970 
49370000    1.0104451   -4.9342425      1728000    9815.6876       246850         2972 
49380000    1.0060224   -4.8903681      1728000    9817.7711       246900         2972 
49390000    1.0449122   -4.9740416      1728000    9819.8463       246950         2972 
49400000   0.96764484   -4.7267132      1728000    9821.8722       247000         2972 
49410000    1.1112089   -4.9371822      1728000    9823.8921       247050         2972 
49420000   0.99890707   -4.8425348      1728000     9825.933       247100         2973 
49430000     1.004342   -4.9146116      1728000    9827.9809       247150         2973 
49440000    1.0019237   -4.9843917      1728000    9830.0129       247200         2973 
49450000    1.0451834   -4.8955644      1728000    9832.0228       247250         2973 
49460000    1.0250413   -4.8451434      1728000    9834.0497       247300         2973 
49470000    1.0090134   -4.7618789      1728000    9836.0921       247350         2973 
49480000    1.0475002   -4.9781961      1728000     9838.105       247400         2974 
49490000   0.91234703   -5.0426452      1728000     9840.116       247450         2974 
49500000   0.99855764   -5.0132021      1728000    9842.1539       247500         2974 
49510000    1.0261741   -5.0023265      1728000    9844.2018       247550         2974 
49520000   0.98436565   -5.0179898      1728000     9846.201       247600         2974 
49530000    1.0282091   -4.9502311      1728000    9848.2922       247650         2974 
49540000   0.96192574   -4.8934718      1728000    9850.3698       247700         2974 
49550000   0.94973426     -4.85881      1728000    9852.4352       247750         2974 
49560000   0.97826925   -5.0529999      1728000    9854.4801       247800         2974 
49570000     1.047795   -4.9294204      1728000    9856.5573       247850         2974 
49580000   0.96222276   -4.9446884      1728000    9858.6233       247900         2974 
49590000   0.96421091   -4.9233776      1728000    9860.7213       247950         2974 
49600000    1.0245066   -4.9080371      1728000    9862.8311       248000         2974 
49610000    1.0572505   -4.8213431      1728000     9864.914       248050         2974 
49620000    1.0723953   -4.9836306      1728000    9866.9772       248100         2974 
49630000    1.0416089   -4.9047273      1728000    9869.0399       248150         2974 
49640000    1.0069155   -5.0308813      1728000     9871.107       248200         2974 
49650000    1.0410753   -4.9091997      1728000    9873.1866       248250         2974 
49660000    1.0367941   -4.9380895      1728000    9875.2435       248300         2974 
49670000   0.99729171   -4.7977424      1728000    9877.3223       248350         2974 
49680000    1.0360402   -4.9691812      1728000    9879.4132       248400         2974 
49690000    0.9920738   -4.8189503      1728000    9881.5174       248450         2974 
49700000    1.0422047   -4.8308521      1728000    9883.5996       248500         2974 
49710000   0.98317623   -4.9439281      1728000    9885.6535       248550         2974 
49720000    1.0332531   -4.8209822      1728000    9887.7855       248600         2974 
49730000    1.0187455   -4.9073181      1728000    9890.4861       248650         2974 
49740000     1.018076   -4.8889651      1728000    9892.5743       248700         2974 
49750000   0.99065412   -4.9204762      1728000    9894.6874       248750         2974 
49760000   0.96917798     -5.01202      1728000     9896.792       248800         2974 
49770000    1.0269296   -4.8623276      1728000    9898.9117       248850         2974 
49780000   0.99735011     -4.99291      1728000    9901.0074       248900         2974 
49790000    1.0189489   -4.9444217      1728000    9903.0864       248950         2974 
49800000   0.99200964   -4.9633496      1728000    9905.1475       249000         2976 
49810000   0.99774919   -4.7576684      1728000    9907.1634       249050         2976 
49820000    1.0064877   -4.9870145      1728000    9909.3522       249100         2977 
49830000     1.005859   -4.9695369      1728000    9911.5199       249150         2977 
49840000   0.98481959   -4.7897278      1728000    9913.7107       249200         2977 
49850000    1.0537674   -4.8920647      1728000    9915.8277       249250         2977 
49860000   0.98461578   -4.9096983      1728000     9917.943       249300         2977 
49870000   0.98857855   -5.0049708      1728000     9919.996       249350         2977 
49880000   0.94716111   -4.9802704      1728000    9922.0661       249400         2978 
49890000   0.96724789   -4.9775391      1728000    9924.1649       249450         2978 
49900000     1.014696   -4.8789059      1728000    9926.2734       249500         2978 
49910000    1.0170304   -4.9034782      1728000    9928.3301       249550         2978 
49920000   0.99243594   -4.8534542      1728000     9930.392       249600         2978 
49930000     1.062974   -4.8824869      1728000    9932.4492       249650         2978 
49940000   0.97170356   -4.8890486      1728000    9934.5427       249700         2978 
49950000   0.99415942   -4.9336624      1728000     9936.644       249750         2978 
49960000   0.98274454   -4.9987309      1728000    9938.7602       249800         2978 
49970000   0.99355578   -4.9005941      1728000    9940.8038       249850         2978 
49980000    1.0182704   -4.9380893      1728000    9942.8919       249900         2978 
49990000    1.0314875   -4.7802554      1728000    9944.9795       249950         2978 
50000000    1.0080691    -4.925991      1728000    9947.0617       250000         2978 
Loop time of 9947.06 on 1 procs for 50000000 steps with 500 atoms

Performance: 4342989.767 tau/day, 5026.609 timesteps/s
99.0% CPU use with 1 MPI tasks x 1 OpenMP threads

MPI task timing breakdown:
Section |  min time  |  avg time  |  max time  |%varavg| %total
---------------------------------------------------------------
Pair    | 5217.6     | 5217.6     | 5217.6     |   0.0 | 52.45
Bond    | 1126.3     | 1126.3     | 1126.3     |   0.0 | 11.32
Neigh   | 1631.3     | 1631.3     | 1631.3     |   0.0 | 16.40
Comm    | 36.242     | 36.242     | 36.242     |   0.0 |  0.36
Output  | 18.236     | 18.236     | 18.236     |   0.0 |  0.18
Modify  | 1828.8     | 1828.8     | 1828.8     |   0.0 | 18.39
Other   |            | 88.55      |            |       |  0.89

Nlocal:    500 ave 500 max 500 min
Histogram: 1 0 0 0 0 0 0 0 0 0
Nghost:    0 ave 0 max 0 min
Histogram: 1 0 0 0 0 0 0 0 0 0
Neighs:    15893 ave 15893 max 15893 min
Histogram: 1 0 0 0 0 0 0 0 0 0

Total # of neighbors = 15893
Ave neighs/atom = 31.786
Ave special neighs/atom = 5.976
Neighbor list builds = 2444733
Dangerous builds = 0

################
## ULOOP    ####
################
clear
OMP_NUM_THREADS environment is not set. Defaulting to 1 thread. (../comm.cpp:87)
  using 1 OpenMP thread(s) per MPI task
variable rname delete
variable simname delete
variable folder delete
variable seed delete
variable E delete
variable RW delete
variable SimOutType delete
variable SimInType delete
variable jn delete
variable jf delete

next jbn
Increment via next: value 2 on partition 0
jump SELF #last line!!!

### If e.g. I run this on 10 partitions of 1 processor,
### and initialise the variable with 'uloop N'
### it will run 10 simulations with 'jobnumber' taking
### values 1-10. Then when a particular simulation finishes, the
### script will be run again with the next value of jobnumber,
### until N simulations have been run.
## SO ULOOP IS "SERIAL" BUT FOR SURE 10x1 PROCs ARE ALWAYS BUSY
Total wall time: 2:45:57
